*SPEF "ieee 1481-1999"
*DESIGN "openframe_project_wrapper"
*DATE "03:39:41 Tuesday September 22, 2026"
*VENDOR "The OpenROAD Project"
*PROGRAM "OpenROAD"
*VERSION "edf00dff99f6c40d67a30c0e22a8191c5d2ed9d6"
*DESIGN_FLOW "NAME_SCOPE LOCAL" "PIN_CAP NONE"
*DIVIDER /
*DELIMITER :
*BUS_DELIMITER []
*T_UNIT 1 NS
*C_UNIT 1 PF
*R_UNIT 1 OHM
*L_UNIT 1 HENRY

*NAME_MAP
*1 analog_io[0]
*2 analog_io[10]
*3 analog_io[11]
*4 analog_io[12]
*5 analog_io[13]
*6 analog_io[14]
*7 analog_io[15]
*8 analog_io[16]
*9 analog_io[17]
*10 analog_io[18]
*11 analog_io[19]
*12 analog_io[1]
*13 analog_io[20]
*14 analog_io[21]
*15 analog_io[22]
*16 analog_io[23]
*17 analog_io[24]
*18 analog_io[25]
*19 analog_io[26]
*20 analog_io[27]
*21 analog_io[28]
*22 analog_io[29]
*23 analog_io[2]
*24 analog_io[30]
*25 analog_io[31]
*26 analog_io[32]
*27 analog_io[33]
*28 analog_io[34]
*29 analog_io[35]
*30 analog_io[36]
*31 analog_io[37]
*32 analog_io[38]
*33 analog_io[39]
*34 analog_io[3]
*35 analog_io[40]
*36 analog_io[41]
*37 analog_io[42]
*38 analog_io[43]
*39 analog_io[4]
*40 analog_io[5]
*41 analog_io[6]
*42 analog_io[7]
*43 analog_io[8]
*44 analog_io[9]
*45 analog_noesd_io[0]
*46 analog_noesd_io[10]
*47 analog_noesd_io[11]
*48 analog_noesd_io[12]
*49 analog_noesd_io[13]
*50 analog_noesd_io[14]
*51 analog_noesd_io[15]
*52 analog_noesd_io[16]
*53 analog_noesd_io[17]
*54 analog_noesd_io[18]
*55 analog_noesd_io[19]
*56 analog_noesd_io[1]
*57 analog_noesd_io[20]
*58 analog_noesd_io[21]
*59 analog_noesd_io[22]
*60 analog_noesd_io[23]
*61 analog_noesd_io[24]
*62 analog_noesd_io[25]
*63 analog_noesd_io[26]
*64 analog_noesd_io[27]
*65 analog_noesd_io[28]
*66 analog_noesd_io[29]
*67 analog_noesd_io[2]
*68 analog_noesd_io[30]
*69 analog_noesd_io[31]
*70 analog_noesd_io[32]
*71 analog_noesd_io[33]
*72 analog_noesd_io[34]
*73 analog_noesd_io[35]
*74 analog_noesd_io[36]
*75 analog_noesd_io[37]
*76 analog_noesd_io[38]
*77 analog_noesd_io[39]
*78 analog_noesd_io[3]
*79 analog_noesd_io[40]
*80 analog_noesd_io[41]
*81 analog_noesd_io[42]
*82 analog_noesd_io[43]
*83 analog_noesd_io[4]
*84 analog_noesd_io[5]
*85 analog_noesd_io[6]
*86 analog_noesd_io[7]
*87 analog_noesd_io[8]
*88 analog_noesd_io[9]
*89 gpio_analog_en[0]
*90 gpio_analog_en[10]
*91 gpio_analog_en[11]
*92 gpio_analog_en[12]
*93 gpio_analog_en[13]
*94 gpio_analog_en[14]
*95 gpio_analog_en[15]
*96 gpio_analog_en[16]
*97 gpio_analog_en[17]
*98 gpio_analog_en[18]
*99 gpio_analog_en[19]
*100 gpio_analog_en[1]
*101 gpio_analog_en[20]
*102 gpio_analog_en[21]
*103 gpio_analog_en[22]
*104 gpio_analog_en[23]
*105 gpio_analog_en[24]
*106 gpio_analog_en[25]
*107 gpio_analog_en[26]
*108 gpio_analog_en[27]
*109 gpio_analog_en[28]
*110 gpio_analog_en[29]
*111 gpio_analog_en[2]
*112 gpio_analog_en[30]
*113 gpio_analog_en[31]
*114 gpio_analog_en[32]
*115 gpio_analog_en[33]
*116 gpio_analog_en[34]
*117 gpio_analog_en[35]
*118 gpio_analog_en[36]
*119 gpio_analog_en[37]
*120 gpio_analog_en[38]
*121 gpio_analog_en[39]
*122 gpio_analog_en[3]
*123 gpio_analog_en[40]
*124 gpio_analog_en[41]
*125 gpio_analog_en[42]
*126 gpio_analog_en[43]
*127 gpio_analog_en[4]
*128 gpio_analog_en[5]
*129 gpio_analog_en[6]
*130 gpio_analog_en[7]
*131 gpio_analog_en[8]
*132 gpio_analog_en[9]
*133 gpio_analog_pol[0]
*134 gpio_analog_pol[10]
*135 gpio_analog_pol[11]
*136 gpio_analog_pol[12]
*137 gpio_analog_pol[13]
*138 gpio_analog_pol[14]
*139 gpio_analog_pol[15]
*140 gpio_analog_pol[16]
*141 gpio_analog_pol[17]
*142 gpio_analog_pol[18]
*143 gpio_analog_pol[19]
*144 gpio_analog_pol[1]
*145 gpio_analog_pol[20]
*146 gpio_analog_pol[21]
*147 gpio_analog_pol[22]
*148 gpio_analog_pol[23]
*149 gpio_analog_pol[24]
*150 gpio_analog_pol[25]
*151 gpio_analog_pol[26]
*152 gpio_analog_pol[27]
*153 gpio_analog_pol[28]
*154 gpio_analog_pol[29]
*155 gpio_analog_pol[2]
*156 gpio_analog_pol[30]
*157 gpio_analog_pol[31]
*158 gpio_analog_pol[32]
*159 gpio_analog_pol[33]
*160 gpio_analog_pol[34]
*161 gpio_analog_pol[35]
*162 gpio_analog_pol[36]
*163 gpio_analog_pol[37]
*164 gpio_analog_pol[38]
*165 gpio_analog_pol[39]
*166 gpio_analog_pol[3]
*167 gpio_analog_pol[40]
*168 gpio_analog_pol[41]
*169 gpio_analog_pol[42]
*170 gpio_analog_pol[43]
*171 gpio_analog_pol[4]
*172 gpio_analog_pol[5]
*173 gpio_analog_pol[6]
*174 gpio_analog_pol[7]
*175 gpio_analog_pol[8]
*176 gpio_analog_pol[9]
*177 gpio_analog_sel[0]
*178 gpio_analog_sel[10]
*179 gpio_analog_sel[11]
*180 gpio_analog_sel[12]
*181 gpio_analog_sel[13]
*182 gpio_analog_sel[14]
*183 gpio_analog_sel[15]
*184 gpio_analog_sel[16]
*185 gpio_analog_sel[17]
*186 gpio_analog_sel[18]
*187 gpio_analog_sel[19]
*188 gpio_analog_sel[1]
*189 gpio_analog_sel[20]
*190 gpio_analog_sel[21]
*191 gpio_analog_sel[22]
*192 gpio_analog_sel[23]
*193 gpio_analog_sel[24]
*194 gpio_analog_sel[25]
*195 gpio_analog_sel[26]
*196 gpio_analog_sel[27]
*197 gpio_analog_sel[28]
*198 gpio_analog_sel[29]
*199 gpio_analog_sel[2]
*200 gpio_analog_sel[30]
*201 gpio_analog_sel[31]
*202 gpio_analog_sel[32]
*203 gpio_analog_sel[33]
*204 gpio_analog_sel[34]
*205 gpio_analog_sel[35]
*206 gpio_analog_sel[36]
*207 gpio_analog_sel[37]
*208 gpio_analog_sel[38]
*209 gpio_analog_sel[39]
*210 gpio_analog_sel[3]
*211 gpio_analog_sel[40]
*212 gpio_analog_sel[41]
*213 gpio_analog_sel[42]
*214 gpio_analog_sel[43]
*215 gpio_analog_sel[4]
*216 gpio_analog_sel[5]
*217 gpio_analog_sel[6]
*218 gpio_analog_sel[7]
*219 gpio_analog_sel[8]
*220 gpio_analog_sel[9]
*221 gpio_dm0[0]
*222 gpio_dm0[10]
*223 gpio_dm0[11]
*224 gpio_dm0[12]
*225 gpio_dm0[13]
*226 gpio_dm0[14]
*227 gpio_dm0[15]
*228 gpio_dm0[16]
*229 gpio_dm0[17]
*230 gpio_dm0[18]
*231 gpio_dm0[19]
*232 gpio_dm0[1]
*233 gpio_dm0[20]
*234 gpio_dm0[21]
*235 gpio_dm0[22]
*236 gpio_dm0[23]
*237 gpio_dm0[24]
*238 gpio_dm0[25]
*239 gpio_dm0[26]
*240 gpio_dm0[27]
*241 gpio_dm0[28]
*242 gpio_dm0[29]
*243 gpio_dm0[2]
*244 gpio_dm0[30]
*245 gpio_dm0[31]
*246 gpio_dm0[32]
*247 gpio_dm0[33]
*248 gpio_dm0[34]
*249 gpio_dm0[35]
*250 gpio_dm0[36]
*251 gpio_dm0[37]
*252 gpio_dm0[38]
*253 gpio_dm0[39]
*254 gpio_dm0[3]
*255 gpio_dm0[40]
*256 gpio_dm0[41]
*257 gpio_dm0[42]
*258 gpio_dm0[43]
*259 gpio_dm0[4]
*260 gpio_dm0[5]
*261 gpio_dm0[6]
*262 gpio_dm0[7]
*263 gpio_dm0[8]
*264 gpio_dm0[9]
*265 gpio_dm1[0]
*266 gpio_dm1[10]
*267 gpio_dm1[11]
*268 gpio_dm1[12]
*269 gpio_dm1[13]
*270 gpio_dm1[14]
*271 gpio_dm1[15]
*272 gpio_dm1[16]
*273 gpio_dm1[17]
*274 gpio_dm1[18]
*275 gpio_dm1[19]
*276 gpio_dm1[1]
*277 gpio_dm1[20]
*278 gpio_dm1[21]
*279 gpio_dm1[22]
*280 gpio_dm1[23]
*281 gpio_dm1[24]
*282 gpio_dm1[25]
*283 gpio_dm1[26]
*284 gpio_dm1[27]
*285 gpio_dm1[28]
*286 gpio_dm1[29]
*287 gpio_dm1[2]
*288 gpio_dm1[30]
*289 gpio_dm1[31]
*290 gpio_dm1[32]
*291 gpio_dm1[33]
*292 gpio_dm1[34]
*293 gpio_dm1[35]
*294 gpio_dm1[36]
*295 gpio_dm1[37]
*296 gpio_dm1[38]
*297 gpio_dm1[39]
*298 gpio_dm1[3]
*299 gpio_dm1[40]
*300 gpio_dm1[41]
*301 gpio_dm1[42]
*302 gpio_dm1[43]
*303 gpio_dm1[4]
*304 gpio_dm1[5]
*305 gpio_dm1[6]
*306 gpio_dm1[7]
*307 gpio_dm1[8]
*308 gpio_dm1[9]
*309 gpio_dm2[0]
*310 gpio_dm2[10]
*311 gpio_dm2[11]
*312 gpio_dm2[12]
*313 gpio_dm2[13]
*314 gpio_dm2[14]
*315 gpio_dm2[15]
*316 gpio_dm2[16]
*317 gpio_dm2[17]
*318 gpio_dm2[18]
*319 gpio_dm2[19]
*320 gpio_dm2[1]
*321 gpio_dm2[20]
*322 gpio_dm2[21]
*323 gpio_dm2[22]
*324 gpio_dm2[23]
*325 gpio_dm2[24]
*326 gpio_dm2[25]
*327 gpio_dm2[26]
*328 gpio_dm2[27]
*329 gpio_dm2[28]
*330 gpio_dm2[29]
*331 gpio_dm2[2]
*332 gpio_dm2[30]
*333 gpio_dm2[31]
*334 gpio_dm2[32]
*335 gpio_dm2[33]
*336 gpio_dm2[34]
*337 gpio_dm2[35]
*338 gpio_dm2[36]
*339 gpio_dm2[37]
*340 gpio_dm2[38]
*341 gpio_dm2[39]
*342 gpio_dm2[3]
*343 gpio_dm2[40]
*344 gpio_dm2[41]
*345 gpio_dm2[42]
*346 gpio_dm2[43]
*347 gpio_dm2[4]
*348 gpio_dm2[5]
*349 gpio_dm2[6]
*350 gpio_dm2[7]
*351 gpio_dm2[8]
*352 gpio_dm2[9]
*353 gpio_holdover[0]
*354 gpio_holdover[10]
*355 gpio_holdover[11]
*356 gpio_holdover[12]
*357 gpio_holdover[13]
*358 gpio_holdover[14]
*359 gpio_holdover[15]
*360 gpio_holdover[16]
*361 gpio_holdover[17]
*362 gpio_holdover[18]
*363 gpio_holdover[19]
*364 gpio_holdover[1]
*365 gpio_holdover[20]
*366 gpio_holdover[21]
*367 gpio_holdover[22]
*368 gpio_holdover[23]
*369 gpio_holdover[24]
*370 gpio_holdover[25]
*371 gpio_holdover[26]
*372 gpio_holdover[27]
*373 gpio_holdover[28]
*374 gpio_holdover[29]
*375 gpio_holdover[2]
*376 gpio_holdover[30]
*377 gpio_holdover[31]
*378 gpio_holdover[32]
*379 gpio_holdover[33]
*380 gpio_holdover[34]
*381 gpio_holdover[35]
*382 gpio_holdover[36]
*383 gpio_holdover[37]
*384 gpio_holdover[38]
*385 gpio_holdover[39]
*386 gpio_holdover[3]
*387 gpio_holdover[40]
*388 gpio_holdover[41]
*389 gpio_holdover[42]
*390 gpio_holdover[43]
*391 gpio_holdover[4]
*392 gpio_holdover[5]
*393 gpio_holdover[6]
*394 gpio_holdover[7]
*395 gpio_holdover[8]
*396 gpio_holdover[9]
*397 gpio_ib_mode_sel[0]
*398 gpio_ib_mode_sel[10]
*399 gpio_ib_mode_sel[11]
*400 gpio_ib_mode_sel[12]
*401 gpio_ib_mode_sel[13]
*402 gpio_ib_mode_sel[14]
*403 gpio_ib_mode_sel[15]
*404 gpio_ib_mode_sel[16]
*405 gpio_ib_mode_sel[17]
*406 gpio_ib_mode_sel[18]
*407 gpio_ib_mode_sel[19]
*408 gpio_ib_mode_sel[1]
*409 gpio_ib_mode_sel[20]
*410 gpio_ib_mode_sel[21]
*411 gpio_ib_mode_sel[22]
*412 gpio_ib_mode_sel[23]
*413 gpio_ib_mode_sel[24]
*414 gpio_ib_mode_sel[25]
*415 gpio_ib_mode_sel[26]
*416 gpio_ib_mode_sel[27]
*417 gpio_ib_mode_sel[28]
*418 gpio_ib_mode_sel[29]
*419 gpio_ib_mode_sel[2]
*420 gpio_ib_mode_sel[30]
*421 gpio_ib_mode_sel[31]
*422 gpio_ib_mode_sel[32]
*423 gpio_ib_mode_sel[33]
*424 gpio_ib_mode_sel[34]
*425 gpio_ib_mode_sel[35]
*426 gpio_ib_mode_sel[36]
*427 gpio_ib_mode_sel[37]
*428 gpio_ib_mode_sel[38]
*429 gpio_ib_mode_sel[39]
*430 gpio_ib_mode_sel[3]
*431 gpio_ib_mode_sel[40]
*432 gpio_ib_mode_sel[41]
*433 gpio_ib_mode_sel[42]
*434 gpio_ib_mode_sel[43]
*435 gpio_ib_mode_sel[4]
*436 gpio_ib_mode_sel[5]
*437 gpio_ib_mode_sel[6]
*438 gpio_ib_mode_sel[7]
*439 gpio_ib_mode_sel[8]
*440 gpio_ib_mode_sel[9]
*441 gpio_in[0]
*442 gpio_in[10]
*443 gpio_in[11]
*444 gpio_in[12]
*445 gpio_in[13]
*446 gpio_in[14]
*447 gpio_in[15]
*448 gpio_in[16]
*449 gpio_in[17]
*450 gpio_in[18]
*451 gpio_in[19]
*452 gpio_in[1]
*453 gpio_in[20]
*454 gpio_in[21]
*455 gpio_in[22]
*456 gpio_in[23]
*457 gpio_in[24]
*458 gpio_in[25]
*459 gpio_in[26]
*460 gpio_in[27]
*461 gpio_in[28]
*462 gpio_in[29]
*463 gpio_in[2]
*464 gpio_in[30]
*465 gpio_in[31]
*466 gpio_in[32]
*467 gpio_in[33]
*468 gpio_in[34]
*469 gpio_in[35]
*470 gpio_in[36]
*471 gpio_in[37]
*472 gpio_in[38]
*473 gpio_in[39]
*474 gpio_in[3]
*475 gpio_in[40]
*476 gpio_in[41]
*477 gpio_in[42]
*478 gpio_in[43]
*479 gpio_in[4]
*480 gpio_in[5]
*481 gpio_in[6]
*482 gpio_in[7]
*483 gpio_in[8]
*484 gpio_in[9]
*485 gpio_in_h[0]
*486 gpio_in_h[10]
*487 gpio_in_h[11]
*488 gpio_in_h[12]
*489 gpio_in_h[13]
*490 gpio_in_h[14]
*491 gpio_in_h[15]
*492 gpio_in_h[16]
*493 gpio_in_h[17]
*494 gpio_in_h[18]
*495 gpio_in_h[19]
*496 gpio_in_h[1]
*497 gpio_in_h[20]
*498 gpio_in_h[21]
*499 gpio_in_h[22]
*500 gpio_in_h[23]
*501 gpio_in_h[24]
*502 gpio_in_h[25]
*503 gpio_in_h[26]
*504 gpio_in_h[27]
*505 gpio_in_h[28]
*506 gpio_in_h[29]
*507 gpio_in_h[2]
*508 gpio_in_h[30]
*509 gpio_in_h[31]
*510 gpio_in_h[32]
*511 gpio_in_h[33]
*512 gpio_in_h[34]
*513 gpio_in_h[35]
*514 gpio_in_h[36]
*515 gpio_in_h[37]
*516 gpio_in_h[38]
*517 gpio_in_h[39]
*518 gpio_in_h[3]
*519 gpio_in_h[40]
*520 gpio_in_h[41]
*521 gpio_in_h[42]
*522 gpio_in_h[43]
*523 gpio_in_h[4]
*524 gpio_in_h[5]
*525 gpio_in_h[6]
*526 gpio_in_h[7]
*527 gpio_in_h[8]
*528 gpio_in_h[9]
*529 gpio_inp_dis[0]
*530 gpio_inp_dis[10]
*531 gpio_inp_dis[11]
*532 gpio_inp_dis[12]
*533 gpio_inp_dis[13]
*534 gpio_inp_dis[14]
*535 gpio_inp_dis[15]
*536 gpio_inp_dis[16]
*537 gpio_inp_dis[17]
*538 gpio_inp_dis[18]
*539 gpio_inp_dis[19]
*540 gpio_inp_dis[1]
*541 gpio_inp_dis[20]
*542 gpio_inp_dis[21]
*543 gpio_inp_dis[22]
*544 gpio_inp_dis[23]
*545 gpio_inp_dis[24]
*546 gpio_inp_dis[25]
*547 gpio_inp_dis[26]
*548 gpio_inp_dis[27]
*549 gpio_inp_dis[28]
*550 gpio_inp_dis[29]
*551 gpio_inp_dis[2]
*552 gpio_inp_dis[30]
*553 gpio_inp_dis[31]
*554 gpio_inp_dis[32]
*555 gpio_inp_dis[33]
*556 gpio_inp_dis[34]
*557 gpio_inp_dis[35]
*558 gpio_inp_dis[36]
*559 gpio_inp_dis[37]
*560 gpio_inp_dis[38]
*561 gpio_inp_dis[39]
*562 gpio_inp_dis[3]
*563 gpio_inp_dis[40]
*564 gpio_inp_dis[41]
*565 gpio_inp_dis[42]
*566 gpio_inp_dis[43]
*567 gpio_inp_dis[4]
*568 gpio_inp_dis[5]
*569 gpio_inp_dis[6]
*570 gpio_inp_dis[7]
*571 gpio_inp_dis[8]
*572 gpio_inp_dis[9]
*573 gpio_loopback_one[0]
*574 gpio_loopback_one[10]
*575 gpio_loopback_one[11]
*576 gpio_loopback_one[12]
*577 gpio_loopback_one[13]
*578 gpio_loopback_one[14]
*579 gpio_loopback_one[15]
*580 gpio_loopback_one[16]
*581 gpio_loopback_one[17]
*582 gpio_loopback_one[18]
*583 gpio_loopback_one[19]
*584 gpio_loopback_one[1]
*585 gpio_loopback_one[20]
*586 gpio_loopback_one[21]
*587 gpio_loopback_one[22]
*588 gpio_loopback_one[23]
*589 gpio_loopback_one[24]
*590 gpio_loopback_one[25]
*591 gpio_loopback_one[26]
*592 gpio_loopback_one[27]
*593 gpio_loopback_one[28]
*594 gpio_loopback_one[29]
*595 gpio_loopback_one[2]
*596 gpio_loopback_one[30]
*597 gpio_loopback_one[31]
*598 gpio_loopback_one[32]
*599 gpio_loopback_one[33]
*600 gpio_loopback_one[34]
*601 gpio_loopback_one[35]
*602 gpio_loopback_one[36]
*603 gpio_loopback_one[37]
*604 gpio_loopback_one[38]
*605 gpio_loopback_one[39]
*606 gpio_loopback_one[3]
*607 gpio_loopback_one[40]
*608 gpio_loopback_one[41]
*609 gpio_loopback_one[42]
*610 gpio_loopback_one[43]
*611 gpio_loopback_one[4]
*612 gpio_loopback_one[5]
*613 gpio_loopback_one[6]
*614 gpio_loopback_one[7]
*615 gpio_loopback_one[8]
*616 gpio_loopback_one[9]
*617 gpio_loopback_zero[0]
*618 gpio_loopback_zero[10]
*619 gpio_loopback_zero[11]
*620 gpio_loopback_zero[12]
*621 gpio_loopback_zero[13]
*622 gpio_loopback_zero[14]
*623 gpio_loopback_zero[15]
*624 gpio_loopback_zero[16]
*625 gpio_loopback_zero[17]
*626 gpio_loopback_zero[18]
*627 gpio_loopback_zero[19]
*628 gpio_loopback_zero[1]
*629 gpio_loopback_zero[20]
*630 gpio_loopback_zero[21]
*631 gpio_loopback_zero[22]
*632 gpio_loopback_zero[23]
*633 gpio_loopback_zero[24]
*634 gpio_loopback_zero[25]
*635 gpio_loopback_zero[26]
*636 gpio_loopback_zero[27]
*637 gpio_loopback_zero[28]
*638 gpio_loopback_zero[29]
*639 gpio_loopback_zero[2]
*640 gpio_loopback_zero[30]
*641 gpio_loopback_zero[31]
*642 gpio_loopback_zero[32]
*643 gpio_loopback_zero[33]
*644 gpio_loopback_zero[34]
*645 gpio_loopback_zero[35]
*646 gpio_loopback_zero[36]
*647 gpio_loopback_zero[37]
*648 gpio_loopback_zero[38]
*649 gpio_loopback_zero[39]
*650 gpio_loopback_zero[3]
*651 gpio_loopback_zero[40]
*652 gpio_loopback_zero[41]
*653 gpio_loopback_zero[42]
*654 gpio_loopback_zero[43]
*655 gpio_loopback_zero[4]
*656 gpio_loopback_zero[5]
*657 gpio_loopback_zero[6]
*658 gpio_loopback_zero[7]
*659 gpio_loopback_zero[8]
*660 gpio_loopback_zero[9]
*661 gpio_oeb[0]
*662 gpio_oeb[10]
*663 gpio_oeb[11]
*664 gpio_oeb[12]
*665 gpio_oeb[13]
*666 gpio_oeb[14]
*667 gpio_oeb[15]
*668 gpio_oeb[16]
*669 gpio_oeb[17]
*670 gpio_oeb[18]
*671 gpio_oeb[19]
*672 gpio_oeb[1]
*673 gpio_oeb[20]
*674 gpio_oeb[21]
*675 gpio_oeb[22]
*676 gpio_oeb[23]
*677 gpio_oeb[24]
*678 gpio_oeb[25]
*679 gpio_oeb[26]
*680 gpio_oeb[27]
*681 gpio_oeb[28]
*682 gpio_oeb[29]
*683 gpio_oeb[2]
*684 gpio_oeb[30]
*685 gpio_oeb[31]
*686 gpio_oeb[32]
*687 gpio_oeb[33]
*688 gpio_oeb[34]
*689 gpio_oeb[35]
*690 gpio_oeb[36]
*691 gpio_oeb[37]
*692 gpio_oeb[38]
*693 gpio_oeb[39]
*694 gpio_oeb[3]
*695 gpio_oeb[40]
*696 gpio_oeb[41]
*697 gpio_oeb[42]
*698 gpio_oeb[43]
*699 gpio_oeb[4]
*700 gpio_oeb[5]
*701 gpio_oeb[6]
*702 gpio_oeb[7]
*703 gpio_oeb[8]
*704 gpio_oeb[9]
*705 gpio_out[0]
*706 gpio_out[10]
*707 gpio_out[11]
*708 gpio_out[12]
*709 gpio_out[13]
*710 gpio_out[14]
*711 gpio_out[15]
*712 gpio_out[16]
*713 gpio_out[17]
*714 gpio_out[18]
*715 gpio_out[19]
*716 gpio_out[1]
*717 gpio_out[20]
*718 gpio_out[21]
*719 gpio_out[22]
*720 gpio_out[23]
*721 gpio_out[24]
*722 gpio_out[25]
*723 gpio_out[26]
*724 gpio_out[27]
*725 gpio_out[28]
*726 gpio_out[29]
*727 gpio_out[2]
*728 gpio_out[30]
*729 gpio_out[31]
*730 gpio_out[32]
*731 gpio_out[33]
*732 gpio_out[34]
*733 gpio_out[35]
*734 gpio_out[36]
*735 gpio_out[37]
*736 gpio_out[38]
*737 gpio_out[39]
*738 gpio_out[3]
*739 gpio_out[40]
*740 gpio_out[41]
*741 gpio_out[42]
*742 gpio_out[43]
*743 gpio_out[4]
*744 gpio_out[5]
*745 gpio_out[6]
*746 gpio_out[7]
*747 gpio_out[8]
*748 gpio_out[9]
*749 gpio_slow_sel[0]
*750 gpio_slow_sel[10]
*751 gpio_slow_sel[11]
*752 gpio_slow_sel[12]
*753 gpio_slow_sel[13]
*754 gpio_slow_sel[14]
*755 gpio_slow_sel[15]
*756 gpio_slow_sel[16]
*757 gpio_slow_sel[17]
*758 gpio_slow_sel[18]
*759 gpio_slow_sel[19]
*760 gpio_slow_sel[1]
*761 gpio_slow_sel[20]
*762 gpio_slow_sel[21]
*763 gpio_slow_sel[22]
*764 gpio_slow_sel[23]
*765 gpio_slow_sel[24]
*766 gpio_slow_sel[25]
*767 gpio_slow_sel[26]
*768 gpio_slow_sel[27]
*769 gpio_slow_sel[28]
*770 gpio_slow_sel[29]
*771 gpio_slow_sel[2]
*772 gpio_slow_sel[30]
*773 gpio_slow_sel[31]
*774 gpio_slow_sel[32]
*775 gpio_slow_sel[33]
*776 gpio_slow_sel[34]
*777 gpio_slow_sel[35]
*778 gpio_slow_sel[36]
*779 gpio_slow_sel[37]
*780 gpio_slow_sel[38]
*781 gpio_slow_sel[39]
*782 gpio_slow_sel[3]
*783 gpio_slow_sel[40]
*784 gpio_slow_sel[41]
*785 gpio_slow_sel[42]
*786 gpio_slow_sel[43]
*787 gpio_slow_sel[4]
*788 gpio_slow_sel[5]
*789 gpio_slow_sel[6]
*790 gpio_slow_sel[7]
*791 gpio_slow_sel[8]
*792 gpio_slow_sel[9]
*793 gpio_vtrip_sel[0]
*794 gpio_vtrip_sel[10]
*795 gpio_vtrip_sel[11]
*796 gpio_vtrip_sel[12]
*797 gpio_vtrip_sel[13]
*798 gpio_vtrip_sel[14]
*799 gpio_vtrip_sel[15]
*800 gpio_vtrip_sel[16]
*801 gpio_vtrip_sel[17]
*802 gpio_vtrip_sel[18]
*803 gpio_vtrip_sel[19]
*804 gpio_vtrip_sel[1]
*805 gpio_vtrip_sel[20]
*806 gpio_vtrip_sel[21]
*807 gpio_vtrip_sel[22]
*808 gpio_vtrip_sel[23]
*809 gpio_vtrip_sel[24]
*810 gpio_vtrip_sel[25]
*811 gpio_vtrip_sel[26]
*812 gpio_vtrip_sel[27]
*813 gpio_vtrip_sel[28]
*814 gpio_vtrip_sel[29]
*815 gpio_vtrip_sel[2]
*816 gpio_vtrip_sel[30]
*817 gpio_vtrip_sel[31]
*818 gpio_vtrip_sel[32]
*819 gpio_vtrip_sel[33]
*820 gpio_vtrip_sel[34]
*821 gpio_vtrip_sel[35]
*822 gpio_vtrip_sel[36]
*823 gpio_vtrip_sel[37]
*824 gpio_vtrip_sel[38]
*825 gpio_vtrip_sel[39]
*826 gpio_vtrip_sel[3]
*827 gpio_vtrip_sel[40]
*828 gpio_vtrip_sel[41]
*829 gpio_vtrip_sel[42]
*830 gpio_vtrip_sel[43]
*831 gpio_vtrip_sel[4]
*832 gpio_vtrip_sel[5]
*833 gpio_vtrip_sel[6]
*834 gpio_vtrip_sel[7]
*835 gpio_vtrip_sel[8]
*836 gpio_vtrip_sel[9]
*837 mask_rev[0]
*838 mask_rev[10]
*839 mask_rev[11]
*840 mask_rev[12]
*841 mask_rev[13]
*842 mask_rev[14]
*843 mask_rev[15]
*844 mask_rev[16]
*845 mask_rev[17]
*846 mask_rev[18]
*847 mask_rev[19]
*848 mask_rev[1]
*849 mask_rev[20]
*850 mask_rev[21]
*851 mask_rev[22]
*852 mask_rev[23]
*853 mask_rev[24]
*854 mask_rev[25]
*855 mask_rev[26]
*856 mask_rev[27]
*857 mask_rev[28]
*858 mask_rev[29]
*859 mask_rev[2]
*860 mask_rev[30]
*861 mask_rev[31]
*862 mask_rev[3]
*863 mask_rev[4]
*864 mask_rev[5]
*865 mask_rev[6]
*866 mask_rev[7]
*867 mask_rev[8]
*868 mask_rev[9]
*869 por_l
*870 porb_h
*871 porb_l
*872 resetb_h
*873 resetb_l
*888 soc_gpio_oeb_unused\[0\]
*889 soc_gpio_oeb_unused\[10\]
*890 soc_gpio_oeb_unused\[11\]
*891 soc_gpio_oeb_unused\[12\]
*892 soc_gpio_oeb_unused\[13\]
*893 soc_gpio_oeb_unused\[14\]
*894 soc_gpio_oeb_unused\[15\]
*895 soc_gpio_oeb_unused\[1\]
*896 soc_gpio_oeb_unused\[2\]
*897 soc_gpio_oeb_unused\[3\]
*898 soc_gpio_oeb_unused\[4\]
*899 soc_gpio_oeb_unused\[5\]
*900 soc_gpio_oeb_unused\[6\]
*901 soc_gpio_oeb_unused\[7\]
*902 soc_gpio_oeb_unused\[8\]
*903 soc_gpio_oeb_unused\[9\]
*904 soc_gpio_out_unused\[0\]
*905 soc_gpio_out_unused\[10\]
*906 soc_gpio_out_unused\[11\]
*907 soc_gpio_out_unused\[12\]
*908 soc_gpio_out_unused\[13\]
*909 soc_gpio_out_unused\[14\]
*910 soc_gpio_out_unused\[15\]
*911 soc_gpio_out_unused\[1\]
*912 soc_gpio_out_unused\[2\]
*913 soc_gpio_out_unused\[3\]
*914 soc_gpio_out_unused\[4\]
*915 soc_gpio_out_unused\[5\]
*916 soc_gpio_out_unused\[6\]
*917 soc_gpio_out_unused\[7\]
*918 soc_gpio_out_unused\[8\]
*919 soc_gpio_out_unused\[9\]
*920 u_counter
*921 u_soc

*PORTS
analog_io[0] I
analog_io[10] I
analog_io[11] I
analog_io[12] I
analog_io[13] I
analog_io[14] I
analog_io[15] I
analog_io[16] I
analog_io[17] I
analog_io[18] I
analog_io[19] I
analog_io[1] I
analog_io[20] I
analog_io[21] I
analog_io[22] I
analog_io[23] I
analog_io[24] I
analog_io[25] I
analog_io[26] I
analog_io[27] I
analog_io[28] I
analog_io[29] I
analog_io[2] I
analog_io[30] I
analog_io[31] I
analog_io[32] I
analog_io[33] I
analog_io[34] I
analog_io[35] I
analog_io[36] I
analog_io[37] I
analog_io[38] I
analog_io[39] I
analog_io[3] I
analog_io[40] I
analog_io[41] I
analog_io[42] I
analog_io[43] I
analog_io[4] I
analog_io[5] I
analog_io[6] I
analog_io[7] I
analog_io[8] I
analog_io[9] I
analog_noesd_io[0] I
analog_noesd_io[10] I
analog_noesd_io[11] I
analog_noesd_io[12] I
analog_noesd_io[13] I
analog_noesd_io[14] I
analog_noesd_io[15] I
analog_noesd_io[16] I
analog_noesd_io[17] I
analog_noesd_io[18] I
analog_noesd_io[19] I
analog_noesd_io[1] I
analog_noesd_io[20] I
analog_noesd_io[21] I
analog_noesd_io[22] I
analog_noesd_io[23] I
analog_noesd_io[24] I
analog_noesd_io[25] I
analog_noesd_io[26] I
analog_noesd_io[27] I
analog_noesd_io[28] I
analog_noesd_io[29] I
analog_noesd_io[2] I
analog_noesd_io[30] I
analog_noesd_io[31] I
analog_noesd_io[32] I
analog_noesd_io[33] I
analog_noesd_io[34] I
analog_noesd_io[35] I
analog_noesd_io[36] I
analog_noesd_io[37] I
analog_noesd_io[38] I
analog_noesd_io[39] I
analog_noesd_io[3] I
analog_noesd_io[40] I
analog_noesd_io[41] I
analog_noesd_io[42] I
analog_noesd_io[43] I
analog_noesd_io[4] I
analog_noesd_io[5] I
analog_noesd_io[6] I
analog_noesd_io[7] I
analog_noesd_io[8] I
analog_noesd_io[9] I
gpio_analog_en[0] O
gpio_analog_en[10] O
gpio_analog_en[11] O
gpio_analog_en[12] O
gpio_analog_en[13] O
gpio_analog_en[14] O
gpio_analog_en[15] O
gpio_analog_en[16] O
gpio_analog_en[17] O
gpio_analog_en[18] O
gpio_analog_en[19] O
gpio_analog_en[1] O
gpio_analog_en[20] O
gpio_analog_en[21] O
gpio_analog_en[22] O
gpio_analog_en[23] O
gpio_analog_en[24] O
gpio_analog_en[25] O
gpio_analog_en[26] O
gpio_analog_en[27] O
gpio_analog_en[28] O
gpio_analog_en[29] O
gpio_analog_en[2] O
gpio_analog_en[30] O
gpio_analog_en[31] O
gpio_analog_en[32] O
gpio_analog_en[33] O
gpio_analog_en[34] O
gpio_analog_en[35] O
gpio_analog_en[36] O
gpio_analog_en[37] O
gpio_analog_en[38] O
gpio_analog_en[39] O
gpio_analog_en[3] O
gpio_analog_en[40] O
gpio_analog_en[41] O
gpio_analog_en[42] O
gpio_analog_en[43] O
gpio_analog_en[4] O
gpio_analog_en[5] O
gpio_analog_en[6] O
gpio_analog_en[7] O
gpio_analog_en[8] O
gpio_analog_en[9] O
gpio_analog_pol[0] O
gpio_analog_pol[10] O
gpio_analog_pol[11] O
gpio_analog_pol[12] O
gpio_analog_pol[13] O
gpio_analog_pol[14] O
gpio_analog_pol[15] O
gpio_analog_pol[16] O
gpio_analog_pol[17] O
gpio_analog_pol[18] O
gpio_analog_pol[19] O
gpio_analog_pol[1] O
gpio_analog_pol[20] O
gpio_analog_pol[21] O
gpio_analog_pol[22] O
gpio_analog_pol[23] O
gpio_analog_pol[24] O
gpio_analog_pol[25] O
gpio_analog_pol[26] O
gpio_analog_pol[27] O
gpio_analog_pol[28] O
gpio_analog_pol[29] O
gpio_analog_pol[2] O
gpio_analog_pol[30] O
gpio_analog_pol[31] O
gpio_analog_pol[32] O
gpio_analog_pol[33] O
gpio_analog_pol[34] O
gpio_analog_pol[35] O
gpio_analog_pol[36] O
gpio_analog_pol[37] O
gpio_analog_pol[38] O
gpio_analog_pol[39] O
gpio_analog_pol[3] O
gpio_analog_pol[40] O
gpio_analog_pol[41] O
gpio_analog_pol[42] O
gpio_analog_pol[43] O
gpio_analog_pol[4] O
gpio_analog_pol[5] O
gpio_analog_pol[6] O
gpio_analog_pol[7] O
gpio_analog_pol[8] O
gpio_analog_pol[9] O
gpio_analog_sel[0] O
gpio_analog_sel[10] O
gpio_analog_sel[11] O
gpio_analog_sel[12] O
gpio_analog_sel[13] O
gpio_analog_sel[14] O
gpio_analog_sel[15] O
gpio_analog_sel[16] O
gpio_analog_sel[17] O
gpio_analog_sel[18] O
gpio_analog_sel[19] O
gpio_analog_sel[1] O
gpio_analog_sel[20] O
gpio_analog_sel[21] O
gpio_analog_sel[22] O
gpio_analog_sel[23] O
gpio_analog_sel[24] O
gpio_analog_sel[25] O
gpio_analog_sel[26] O
gpio_analog_sel[27] O
gpio_analog_sel[28] O
gpio_analog_sel[29] O
gpio_analog_sel[2] O
gpio_analog_sel[30] O
gpio_analog_sel[31] O
gpio_analog_sel[32] O
gpio_analog_sel[33] O
gpio_analog_sel[34] O
gpio_analog_sel[35] O
gpio_analog_sel[36] O
gpio_analog_sel[37] O
gpio_analog_sel[38] O
gpio_analog_sel[39] O
gpio_analog_sel[3] O
gpio_analog_sel[40] O
gpio_analog_sel[41] O
gpio_analog_sel[42] O
gpio_analog_sel[43] O
gpio_analog_sel[4] O
gpio_analog_sel[5] O
gpio_analog_sel[6] O
gpio_analog_sel[7] O
gpio_analog_sel[8] O
gpio_analog_sel[9] O
gpio_dm0[0] O
gpio_dm0[10] O
gpio_dm0[11] O
gpio_dm0[12] O
gpio_dm0[13] O
gpio_dm0[14] O
gpio_dm0[15] O
gpio_dm0[16] O
gpio_dm0[17] O
gpio_dm0[18] O
gpio_dm0[19] O
gpio_dm0[1] O
gpio_dm0[20] O
gpio_dm0[21] O
gpio_dm0[22] O
gpio_dm0[23] O
gpio_dm0[24] O
gpio_dm0[25] O
gpio_dm0[26] O
gpio_dm0[27] O
gpio_dm0[28] O
gpio_dm0[29] O
gpio_dm0[2] O
gpio_dm0[30] O
gpio_dm0[31] O
gpio_dm0[32] O
gpio_dm0[33] O
gpio_dm0[34] O
gpio_dm0[35] O
gpio_dm0[36] O
gpio_dm0[37] O
gpio_dm0[38] O
gpio_dm0[39] O
gpio_dm0[3] O
gpio_dm0[40] O
gpio_dm0[41] O
gpio_dm0[42] O
gpio_dm0[43] O
gpio_dm0[4] O
gpio_dm0[5] O
gpio_dm0[6] O
gpio_dm0[7] O
gpio_dm0[8] O
gpio_dm0[9] O
gpio_dm1[0] O
gpio_dm1[10] O
gpio_dm1[11] O
gpio_dm1[12] O
gpio_dm1[13] O
gpio_dm1[14] O
gpio_dm1[15] O
gpio_dm1[16] O
gpio_dm1[17] O
gpio_dm1[18] O
gpio_dm1[19] O
gpio_dm1[1] O
gpio_dm1[20] O
gpio_dm1[21] O
gpio_dm1[22] O
gpio_dm1[23] O
gpio_dm1[24] O
gpio_dm1[25] O
gpio_dm1[26] O
gpio_dm1[27] O
gpio_dm1[28] O
gpio_dm1[29] O
gpio_dm1[2] O
gpio_dm1[30] O
gpio_dm1[31] O
gpio_dm1[32] O
gpio_dm1[33] O
gpio_dm1[34] O
gpio_dm1[35] O
gpio_dm1[36] O
gpio_dm1[37] O
gpio_dm1[38] O
gpio_dm1[39] O
gpio_dm1[3] O
gpio_dm1[40] O
gpio_dm1[41] O
gpio_dm1[42] O
gpio_dm1[43] O
gpio_dm1[4] O
gpio_dm1[5] O
gpio_dm1[6] O
gpio_dm1[7] O
gpio_dm1[8] O
gpio_dm1[9] O
gpio_dm2[0] O
gpio_dm2[10] O
gpio_dm2[11] O
gpio_dm2[12] O
gpio_dm2[13] O
gpio_dm2[14] O
gpio_dm2[15] O
gpio_dm2[16] O
gpio_dm2[17] O
gpio_dm2[18] O
gpio_dm2[19] O
gpio_dm2[1] O
gpio_dm2[20] O
gpio_dm2[21] O
gpio_dm2[22] O
gpio_dm2[23] O
gpio_dm2[24] O
gpio_dm2[25] O
gpio_dm2[26] O
gpio_dm2[27] O
gpio_dm2[28] O
gpio_dm2[29] O
gpio_dm2[2] O
gpio_dm2[30] O
gpio_dm2[31] O
gpio_dm2[32] O
gpio_dm2[33] O
gpio_dm2[34] O
gpio_dm2[35] O
gpio_dm2[36] O
gpio_dm2[37] O
gpio_dm2[38] O
gpio_dm2[39] O
gpio_dm2[3] O
gpio_dm2[40] O
gpio_dm2[41] O
gpio_dm2[42] O
gpio_dm2[43] O
gpio_dm2[4] O
gpio_dm2[5] O
gpio_dm2[6] O
gpio_dm2[7] O
gpio_dm2[8] O
gpio_dm2[9] O
gpio_holdover[0] O
gpio_holdover[10] O
gpio_holdover[11] O
gpio_holdover[12] O
gpio_holdover[13] O
gpio_holdover[14] O
gpio_holdover[15] O
gpio_holdover[16] O
gpio_holdover[17] O
gpio_holdover[18] O
gpio_holdover[19] O
gpio_holdover[1] O
gpio_holdover[20] O
gpio_holdover[21] O
gpio_holdover[22] O
gpio_holdover[23] O
gpio_holdover[24] O
gpio_holdover[25] O
gpio_holdover[26] O
gpio_holdover[27] O
gpio_holdover[28] O
gpio_holdover[29] O
gpio_holdover[2] O
gpio_holdover[30] O
gpio_holdover[31] O
gpio_holdover[32] O
gpio_holdover[33] O
gpio_holdover[34] O
gpio_holdover[35] O
gpio_holdover[36] O
gpio_holdover[37] O
gpio_holdover[38] O
gpio_holdover[39] O
gpio_holdover[3] O
gpio_holdover[40] O
gpio_holdover[41] O
gpio_holdover[42] O
gpio_holdover[43] O
gpio_holdover[4] O
gpio_holdover[5] O
gpio_holdover[6] O
gpio_holdover[7] O
gpio_holdover[8] O
gpio_holdover[9] O
gpio_ib_mode_sel[0] O
gpio_ib_mode_sel[10] O
gpio_ib_mode_sel[11] O
gpio_ib_mode_sel[12] O
gpio_ib_mode_sel[13] O
gpio_ib_mode_sel[14] O
gpio_ib_mode_sel[15] O
gpio_ib_mode_sel[16] O
gpio_ib_mode_sel[17] O
gpio_ib_mode_sel[18] O
gpio_ib_mode_sel[19] O
gpio_ib_mode_sel[1] O
gpio_ib_mode_sel[20] O
gpio_ib_mode_sel[21] O
gpio_ib_mode_sel[22] O
gpio_ib_mode_sel[23] O
gpio_ib_mode_sel[24] O
gpio_ib_mode_sel[25] O
gpio_ib_mode_sel[26] O
gpio_ib_mode_sel[27] O
gpio_ib_mode_sel[28] O
gpio_ib_mode_sel[29] O
gpio_ib_mode_sel[2] O
gpio_ib_mode_sel[30] O
gpio_ib_mode_sel[31] O
gpio_ib_mode_sel[32] O
gpio_ib_mode_sel[33] O
gpio_ib_mode_sel[34] O
gpio_ib_mode_sel[35] O
gpio_ib_mode_sel[36] O
gpio_ib_mode_sel[37] O
gpio_ib_mode_sel[38] O
gpio_ib_mode_sel[39] O
gpio_ib_mode_sel[3] O
gpio_ib_mode_sel[40] O
gpio_ib_mode_sel[41] O
gpio_ib_mode_sel[42] O
gpio_ib_mode_sel[43] O
gpio_ib_mode_sel[4] O
gpio_ib_mode_sel[5] O
gpio_ib_mode_sel[6] O
gpio_ib_mode_sel[7] O
gpio_ib_mode_sel[8] O
gpio_ib_mode_sel[9] O
gpio_in[0] I
gpio_in[10] I
gpio_in[11] I
gpio_in[12] I
gpio_in[13] I
gpio_in[14] I
gpio_in[15] I
gpio_in[16] I
gpio_in[17] I
gpio_in[18] I
gpio_in[19] I
gpio_in[1] I
gpio_in[20] I
gpio_in[21] I
gpio_in[22] I
gpio_in[23] I
gpio_in[24] I
gpio_in[25] I
gpio_in[26] I
gpio_in[27] I
gpio_in[28] I
gpio_in[29] I
gpio_in[2] I
gpio_in[30] I
gpio_in[31] I
gpio_in[32] I
gpio_in[33] I
gpio_in[34] I
gpio_in[35] I
gpio_in[36] I
gpio_in[37] I
gpio_in[38] I
gpio_in[39] I
gpio_in[3] I
gpio_in[40] I
gpio_in[41] I
gpio_in[42] I
gpio_in[43] I
gpio_in[4] I
gpio_in[5] I
gpio_in[6] I
gpio_in[7] I
gpio_in[8] I
gpio_in[9] I
gpio_in_h[0] I
gpio_in_h[10] I
gpio_in_h[11] I
gpio_in_h[12] I
gpio_in_h[13] I
gpio_in_h[14] I
gpio_in_h[15] I
gpio_in_h[16] I
gpio_in_h[17] I
gpio_in_h[18] I
gpio_in_h[19] I
gpio_in_h[1] I
gpio_in_h[20] I
gpio_in_h[21] I
gpio_in_h[22] I
gpio_in_h[23] I
gpio_in_h[24] I
gpio_in_h[25] I
gpio_in_h[26] I
gpio_in_h[27] I
gpio_in_h[28] I
gpio_in_h[29] I
gpio_in_h[2] I
gpio_in_h[30] I
gpio_in_h[31] I
gpio_in_h[32] I
gpio_in_h[33] I
gpio_in_h[34] I
gpio_in_h[35] I
gpio_in_h[36] I
gpio_in_h[37] I
gpio_in_h[38] I
gpio_in_h[39] I
gpio_in_h[3] I
gpio_in_h[40] I
gpio_in_h[41] I
gpio_in_h[42] I
gpio_in_h[43] I
gpio_in_h[4] I
gpio_in_h[5] I
gpio_in_h[6] I
gpio_in_h[7] I
gpio_in_h[8] I
gpio_in_h[9] I
gpio_inp_dis[0] O
gpio_inp_dis[10] O
gpio_inp_dis[11] O
gpio_inp_dis[12] O
gpio_inp_dis[13] O
gpio_inp_dis[14] O
gpio_inp_dis[15] O
gpio_inp_dis[16] O
gpio_inp_dis[17] O
gpio_inp_dis[18] O
gpio_inp_dis[19] O
gpio_inp_dis[1] O
gpio_inp_dis[20] O
gpio_inp_dis[21] O
gpio_inp_dis[22] O
gpio_inp_dis[23] O
gpio_inp_dis[24] O
gpio_inp_dis[25] O
gpio_inp_dis[26] O
gpio_inp_dis[27] O
gpio_inp_dis[28] O
gpio_inp_dis[29] O
gpio_inp_dis[2] O
gpio_inp_dis[30] O
gpio_inp_dis[31] O
gpio_inp_dis[32] O
gpio_inp_dis[33] O
gpio_inp_dis[34] O
gpio_inp_dis[35] O
gpio_inp_dis[36] O
gpio_inp_dis[37] O
gpio_inp_dis[38] O
gpio_inp_dis[39] O
gpio_inp_dis[3] O
gpio_inp_dis[40] O
gpio_inp_dis[41] O
gpio_inp_dis[42] O
gpio_inp_dis[43] O
gpio_inp_dis[4] O
gpio_inp_dis[5] O
gpio_inp_dis[6] O
gpio_inp_dis[7] O
gpio_inp_dis[8] O
gpio_inp_dis[9] O
gpio_loopback_one[0] I
gpio_loopback_one[10] I
gpio_loopback_one[11] I
gpio_loopback_one[12] I
gpio_loopback_one[13] I
gpio_loopback_one[14] I
gpio_loopback_one[15] I
gpio_loopback_one[16] I
gpio_loopback_one[17] I
gpio_loopback_one[18] I
gpio_loopback_one[19] I
gpio_loopback_one[1] I
gpio_loopback_one[20] I
gpio_loopback_one[21] I
gpio_loopback_one[22] I
gpio_loopback_one[23] I
gpio_loopback_one[24] I
gpio_loopback_one[25] I
gpio_loopback_one[26] I
gpio_loopback_one[27] I
gpio_loopback_one[28] I
gpio_loopback_one[29] I
gpio_loopback_one[2] I
gpio_loopback_one[30] I
gpio_loopback_one[31] I
gpio_loopback_one[32] I
gpio_loopback_one[33] I
gpio_loopback_one[34] I
gpio_loopback_one[35] I
gpio_loopback_one[36] I
gpio_loopback_one[37] I
gpio_loopback_one[38] I
gpio_loopback_one[39] I
gpio_loopback_one[3] I
gpio_loopback_one[40] I
gpio_loopback_one[41] I
gpio_loopback_one[42] I
gpio_loopback_one[43] I
gpio_loopback_one[4] I
gpio_loopback_one[5] I
gpio_loopback_one[6] I
gpio_loopback_one[7] I
gpio_loopback_one[8] I
gpio_loopback_one[9] I
gpio_loopback_zero[0] I
gpio_loopback_zero[10] I
gpio_loopback_zero[11] I
gpio_loopback_zero[12] I
gpio_loopback_zero[13] I
gpio_loopback_zero[14] I
gpio_loopback_zero[15] I
gpio_loopback_zero[16] I
gpio_loopback_zero[17] I
gpio_loopback_zero[18] I
gpio_loopback_zero[19] I
gpio_loopback_zero[1] I
gpio_loopback_zero[20] I
gpio_loopback_zero[21] I
gpio_loopback_zero[22] I
gpio_loopback_zero[23] I
gpio_loopback_zero[24] I
gpio_loopback_zero[25] I
gpio_loopback_zero[26] I
gpio_loopback_zero[27] I
gpio_loopback_zero[28] I
gpio_loopback_zero[29] I
gpio_loopback_zero[2] I
gpio_loopback_zero[30] I
gpio_loopback_zero[31] I
gpio_loopback_zero[32] I
gpio_loopback_zero[33] I
gpio_loopback_zero[34] I
gpio_loopback_zero[35] I
gpio_loopback_zero[36] I
gpio_loopback_zero[37] I
gpio_loopback_zero[38] I
gpio_loopback_zero[39] I
gpio_loopback_zero[3] I
gpio_loopback_zero[40] I
gpio_loopback_zero[41] I
gpio_loopback_zero[42] I
gpio_loopback_zero[43] I
gpio_loopback_zero[4] I
gpio_loopback_zero[5] I
gpio_loopback_zero[6] I
gpio_loopback_zero[7] I
gpio_loopback_zero[8] I
gpio_loopback_zero[9] I
gpio_oeb[0] O
gpio_oeb[10] O
gpio_oeb[11] O
gpio_oeb[12] O
gpio_oeb[13] O
gpio_oeb[14] O
gpio_oeb[15] O
gpio_oeb[16] O
gpio_oeb[17] O
gpio_oeb[18] O
gpio_oeb[19] O
gpio_oeb[1] O
gpio_oeb[20] O
gpio_oeb[21] O
gpio_oeb[22] O
gpio_oeb[23] O
gpio_oeb[24] O
gpio_oeb[25] O
gpio_oeb[26] O
gpio_oeb[27] O
gpio_oeb[28] O
gpio_oeb[29] O
gpio_oeb[2] O
gpio_oeb[30] O
gpio_oeb[31] O
gpio_oeb[32] O
gpio_oeb[33] O
gpio_oeb[34] O
gpio_oeb[35] O
gpio_oeb[36] O
gpio_oeb[37] O
gpio_oeb[38] O
gpio_oeb[39] O
gpio_oeb[3] O
gpio_oeb[40] O
gpio_oeb[41] O
gpio_oeb[42] O
gpio_oeb[43] O
gpio_oeb[4] O
gpio_oeb[5] O
gpio_oeb[6] O
gpio_oeb[7] O
gpio_oeb[8] O
gpio_oeb[9] O
gpio_out[0] O
gpio_out[10] O
gpio_out[11] O
gpio_out[12] O
gpio_out[13] O
gpio_out[14] O
gpio_out[15] O
gpio_out[16] O
gpio_out[17] O
gpio_out[18] O
gpio_out[19] O
gpio_out[1] O
gpio_out[20] O
gpio_out[21] O
gpio_out[22] O
gpio_out[23] O
gpio_out[24] O
gpio_out[25] O
gpio_out[26] O
gpio_out[27] O
gpio_out[28] O
gpio_out[29] O
gpio_out[2] O
gpio_out[30] O
gpio_out[31] O
gpio_out[32] O
gpio_out[33] O
gpio_out[34] O
gpio_out[35] O
gpio_out[36] O
gpio_out[37] O
gpio_out[38] O
gpio_out[39] O
gpio_out[3] O
gpio_out[40] O
gpio_out[41] O
gpio_out[42] O
gpio_out[43] O
gpio_out[4] O
gpio_out[5] O
gpio_out[6] O
gpio_out[7] O
gpio_out[8] O
gpio_out[9] O
gpio_slow_sel[0] O
gpio_slow_sel[10] O
gpio_slow_sel[11] O
gpio_slow_sel[12] O
gpio_slow_sel[13] O
gpio_slow_sel[14] O
gpio_slow_sel[15] O
gpio_slow_sel[16] O
gpio_slow_sel[17] O
gpio_slow_sel[18] O
gpio_slow_sel[19] O
gpio_slow_sel[1] O
gpio_slow_sel[20] O
gpio_slow_sel[21] O
gpio_slow_sel[22] O
gpio_slow_sel[23] O
gpio_slow_sel[24] O
gpio_slow_sel[25] O
gpio_slow_sel[26] O
gpio_slow_sel[27] O
gpio_slow_sel[28] O
gpio_slow_sel[29] O
gpio_slow_sel[2] O
gpio_slow_sel[30] O
gpio_slow_sel[31] O
gpio_slow_sel[32] O
gpio_slow_sel[33] O
gpio_slow_sel[34] O
gpio_slow_sel[35] O
gpio_slow_sel[36] O
gpio_slow_sel[37] O
gpio_slow_sel[38] O
gpio_slow_sel[39] O
gpio_slow_sel[3] O
gpio_slow_sel[40] O
gpio_slow_sel[41] O
gpio_slow_sel[42] O
gpio_slow_sel[43] O
gpio_slow_sel[4] O
gpio_slow_sel[5] O
gpio_slow_sel[6] O
gpio_slow_sel[7] O
gpio_slow_sel[8] O
gpio_slow_sel[9] O
gpio_vtrip_sel[0] O
gpio_vtrip_sel[10] O
gpio_vtrip_sel[11] O
gpio_vtrip_sel[12] O
gpio_vtrip_sel[13] O
gpio_vtrip_sel[14] O
gpio_vtrip_sel[15] O
gpio_vtrip_sel[16] O
gpio_vtrip_sel[17] O
gpio_vtrip_sel[18] O
gpio_vtrip_sel[19] O
gpio_vtrip_sel[1] O
gpio_vtrip_sel[20] O
gpio_vtrip_sel[21] O
gpio_vtrip_sel[22] O
gpio_vtrip_sel[23] O
gpio_vtrip_sel[24] O
gpio_vtrip_sel[25] O
gpio_vtrip_sel[26] O
gpio_vtrip_sel[27] O
gpio_vtrip_sel[28] O
gpio_vtrip_sel[29] O
gpio_vtrip_sel[2] O
gpio_vtrip_sel[30] O
gpio_vtrip_sel[31] O
gpio_vtrip_sel[32] O
gpio_vtrip_sel[33] O
gpio_vtrip_sel[34] O
gpio_vtrip_sel[35] O
gpio_vtrip_sel[36] O
gpio_vtrip_sel[37] O
gpio_vtrip_sel[38] O
gpio_vtrip_sel[39] O
gpio_vtrip_sel[3] O
gpio_vtrip_sel[40] O
gpio_vtrip_sel[41] O
gpio_vtrip_sel[42] O
gpio_vtrip_sel[43] O
gpio_vtrip_sel[4] O
gpio_vtrip_sel[5] O
gpio_vtrip_sel[6] O
gpio_vtrip_sel[7] O
gpio_vtrip_sel[8] O
gpio_vtrip_sel[9] O
mask_rev[0] I
mask_rev[10] I
mask_rev[11] I
mask_rev[12] I
mask_rev[13] I
mask_rev[14] I
mask_rev[15] I
mask_rev[16] I
mask_rev[17] I
mask_rev[18] I
mask_rev[19] I
mask_rev[1] I
mask_rev[20] I
mask_rev[21] I
mask_rev[22] I
mask_rev[23] I
mask_rev[24] I
mask_rev[25] I
mask_rev[26] I
mask_rev[27] I
mask_rev[28] I
mask_rev[29] I
mask_rev[2] I
mask_rev[30] I
mask_rev[31] I
mask_rev[3] I
mask_rev[4] I
mask_rev[5] I
mask_rev[6] I
mask_rev[7] I
mask_rev[8] I
mask_rev[9] I
por_l I
porb_h I
porb_l I
resetb_h I
resetb_l I

*D_NET *89 0.110114
*CONN
*P gpio_analog_en[0] O
*I *921:gpio_analog_en[0] O *D CF_CARAVEL_SOC
*CAP
1 gpio_analog_en[0] 0.00347683
2 *921:gpio_analog_en[0] 0.00503996
3 *89:11 0.0191159
4 *89:9 0.0206791
5 gpio_analog_en[0] gpio_analog_pol[0] 0.000358414
6 gpio_analog_en[0] gpio_dm0[0] 0.00190134
7 gpio_analog_en[0] gpio_dm1[0] 0
8 gpio_analog_en[0] *120:11 0.000131917
9 gpio_analog_en[0] *529:13 0.00020831
10 *89:9 *100:9 0
11 *89:11 *100:11 0
12 *89:11 *133:11 0.0438483
13 *89:11 *222:17 0
14 *89:11 *224:15 0.00373033
15 *89:11 *224:19 0.00395418
16 *89:11 *232:11 0.000944486
17 *89:11 *307:11 0.00662247
18 *89:11 *481:11 0.00010283
*RES
1 *921:gpio_analog_en[0] *89:9 14.9203 
2 *89:9 *89:11 90.6003 
3 *89:11 gpio_analog_en[0] 23.4246 
*END

*D_NET *90 0.367463
*CONN
*P gpio_analog_en[10] O
*I *921:gpio_analog_en[10] O *D CF_CARAVEL_SOC
*CAP
1 gpio_analog_en[10] 0.00558488
2 *921:gpio_analog_en[10] 0.00348634
3 *90:11 0.0582275
4 *90:9 0.0561289
5 gpio_analog_en[10] gpio_analog_pol[10] 0.000268011
6 gpio_analog_en[10] gpio_dm0[10] 0
7 gpio_analog_en[10] gpio_dm1[10] 0
8 *90:9 *91:9 0
9 *90:9 *334:6 0.000201414
10 *90:11 *98:11 0.000106304
11 *90:11 *144:11 0.0126361
12 *90:11 *159:13 0.00165962
13 *90:11 *179:11 0
14 *90:11 *226:11 0.00964994
15 *90:11 *247:11 0.00131368
16 *90:11 *288:67 0.0276375
17 *90:11 *308:11 0.156269
18 *90:11 *391:33 0.0119494
19 *90:11 *445:19 0.00118079
20 *90:11 *562:123 0.000488155
21 *90:11 *694:10 0.00458628
22 *90:11 *727:15 0.00909466
23 *90:11 *738:15 0.00567908
24 *90:11 *788:55 0.00131503
*RES
1 *921:gpio_analog_en[10] *90:9 11.2042 
2 *90:9 *90:11 355.868 
3 *90:11 gpio_analog_en[10] 16.483 
*END

*D_NET *91 0.42458
*CONN
*P gpio_analog_en[11] O
*I *921:gpio_analog_en[11] O *D CF_CARAVEL_SOC
*CAP
1 gpio_analog_en[11] 0.00521236
2 *921:gpio_analog_en[11] 0.00241169
3 *91:11 0.0933727
4 *91:9 0.090572
5 gpio_analog_en[11] gpio_dm0[11] 0.00378335
6 gpio_analog_en[11] gpio_dm1[11] 0
7 *91:9 *92:9 0
8 *91:9 *314:15 0.000161457
9 *91:9 *334:6 0.000255549
10 *91:11 *97:11 0.00446502
11 *91:11 *99:11 0.00446502
12 *91:11 *105:27 0
13 *91:11 *107:11 0.00647349
14 *91:11 *152:11 0.00101364
15 *91:11 *153:25 0
16 *91:11 *160:11 0.00239967
17 *91:11 *212:11 0.000902703
18 *91:11 *245:11 0
19 *91:11 *274:11 0.000341646
20 *91:11 *279:11 0
21 *91:11 *280:19 0
22 *91:11 *282:11 0
23 *91:11 *314:15 4.26762e-05
24 *91:11 *352:11 0.157904
25 *91:11 *534:15 0.050803
26 *90:9 *91:9 0
*RES
1 *921:gpio_analog_en[11] *91:9 8.86043 
2 *91:9 *91:11 390.598 
3 *91:11 gpio_analog_en[11] 18.4946 
*END

*D_NET *92 0.412717
*CONN
*P gpio_analog_en[12] O
*I *921:gpio_analog_en[12] O *D CF_CARAVEL_SOC
*CAP
1 gpio_analog_en[12] 0.00566748
2 *921:gpio_analog_en[12] 0.00255804
3 *92:11 0.0706557
4 *92:9 0.0675463
5 gpio_analog_en[12] gpio_analog_pol[12] 0.000596756
6 gpio_analog_en[12] gpio_dm0[12] 0.000392151
7 gpio_analog_en[12] gpio_dm1[12] 0
8 *92:9 *93:9 0.000838642
9 *92:9 *314:15 0
10 *92:9 *334:6 0.000255549
11 *92:9 *474:9 8.91131e-05
12 *92:11 *105:11 0.0400798
13 *92:11 *105:27 0.0105186
14 *92:11 *106:19 0.00635629
15 *92:11 *108:11 0.0749281
16 *92:11 *140:55 0.000301041
17 *92:11 *350:11 0
18 *92:11 *443:11 0.0288136
19 *92:11 *569:22 0.0077754
20 *92:11 *570:26 0.0201302
21 *92:11 *572:28 0.0611764
22 *92:11 *661:19 0.00796446
23 *92:11 *698:23 0.000770885
24 *92:11 *743:15 0.00478379
25 *92:11 *745:15 0.000519182
26 *91:9 *92:9 0
*RES
1 *921:gpio_analog_en[12] *92:9 10.0135 
2 *92:9 *92:11 424.369 
3 *92:11 gpio_analog_en[12] 17.9683 
*END

*D_NET *93 0.546164
*CONN
*P gpio_analog_en[13] O
*I *921:gpio_analog_en[13] O *D CF_CARAVEL_SOC
*CAP
1 gpio_analog_en[13] 0.00491623
2 *921:gpio_analog_en[13] 0.00333585
3 *93:11 0.0581944
4 *93:9 0.056614
5 gpio_analog_en[13] gpio_dm0[13] 0
6 gpio_analog_en[13] gpio_inp_dis[13] 0
7 *93:9 *94:9 0
8 *93:9 *327:17 0.000122348
9 *93:9 *474:9 0
10 *93:11 gpio_inp_dis[13] 0
11 *93:11 *130:11 0.00157691
12 *93:11 *138:11 0.194876
13 *93:11 *179:11 0.0391178
14 *93:11 *223:19 0
15 *93:11 *254:11 0.000271953
16 *93:11 *321:21 0.00193693
17 *93:11 *342:11 0.000228991
18 *93:11 *530:113 0.165537
19 *93:11 *567:18 0.0185972
20 *92:9 *93:9 0.000838642
*RES
1 *921:gpio_analog_en[13] *93:9 11.8575 
2 *93:9 *93:11 2816.05 
3 *93:11 gpio_analog_en[13] 15.366 
*END

*D_NET *94 0.507825
*CONN
*P gpio_analog_en[14] O
*I *921:gpio_analog_en[14] O *D CF_CARAVEL_SOC
*CAP
1 gpio_analog_en[14] 0.00280063
2 *921:gpio_analog_en[14] 0.00491313
3 *94:19 0.101734
4 *94:17 0.107878
5 *94:9 0.013857
6 gpio_analog_en[14] gpio_dm0[14] 0.00210585
7 gpio_analog_en[14] gpio_inp_dis[14] 0
8 *94:9 *327:17 0.000253896
9 *94:17 gpio_analog_en[3] 0.000707609
10 *94:17 gpio_analog_en[4] 0.000647261
11 *94:17 gpio_analog_sel[4] 0.00217676
12 *94:17 gpio_slow_sel[4] 0
13 *94:17 *133:11 0.00222583
14 *94:17 *177:11 0.00433436
15 *94:17 *181:9 8.63428e-05
16 *94:17 *181:11 6.3852e-05
17 *94:17 *259:11 0.000208694
18 *94:17 *260:19 0.00296161
19 *94:17 *288:11 0.00170263
20 *94:17 *312:19 0.00331292
21 *94:17 *326:11 0.00332183
22 *94:17 *535:121 0.00296161
23 *94:19 *104:25 0.00246922
24 *94:19 *114:21 0.00107107
25 *94:19 *137:11 0.0192155
26 *94:19 *169:11 0.0287774
27 *94:19 *174:11 0.00920114
28 *94:19 *178:11 0.00268245
29 *94:19 *224:19 0.180286
30 *94:19 *242:11 0.00485322
31 *94:19 *274:103 0.00101556
32 *94:19 *313:11 0
33 *94:19 *531:28 0
34 *93:9 *94:9 0
*RES
1 *921:gpio_analog_en[14] *94:9 14.4879 
2 *94:9 *94:17 44.926 
3 *94:17 *94:19 3001.23 
4 *94:19 gpio_analog_en[14] 11.158 
*END

*D_NET *95 0.401713
*CONN
*P gpio_analog_en[15] O
*I *921:gpio_analog_en[15] O *D CF_CARAVEL_SOC
*CAP
1 gpio_analog_en[15] 8.6667e-05
2 *921:gpio_analog_en[15] 0.00284397
3 *95:19 0.124927
4 *95:17 0.128356
5 *95:11 0.0266581
6 *95:9 0.0259864
7 gpio_analog_en[15] gpio_dm0[15] 0
8 *95:9 *96:9 0
9 *95:9 *334:6 0.000255549
10 *95:11 *96:11 0.0238739
11 *95:11 *105:11 0.000114258
12 *95:11 *105:25 0.00248189
13 *95:11 *105:27 0.00233294
14 *95:11 *108:11 0.00461917
15 *95:11 *125:11 0.010239
16 *95:11 *350:11 0.000258173
17 *95:11 *443:11 0
18 *95:17 *107:25 5.0145e-05
19 *95:17 *112:25 5.01384e-05
20 *95:17 *116:53 0.000199889
21 *95:17 *139:17 0.0104418
22 *95:17 *196:25 9.58914e-05
23 *95:17 *198:25 5.01384e-05
24 *95:17 *683:11 0
25 *95:17 *744:11 0.00293943
26 *95:19 *140:95 0.0301984
27 *95:19 *227:19 0
28 *95:19 *274:137 0.00465463
*RES
1 *921:gpio_analog_en[15] *95:9 9.6892 
2 *95:9 *95:11 683.161 
3 *95:11 *95:17 23.8027 
4 *95:17 *95:19 2690.98 
5 *95:19 gpio_analog_en[15] 1.60714 
*END

*D_NET *96 0.641435
*CONN
*P gpio_analog_en[16] O
*I *921:gpio_analog_en[16] O *D CF_CARAVEL_SOC
*CAP
1 gpio_analog_en[16] 8.54726e-05
2 *921:gpio_analog_en[16] 0.00278555
3 *96:15 0.0206635
4 *96:13 0.020578
5 *96:11 0.0959799
6 *96:9 0.0987655
7 gpio_analog_en[16] gpio_dm0[16] 0
8 *96:9 *97:9 0
9 *96:9 *334:6 0.000255549
10 *96:11 *105:25 0.002486
11 *96:11 *105:27 0.0457454
12 *96:11 *125:11 0.00984066
13 *96:11 *314:19 0.262872
14 *96:11 *350:11 0.00500549
15 *96:11 *443:11 0
16 *96:15 *359:23 0.049024
17 *96:15 *535:125 0.00347409
18 *95:9 *96:9 0
19 *95:11 *96:11 0.0238739
*RES
1 *921:gpio_analog_en[16] *96:9 9.54507 
2 *96:9 *96:11 3369.16 
3 *96:11 *96:13 3.41 
4 *96:13 *96:15 96.6163 
5 *96:15 gpio_analog_en[16] 4.68679 
*END

*D_NET *97 0.622723
*CONN
*P gpio_analog_en[17] O
*I *921:gpio_analog_en[17] O *D CF_CARAVEL_SOC
*CAP
1 gpio_analog_en[17] 0.0844614
2 *921:gpio_analog_en[17] 0.00203711
3 *97:17 0.0844614
4 *97:15 0.0288417
5 *97:13 0.0288417
6 *97:11 0.00983845
7 *97:9 0.0118756
8 gpio_analog_en[17] gpio_dm0[17] 0
9 gpio_analog_en[17] *757:19 0.216244
10 *97:9 *98:9 0.000631554
11 *97:9 *334:6 0.000255549
12 *97:11 *99:11 0.0539265
13 *97:11 *107:11 0.0510408
14 *97:11 *160:11 1.95625e-05
15 *97:11 *274:11 0.000737444
16 *97:11 *316:11 0
17 *97:11 *534:15 0
18 *97:15 *107:15 0.00302575
19 *97:15 *183:17 0.00160911
20 *97:15 *195:15 0.00382851
21 *97:15 *204:33 0.0175897
22 *97:15 *693:11 0.00381935
23 *97:15 *700:6 0.0151729
24 *91:11 *97:11 0.00446502
25 *96:9 *97:9 0
*RES
1 *921:gpio_analog_en[17] *97:9 8.53613 
2 *97:9 *97:11 671.473 
3 *97:11 *97:13 4.5 
4 *97:13 *97:15 774.321 
5 *97:15 *97:17 4.5 
6 *97:17 gpio_analog_en[17] 2694.11 
*END

*D_NET *98 0.76116
*CONN
*P gpio_analog_en[18] O
*I *921:gpio_analog_en[18] O *D CF_CARAVEL_SOC
*CAP
1 gpio_analog_en[18] 0.132164
2 *921:gpio_analog_en[18] 0.0032953
3 *98:17 0.132164
4 *98:15 0.0150271
5 *98:13 0.0150271
6 *98:11 0.00985074
7 *98:9 0.013146
8 gpio_analog_en[18] gpio_dm0[18] 0
9 gpio_analog_en[18] gpio_inp_dis[18] 0
10 gpio_analog_en[18] *230:27 0.0559871
11 *98:9 gpio_inp_dis[3] 0.000246356
12 *98:9 *99:9 0
13 *98:11 *101:11 0.0546582
14 *98:11 *144:11 0.00425235
15 *98:11 *159:13 0.00259249
16 *98:11 *170:11 0.0258097
17 *98:11 *179:11 0.00101206
18 *98:11 *207:19 0.0143286
19 *98:11 *247:11 0.00853007
20 *98:11 *288:67 0.00014833
21 *98:11 *530:113 0
22 *98:15 *99:15 0.124654
23 *98:15 *101:15 0.00108301
24 *98:15 *114:23 0.000257535
25 *98:15 *142:15 0.122412
26 *98:15 *184:15 0.00225213
27 *98:15 *227:17 0.00119679
28 *98:15 *689:11 0.0203278
29 *90:11 *98:11 0.000106304
30 *97:9 *98:9 0.000631554
*RES
1 *921:gpio_analog_en[18] *98:9 11.4251 
2 *98:9 *98:11 682.098 
3 *98:11 *98:13 4.5 
4 *98:13 *98:15 1190.38 
5 *98:15 *98:17 4.5 
6 *98:17 gpio_analog_en[18] 2681.05 
*END

*D_NET *99 0.789885
*CONN
*P gpio_analog_en[19] O
*I *921:gpio_analog_en[19] O *D CF_CARAVEL_SOC
*CAP
1 gpio_analog_en[19] 0.132196
2 *921:gpio_analog_en[19] 0.00232892
3 *99:17 0.132196
4 *99:15 0.0289398
5 *99:13 0.0289398
6 *99:11 0.00995897
7 *99:9 0.0122879
8 gpio_analog_en[19] gpio_dm0[19] 0
9 gpio_analog_en[19] *759:19 0
10 *99:9 *101:9 0
11 *99:11 *160:11 0.000129053
12 *99:11 *316:11 0
13 *99:11 *483:11 0.0524914
14 *99:11 *534:15 0
15 *99:15 *101:15 0.173109
16 *99:15 *142:15 0.000342046
17 *99:15 *227:17 0.00078854
18 *99:15 *328:59 0.000355636
19 *99:15 *689:11 0.020323
20 *99:15 *745:11 0.0124538
21 *91:11 *99:11 0.00446502
22 *97:11 *99:11 0.0539265
23 *98:9 *99:9 0
24 *98:15 *99:15 0.124654
*RES
1 *921:gpio_analog_en[19] *99:9 8.251 
2 *99:9 *99:11 675.723 
3 *99:11 *99:13 4.5 
4 *99:13 *99:15 1625.73 
5 *99:15 *99:17 4.5 
6 *99:17 gpio_analog_en[19] 2681.36 
*END

*D_NET *100 0.0772206
*CONN
*P gpio_analog_en[1] O
*I *921:gpio_analog_en[1] O *D CF_CARAVEL_SOC
*CAP
1 gpio_analog_en[1] 0.00352936
2 *921:gpio_analog_en[1] 0.00475611
3 *100:18 0
4 *100:11 0.0144598
5 *100:9 0.0156865
6 gpio_analog_en[1] gpio_dm0[1] 0.00253532
7 gpio_analog_en[1] gpio_dm1[1] 0
8 gpio_analog_en[1] *260:17 3.89807e-05
9 *100:9 gpio_analog_en[2] 0
10 *100:11 *133:11 0
11 *100:11 *177:11 0.0278959
12 *100:11 *232:11 0.00011129
13 *100:11 *260:19 0.00458325
14 *100:11 *266:11 0.00155862
15 *100:11 *326:11 0.00103275
16 *100:11 *535:121 0.00103275
17 *89:9 *100:9 0
18 *89:11 *100:11 0
*RES
1 *921:gpio_analog_en[1] *100:9 14.1996 
2 *100:9 *100:11 56.9358 
3 *100:11 gpio_analog_en[1] 12.2961 
4 gpio_analog_en[1] *100:18 0.0494737 
*END

*D_NET *101 0.85522
*CONN
*P gpio_analog_en[20] O
*I *921:gpio_analog_en[20] O *D CF_CARAVEL_SOC
*CAP
1 gpio_analog_en[20] 0.000112372
2 *921:gpio_analog_en[20] 0.00365465
3 *101:19 0.132302
4 *101:17 0.13219
5 *101:15 0.0277482
6 *101:13 0.0277482
7 *101:11 0.0168485
8 *101:9 0.0205032
9 gpio_analog_en[20] gpio_dm0[20] 0
10 gpio_analog_en[20] *233:19 0
11 *101:11 *159:13 0.00196223
12 *101:11 *179:11 0.00346409
13 *101:11 *274:41 0.000455561
14 *101:11 *288:57 0.00169161
15 *101:11 *288:59 0.0085078
16 *101:11 *288:67 0.000137113
17 *101:11 *530:113 0
18 *101:11 *831:75 0.00833153
19 *101:15 *104:31 0.199669
20 *101:15 *114:23 0.00260937
21 *101:15 *184:15 8.25843e-06
22 *101:15 *227:17 0.000850297
23 *101:15 *328:59 0.000329806
24 *101:15 *407:27 0
25 *101:15 *689:11 0.0331626
26 *101:15 *745:11 0.00408302
27 *101:19 *233:19 0
28 *98:11 *101:11 0.0546582
29 *98:15 *101:15 0.00108301
30 *99:9 *101:9 0
31 *99:15 *101:15 0.173109
*RES
1 *921:gpio_analog_en[20] *101:9 11.4971 
2 *101:9 *101:11 671.777 
3 *101:11 *101:13 4.5 
4 *101:13 *101:15 1875.45 
5 *101:15 *101:17 4.5 
6 *101:17 *101:19 2680.51 
7 *101:19 gpio_analog_en[20] 1.60714 
*END

*D_NET *102 0.883672
*CONN
*P gpio_analog_en[21] O
*I *921:gpio_analog_en[21] O *D CF_CARAVEL_SOC
*CAP
1 gpio_analog_en[21] 0.000112372
2 *921:gpio_analog_en[21] 0.00289369
3 *102:27 0.112721
4 *102:25 0.112609
5 *102:23 0.0405914
6 *102:21 0.0405914
7 *102:19 0.016277
8 *102:17 0.0163249
9 *102:11 0.0111626
10 *102:9 0.0140085
11 gpio_analog_en[21] gpio_dm0[21] 0
12 gpio_analog_en[21] *234:19 0
13 *102:9 *103:9 0.00089282
14 *102:9 *334:6 0.000255549
15 *102:11 *110:11 0.000171395
16 *102:11 *119:11 0.000877671
17 *102:11 *150:11 0.0012114
18 *102:11 *206:17 0.000296678
19 *102:11 *226:11 0.017637
20 *102:11 *288:53 0.000309406
21 *102:11 *483:19 0.000176806
22 *102:11 *572:28 0.0453667
23 *102:11 *831:69 0.000158398
24 *102:17 *170:9 9.61175e-05
25 *102:19 *106:11 0.012481
26 *102:19 *110:11 0.0119193
27 *102:19 *110:19 0.00768934
28 *102:19 *570:26 0
29 *102:19 *572:28 0.00189031
30 *102:19 *683:15 0.0039762
31 *102:19 *745:15 0
32 *102:23 *103:15 0.00205469
33 *102:23 *147:17 0.23398
34 *102:23 *324:15 0
35 *102:23 *679:13 0.17494
36 *102:27 *234:19 0
*RES
1 *921:gpio_analog_en[21] *102:9 10.59 
2 *102:9 *102:11 93.3702 
3 *102:11 *102:17 6.9751 
4 *102:17 *102:19 527.732 
5 *102:19 *102:21 3.41 
6 *102:21 *102:23 368.164 
7 *102:23 *102:25 3.41 
8 *102:25 *102:27 2285.41 
9 *102:27 gpio_analog_en[21] 1.60714 
*END

*D_NET *103 0.836843
*CONN
*P gpio_analog_en[22] O
*I *921:gpio_analog_en[22] O *D CF_CARAVEL_SOC
*CAP
1 gpio_analog_en[22] 0.112634
2 *921:gpio_analog_en[22] 0.00375138
3 *103:17 0.112634
4 *103:15 0.0798302
5 *103:13 0.0798302
6 *103:11 0.022811
7 *103:9 0.0265624
8 gpio_analog_en[22] gpio_dm0[22] 0
9 gpio_analog_en[22] *710:7 0
10 *103:9 gpio_dm2[3] 0
11 *103:9 *104:9 0
12 *103:11 *115:11 0.0488596
13 *103:11 *130:11 0.00568022
14 *103:11 *141:15 0.00419061
15 *103:11 *216:13 0.00220709
16 *103:11 *246:11 0.0536847
17 *103:11 *270:19 0.0182765
18 *103:11 *444:11 0
19 *103:11 *788:19 0.000531004
20 *103:15 *147:17 0.260066
21 *103:15 *454:13 0
22 *103:15 *542:51 0
23 *103:15 *720:9 0.00234725
24 *102:9 *103:9 0.00089282
25 *102:23 *103:15 0.00205469
*RES
1 *921:gpio_analog_en[22] *103:9 12.434 
2 *103:9 *103:11 1055.95 
3 *103:11 *103:13 3.41 
4 *103:13 *103:15 410.611 
5 *103:15 *103:17 3.41 
6 *103:17 gpio_analog_en[22] 2287.78 
*END

*D_NET *104 0.844377
*CONN
*P gpio_analog_en[23] O
*I *921:gpio_analog_en[23] O *D CF_CARAVEL_SOC
*CAP
1 gpio_analog_en[23] 0.000109834
2 *921:gpio_analog_en[23] 0.00483707
3 *104:35 0.132215
4 *104:33 0.132105
5 *104:31 0.0979869
6 *104:29 0.0979869
7 *104:27 0.00246877
8 *104:25 0.00645752
9 *104:11 0.00974882
10 *104:9 0.0105971
11 *104:9 gpio_out[3] 0.00232177
12 *104:11 *113:11 0.009952
13 *104:11 *133:11 0.00247964
14 *104:11 *181:11 0.0022875
15 *104:11 *202:11 0.00572696
16 *104:11 *288:11 0.00122734
17 *104:11 *307:11 0.0149566
18 *104:25 gpio_analog_pol[5] 0.00323884
19 *104:25 *114:11 0.00205634
20 *104:25 *166:9 4.53703e-05
21 *104:25 *166:11 0.00027798
22 *104:25 *169:11 0.00287337
23 *104:25 *173:13 0.00468766
24 *104:25 *174:11 0.00502042
25 *104:25 *178:11 0.00138873
26 *104:25 *181:11 0.000104478
27 *104:25 *224:19 0.00179642
28 *104:25 *242:11 0.00232789
29 *104:25 *391:43 0.00200259
30 *104:25 *391:49 0
31 *104:27 *113:11 0.0142505
32 *104:27 *161:13 0.00225104
33 *104:27 *202:25 0.000171395
34 *104:27 *326:11 0.0128304
35 *104:27 *535:121 0.000752949
36 *104:31 *184:15 0.000178704
37 *104:31 *193:37 0
38 *104:31 *203:15 0.00789981
39 *104:31 *283:15 0
40 *104:31 *407:27 0
41 *104:31 *705:35 0
42 *104:31 *745:11 0.0446185
43 *104:35 gpio_dm0[23] 0
44 *104:35 *236:19 0
45 *104:35 *322:385 0
46 *104:35 *539:255 0
47 *104:35 *539:259 0
48 *94:19 *104:25 0.00246922
49 *101:15 *104:31 0.199669
50 *103:9 *104:9 0
*RES
1 *921:gpio_analog_en[23] *104:9 14.8843 
2 *104:9 *104:11 327.375 
3 *104:11 *104:25 42.2818 
4 *104:25 *104:27 175.438 
5 *104:27 *104:29 4.5 
6 *104:29 *104:31 2582.29 
7 *104:31 *104:33 4.5 
8 *104:33 *104:35 2681.42 
9 *104:35 gpio_analog_en[23] 1.74107 
*END

*D_NET *105 0.889512
*CONN
*P gpio_analog_en[24] O
*I *921:gpio_analog_en[24] O *D CF_CARAVEL_SOC
*CAP
1 gpio_analog_en[24] 8.98168e-05
2 *921:gpio_analog_en[24] 0.0029858
3 *105:31 0.151019
4 *105:29 0.15093
5 *105:27 0.0873977
6 *105:25 0.0879277
7 *105:11 0.00935475
8 *105:9 0.0118106
9 *105:9 *106:9 0
10 *105:9 *334:6 0.000201414
11 *105:11 *108:11 0.0390529
12 *105:11 *125:11 0.000105594
13 *105:11 *350:11 0.000121776
14 *105:11 *443:11 0.00516364
15 *105:25 *108:11 0.000469732
16 *105:25 *159:13 0.000179685
17 *105:25 *165:9 5.00194e-05
18 *105:25 *788:53 2.52037e-05
19 *105:27 *106:19 0
20 *105:27 *108:11 0.132692
21 *105:27 *226:11 0
22 *105:27 *314:19 0.0523008
23 *105:27 *350:11 0.0418628
24 *105:27 *351:11 0.00687419
25 *105:27 *352:11 0.00210409
26 *105:31 gpio_analog_pol[24] 0
27 *105:31 gpio_dm0[24] 0.000136114
28 *105:31 *140:355 0.000149462
29 *105:31 *358:23 0
30 *105:31 *402:15 0
31 *105:31 *538:379 0.00274794
32 *105:31 *710:11 0
33 *91:11 *105:27 0
34 *92:11 *105:11 0.0400798
35 *92:11 *105:27 0.0105186
36 *95:11 *105:11 0.000114258
37 *95:11 *105:25 0.00248189
38 *95:11 *105:27 0.00233294
39 *96:11 *105:25 0.002486
40 *96:11 *105:27 0.0457454
*RES
1 *921:gpio_analog_en[24] *105:9 9.76283 
2 *105:9 *105:11 82.2907 
3 *105:11 *105:25 44.5044 
4 *105:25 *105:27 472.522 
5 *105:27 *105:29 3.41 
6 *105:29 *105:31 482.222 
7 *105:31 gpio_analog_en[24] 0.301583 
*END

*D_NET *106 0.623998
*CONN
*P gpio_analog_en[25] O
*I *921:gpio_analog_en[25] O *D CF_CARAVEL_SOC
*CAP
1 gpio_analog_en[25] 7.30199e-05
2 *921:gpio_analog_en[25] 0.00356399
3 *106:23 0.152324
4 *106:21 0.152251
5 *106:19 0.0234051
6 *106:17 0.0235415
7 *106:11 0.0428987
8 *106:9 0.0463262
9 *106:9 *107:9 0
10 *106:9 *334:6 0.000255549
11 *106:9 *698:21 0.000135306
12 *106:11 *110:11 0.025369
13 *106:11 *119:11 0.000595945
14 *106:11 *140:43 0.00522431
15 *106:11 *226:11 0.0400332
16 *106:11 *442:11 0.0537846
17 *106:11 *831:69 0.0012938
18 *106:19 *226:11 0.0256498
19 *106:19 *572:28 0.00843622
20 *106:23 gpio_dm0[25] 0
21 *106:23 *150:31 0
22 *106:23 *282:15 0
23 *92:11 *106:19 0.00635629
24 *102:19 *106:11 0.012481
25 *105:9 *106:9 0
26 *105:27 *106:19 0
*RES
1 *921:gpio_analog_en[25] *106:9 10.9143 
2 *106:9 *106:11 1664.3 
3 *106:11 *106:17 7.1913 
4 *106:17 *106:19 134.172 
5 *106:19 *106:21 3.41 
6 *106:21 *106:23 483.23 
7 *106:23 gpio_analog_en[25] 0.245183 
*END

*D_NET *107 0.820928
*CONN
*P gpio_analog_en[26] O
*I *921:gpio_analog_en[26] O *D CF_CARAVEL_SOC
*CAP
1 gpio_analog_en[26] 0.00563525
2 *921:gpio_analog_en[26] 0.00203719
3 *107:31 0.094614
4 *107:29 0.0889787
5 *107:27 0.0588361
6 *107:25 0.0590441
7 *107:15 0.00160931
8 *107:13 0.00140129
9 *107:11 0.0148366
10 *107:9 0.0168738
11 gpio_analog_en[26] gpio_dm0[26] 0.00042967
12 gpio_analog_en[26] gpio_dm1[26] 0
13 gpio_analog_en[26] *239:15 0
14 gpio_analog_en[26] *283:31 0.00075194
15 *107:9 *108:9 0.000897881
16 *107:9 *334:6 0.000255549
17 *107:11 *152:11 0.00146244
18 *107:11 *160:11 0.0132712
19 *107:11 *212:11 0.00717542
20 *107:11 *534:15 0
21 *107:15 *112:15 0.00569057
22 *107:15 *183:17 0.000395776
23 *107:15 *195:15 1.21258e-05
24 *107:15 *204:33 7.15503e-05
25 *107:25 *112:25 7.11379e-05
26 *107:25 *744:11 2.14879e-05
27 *107:27 *112:27 0.0707121
28 *107:27 *283:27 0
29 *107:27 *328:61 0.0187728
30 *107:31 *239:15 0.296479
31 *107:31 *283:31 0
32 *91:11 *107:11 0.00647349
33 *95:17 *107:25 5.0145e-05
34 *97:11 *107:11 0.0510408
35 *97:15 *107:15 0.00302575
36 *106:9 *107:9 0
*RES
1 *921:gpio_analog_en[26] *107:9 8.6082 
2 *107:9 *107:11 627.152 
3 *107:11 *107:13 4.5 
4 *107:13 *107:15 56.3929 
5 *107:15 *107:25 14.7155 
6 *107:25 *107:27 280.23 
7 *107:27 *107:29 3.41 
8 *107:29 *107:31 458.463 
9 *107:31 gpio_analog_en[26] 13.9645 
*END

*D_NET *108 0.65299
*CONN
*P gpio_analog_en[27] O
*I *921:gpio_analog_en[27] O *D CF_CARAVEL_SOC
*CAP
1 gpio_analog_en[27] 0.002857
2 *921:gpio_analog_en[27] 0.00235941
3 *108:15 0.152833
4 *108:13 0.149976
5 *108:11 0.0361842
6 *108:9 0.0385436
7 gpio_analog_en[27] gpio_analog_pol[27] 0
8 gpio_analog_en[27] gpio_dm0[27] 0.000251386
9 gpio_analog_en[27] gpio_dm1[27] 0
10 *108:11 *125:11 0.00101364
11 *108:11 *350:11 0.0163128
12 *108:15 *152:31 0
13 *92:11 *108:11 0.0749281
14 *95:11 *108:11 0.00461917
15 *105:11 *108:11 0.0390529
16 *105:25 *108:11 0.000469732
17 *105:27 *108:11 0.132692
18 *107:9 *108:9 0.000897881
*RES
1 *921:gpio_analog_en[27] *108:9 9.2991 
2 *108:9 *108:11 356.934 
3 *108:11 *108:13 3.41 
4 *108:13 *108:15 476.984 
5 *108:15 gpio_analog_en[27] 6.11548 
*END

*D_NET *109 0.638484
*CONN
*P gpio_analog_en[28] O
*I *921:gpio_analog_en[28] O *D CF_CARAVEL_SOC
*CAP
1 gpio_analog_en[28] 0.000106614
2 *921:gpio_analog_en[28] 0.000460252
3 *109:31 0.150373
4 *109:29 0.150267
5 *109:27 0.0423305
6 *109:25 0.0423876
7 *109:23 0.0094871
8 *109:21 0.0128936
9 *109:11 0.0107535
10 *109:9 0.0077502
11 *109:9 *110:9 0
12 *109:11 *121:11 0.00405466
13 *109:11 *123:11 0.000276215
14 *109:11 *126:11 0.000408964
15 *109:11 *164:15 0.0215224
16 *109:11 *193:9 0
17 *109:11 *209:11 0.00165754
18 *109:11 *211:9 0
19 *109:21 *116:27 0.00122586
20 *109:21 *140:17 0.000135968
21 *109:21 *194:33 0.0077115
22 *109:21 *204:9 0.000232046
23 *109:21 *205:23 0
24 *109:21 *209:9 0.000271092
25 *109:21 *209:11 2.14912e-05
26 *109:21 *321:37 0.00558831
27 *109:21 *334:6 0.000583581
28 *109:23 *148:9 0.0214277
29 *109:23 *150:19 0.000699672
30 *109:23 *151:9 0.00288028
31 *109:23 *153:27 0.000672631
32 *109:23 *154:9 0.00010283
33 *109:23 *156:11 0.000917399
34 *109:23 *157:13 0.000165754
35 *109:23 *167:13 0.000255549
36 *109:23 *204:21 0.00205549
37 *109:23 *241:19 0.00041992
38 *109:23 *321:37 0.000109708
39 *109:23 *329:50 0.00445906
40 *109:23 *334:6 0.000139185
41 *109:23 *334:30 0.00278581
42 *109:23 *334:34 0.00866699
43 *109:23 *788:37 0.00014833
44 *109:27 *146:17 0.00736034
45 *109:27 *151:9 0.0290975
46 *109:27 *152:27 0
47 *109:27 *153:27 0.0123504
48 *109:27 *154:9 0.0156123
49 *109:27 *156:11 0.0361571
50 *109:27 *241:19 0.019072
51 *109:27 *285:11 0
52 *109:31 gpio_dm0[28] 0.00113475
53 *109:31 *153:31 0
54 *109:31 *241:31 0
55 *109:31 *285:15 0
56 *109:31 *538:305 0.00129402
*RES
1 *921:gpio_analog_en[28] *109:9 4.43147 
2 *109:9 *109:11 264.839 
3 *109:11 *109:21 28.7016 
4 *109:21 *109:23 52.3893 
5 *109:23 *109:25 0.191133 
6 *109:25 *109:27 202.213 
7 *109:27 *109:29 3.41 
8 *109:29 *109:31 476.889 
9 *109:31 gpio_analog_en[28] 0.357983 
*END

*D_NET *110 0.5712
*CONN
*P gpio_analog_en[29] O
*I *921:gpio_analog_en[29] O *D CF_CARAVEL_SOC
*CAP
1 gpio_analog_en[29] 2.30958e-05
2 *921:gpio_analog_en[29] 0.00331815
3 *110:23 0.153553
4 *110:21 0.15353
5 *110:19 0.0171797
6 *110:17 0.0172476
7 *110:11 0.0169378
8 *110:9 0.020188
9 *110:9 *112:9 0
10 *110:11 *119:11 0.00282799
11 *110:11 *140:43 0.00522431
12 *110:11 *150:11 0.00678714
13 *110:11 *206:17 0.00149405
14 *110:11 *226:11 0.00589717
15 *110:11 *683:15 0
16 *110:11 *831:69 0.00129585
17 *110:17 *273:15 0.00014147
18 *110:19 *226:11 0.0339063
19 *110:19 *572:28 0.0859518
20 *110:23 gpio_dm0[29] 0
21 *110:23 gpio_dm1[29] 0
22 *110:23 *242:33 0
23 *110:23 *242:35 0
24 *110:23 *281:25 0.000547685
25 *102:11 *110:11 0.000171395
26 *102:19 *110:11 0.0119193
27 *102:19 *110:19 0.00768934
28 *106:11 *110:11 0.025369
29 *109:9 *110:9 0
*RES
1 *921:gpio_analog_en[29] *110:9 10.5571 
2 *110:9 *110:11 641.875 
3 *110:11 *110:17 7.04717 
4 *110:17 *110:19 175.294 
5 *110:19 *110:21 3.41 
6 *110:21 *110:23 483.23 
7 *110:23 gpio_analog_en[29] 0.07755 
*END

*D_NET *111 0.0410925
*CONN
*P gpio_analog_en[2] O
*I *921:gpio_analog_en[2] O *D CF_CARAVEL_SOC
*CAP
1 gpio_analog_en[2] 0.0122069
2 *921:gpio_analog_en[2] 0.0122069
3 gpio_analog_en[2] gpio_analog_en[3] 0
4 gpio_analog_en[2] gpio_dm0[2] 0.000556594
5 gpio_analog_en[2] gpio_inp_dis[2] 0.00354919
6 gpio_analog_en[2] *155:11 0.000751065
7 gpio_analog_en[2] *188:11 0
8 gpio_analog_en[2] *223:19 0.00209204
9 gpio_analog_en[2] *243:11 4.09261e-05
10 gpio_analog_en[2] *270:19 0.00189343
11 gpio_analog_en[2] *321:9 0.000798314
12 gpio_analog_en[2] *342:11 0.0069971
13 *100:9 gpio_analog_en[2] 0
*RES
1 *921:gpio_analog_en[2] gpio_analog_en[2] 49.2242 
*END

*D_NET *112 0.568155
*CONN
*P gpio_analog_en[30] O
*I *921:gpio_analog_en[30] O *D CF_CARAVEL_SOC
*CAP
1 gpio_analog_en[30] 0.00308425
2 *921:gpio_analog_en[30] 0.00464489
3 *112:31 0.150018
4 *112:29 0.146933
5 *112:27 0.0140225
6 *112:25 0.0142528
7 *112:15 0.00238207
8 *112:13 0.00215182
9 *112:11 0.00994704
10 *112:9 0.0145919
11 gpio_analog_en[30] gpio_dm0[30] 9.339e-05
12 gpio_analog_en[30] gpio_dm1[30] 0
13 *112:9 *113:9 0
14 *112:11 *128:11 0.00159976
15 *112:11 *139:11 0.0208068
16 *112:11 *182:11 0.0013103
17 *112:11 *203:11 0.00547012
18 *112:11 *225:19 0.0262149
19 *112:11 *274:45 0.00209549
20 *112:11 *274:91 0.000750236
21 *112:11 *315:11 0.00382752
22 *112:11 *321:11 0.0192133
23 *112:15 *162:15 0.00026858
24 *112:15 *183:17 0.000426772
25 *112:15 *195:15 0.000731727
26 *112:15 *196:15 0.00677437
27 *112:15 *198:15 6.89735e-05
28 *112:15 *204:33 0.00118256
29 *112:25 *744:11 2.1479e-05
30 *112:27 *328:61 0.0387459
31 *112:31 gpio_inp_dis[30] 0
32 *112:31 *156:15 0
33 *112:31 *288:71 0
34 *95:17 *112:25 5.01384e-05
35 *107:15 *112:15 0.00569057
36 *107:25 *112:25 7.11379e-05
37 *107:27 *112:27 0.0707121
38 *110:9 *112:9 0
*RES
1 *921:gpio_analog_en[30] *112:9 13.515 
2 *112:9 *112:11 609.848 
3 *112:11 *112:13 4.5 
4 *112:13 *112:15 85.5536 
5 *112:15 *112:25 15.0191 
6 *112:25 *112:27 145.039 
7 *112:27 *112:29 3.41 
8 *112:29 *112:31 466.174 
9 *112:31 gpio_analog_en[30] 6.22828 
*END

*D_NET *113 0.545842
*CONN
*P gpio_analog_en[31] O
*I *921:gpio_analog_en[31] O *D CF_CARAVEL_SOC
*CAP
1 gpio_analog_en[31] 0.00010848
2 *921:gpio_analog_en[31] 0.00523694
3 *113:23 0.167474
4 *113:21 0.167365
5 *113:19 0.0113862
6 *113:17 0.0115144
7 *113:11 0.0108317
8 *113:9 0.0159404
9 *113:9 *114:9 0
10 *113:11 *133:11 0.00113146
11 *113:11 *161:13 0.00198531
12 *113:11 *181:11 0.00503918
13 *113:11 *202:11 0.0313103
14 *113:11 *202:25 0.000482836
15 *113:11 *288:11 0.0212452
16 *113:11 *307:11 0
17 *113:11 *326:11 0.00833606
18 *113:11 *535:121 0.00106033
19 *113:19 *176:11 0.0283831
20 *113:19 *181:11 0.0201828
21 *113:19 *182:19 0.000331525
22 *113:19 *202:25 2.05803e-05
23 *113:19 *312:19 0.000370852
24 *113:19 *535:121 0.010753
25 *113:23 gpio_analog_pol[31] 0
26 *113:23 gpio_dm0[31] 0.000161917
27 *113:23 gpio_dm1[31] 0
28 *113:23 *140:149 0.000988073
29 *104:11 *113:11 0.009952
30 *104:27 *113:11 0.0142505
31 *112:9 *113:9 0
*RES
1 *921:gpio_analog_en[31] *113:9 14.7401 
2 *113:9 *113:11 652.196 
3 *113:11 *113:17 7.11923 
4 *113:17 *113:19 103.917 
5 *113:19 *113:21 3.41 
6 *113:21 *113:23 487.555 
7 *113:23 gpio_analog_en[31] 0.36425 
*END

*D_NET *114 0.678168
*CONN
*P gpio_analog_en[32] O
*I *921:gpio_analog_en[32] O *D CF_CARAVEL_SOC
*CAP
1 gpio_analog_en[32] 0.00144353
2 *921:gpio_analog_en[32] 0.0057074
3 *114:31 0.00815883
4 *114:29 0.00908363
5 *114:23 0.0585256
6 *114:21 0.0596261
7 *114:11 0.0156786
8 *114:9 0.0179172
9 gpio_analog_en[32] gpio_dm0[32] 0.000522919
10 gpio_analog_en[32] *447:17 0
11 gpio_analog_en[32] *548:23 7.46044e-05
12 *114:9 *115:9 0
13 *114:11 *166:11 0.00017465
14 *114:11 *173:13 0.00166001
15 *114:11 *178:11 0.00342068
16 *114:11 *199:11 0.00125699
17 *114:11 *242:11 0.0442367
18 *114:11 *337:11 0.0213526
19 *114:11 *531:28 0
20 *114:21 *174:11 0.00226726
21 *114:21 *242:11 0.000795634
22 *114:21 *337:33 2.10272e-05
23 *114:23 *141:29 0.0184242
24 *114:23 *142:15 0.014067
25 *114:23 *184:15 0.011534
26 *114:23 *203:15 0
27 *114:23 *227:17 0.0046598
28 *114:23 *272:15 0.0112334
29 *114:23 *283:25 0.000158831
30 *114:23 *407:27 0.0139022
31 *114:23 *689:11 0.137387
32 *114:23 *705:21 0.0181383
33 *114:23 *745:11 0.00666779
34 *114:23 *782:15 0.103977
35 *114:23 *832:49 0.000329856
36 *114:29 *158:30 0
37 *114:29 *246:29 0.00335409
38 *114:29 *334:42 7.71976e-05
39 *114:31 *158:32 0.0378182
40 *114:31 *246:31 0.038521
41 *94:19 *114:21 0.00107107
42 *98:15 *114:23 0.000257535
43 *101:15 *114:23 0.00260937
44 *104:25 *114:11 0.00205634
45 *113:9 *114:9 0
*RES
1 *921:gpio_analog_en[32] *114:9 15.7491 
2 *114:9 *114:11 542.304 
3 *114:11 *114:21 23.2161 
4 *114:21 *114:23 425.529 
5 *114:23 *114:29 15.9223 
6 *114:29 *114:31 60.6911 
7 *114:31 gpio_analog_en[32] 12.9018 
*END

*D_NET *115 0.840497
*CONN
*P gpio_analog_en[33] O
*I *921:gpio_analog_en[33] O *D CF_CARAVEL_SOC
*CAP
1 gpio_analog_en[33] 0.00665812
2 *921:gpio_analog_en[33] 0.00419201
3 *115:35 0.00817652
4 *115:33 0.00258427
5 *115:15 0.0353627
6 *115:13 0.0342968
7 *115:11 0.0181154
8 *115:9 0.0223074
9 gpio_analog_en[33] gpio_dm0[33] 0.00271663
10 gpio_analog_en[33] gpio_slow_sel[33] 0
11 gpio_analog_en[33] *206:57 0.000293114
12 gpio_analog_en[33] *455:19 0
13 gpio_analog_en[33] *543:37 0.000116625
14 *115:11 *141:15 0.00387371
15 *115:11 *155:11 0.000653059
16 *115:11 *180:11 0.0021995
17 *115:11 *216:13 0.000113898
18 *115:11 *444:11 0
19 *115:11 *788:19 0.00380303
20 *115:15 *291:15 0.278257
21 *115:15 *393:23 0.000228903
22 *115:15 *437:31 0.281388
23 *115:15 *688:11 0.00340404
24 *115:15 *716:11 0.000733361
25 *115:15 *744:11 0.0551497
26 *115:33 *162:15 3.69047e-06
27 *115:33 *436:23 9.58126e-05
28 *115:33 *449:13 0
29 *115:33 *450:13 0.000111502
30 *115:33 *687:17 0.00217677
31 *115:33 *688:11 0.00217367
32 *115:33 *787:11 0.000607694
33 *115:33 *790:11 0.000604458
34 *115:35 gpio_analog_pol[33] 0.00196713
35 *115:35 *355:11 0.00963647
36 *115:35 *790:11 0.00963647
37 *103:11 *115:11 0.0488596
38 *114:9 *115:9 0
*RES
1 *921:gpio_analog_en[33] *115:9 12.5061 
2 *115:9 *115:11 599.83 
3 *115:11 *115:13 4.5 
4 *115:13 *115:15 2662.38 
5 *115:15 *115:33 34.2739 
6 *115:33 *115:35 118.062 
7 *115:35 gpio_analog_en[33] 18.7908 
*END

*D_NET *116 0.727466
*CONN
*P gpio_analog_en[34] O
*I *921:gpio_analog_en[34] O *D CF_CARAVEL_SOC
*CAP
1 gpio_analog_en[34] 0.00803894
2 *921:gpio_analog_en[34] 0.000833647
3 *116:67 0.0219289
4 *116:65 0.01389
5 *116:63 0.0278977
6 *116:61 0.0279384
7 *116:55 0.0402502
8 *116:53 0.0444077
9 *116:39 0.00526072
10 *116:33 0.00112313
11 *116:27 0.00285594
12 *116:25 0.00312044
13 *116:19 0.00261368
14 *116:17 0.00245571
15 *116:11 0.0014831
16 *116:9 0.0021495
17 gpio_analog_en[34] gpio_analog_pol[34] 0
18 gpio_analog_en[34] gpio_dm0[34] 0
19 gpio_analog_en[34] gpio_dm1[34] 0.00278345
20 gpio_analog_en[34] *355:9 0
21 gpio_analog_en[34] *356:9 0.00122239
22 *116:9 *117:9 0
23 *116:9 *334:6 0.000255549
24 *116:11 *213:11 0.00239294
25 *116:11 *214:11 0.000716961
26 *116:11 *227:11 0.00608044
27 *116:19 *164:15 0.012992
28 *116:19 *167:15 0.00143762
29 *116:19 *207:11 0.0104135
30 *116:19 *209:11 0.00145677
31 *116:27 *140:17 0.000126926
32 *116:27 *140:25 0.0020933
33 *116:27 *142:9 0.000111764
34 *116:27 *143:9 0.000111764
35 *116:27 *153:25 0.000111764
36 *116:27 *204:17 0.000815901
37 *116:27 *288:45 0.000216733
38 *116:27 *321:41 0.00219751
39 *116:27 *327:19 0.00457397
40 *116:27 *327:25 0.00330212
41 *116:27 *328:11 0.0105568
42 *116:27 *328:31 1.94945e-05
43 *116:27 *329:50 0.000560862
44 *116:27 *333:11 0.00106727
45 *116:27 *334:6 0.000505765
46 *116:27 *334:30 0.000651996
47 *116:27 *787:49 0.000714254
48 *116:27 *788:53 0.00106535
49 *116:39 *117:25 0.000765745
50 *116:39 *150:19 0.000845347
51 *116:39 *152:19 0.000500611
52 *116:39 *153:25 0
53 *116:39 *157:29 0
54 *116:39 *163:17 0.00220381
55 *116:39 *167:13 0.000111764
56 *116:39 *328:51 0
57 *116:39 *333:11 3.58434e-05
58 *116:39 *334:30 0.000165754
59 *116:39 *334:34 0.000412139
60 *116:39 *392:45 5.17244e-05
61 *116:39 *788:37 0.00265178
62 *116:39 *831:69 2.23987e-05
63 *116:53 *117:35 0.00111083
64 *116:53 *158:22 0.00990984
65 *116:53 *195:29 9.69044e-05
66 *116:53 *196:25 9.2692e-05
67 *116:53 *198:25 2.63501e-05
68 *116:53 *205:31 0.000756493
69 *116:53 *329:58 0.00207682
70 *116:53 *392:35 0
71 *116:53 *744:11 0.000525078
72 *116:53 *831:41 0.000682588
73 *116:55 *160:15 0.00159143
74 *116:55 *160:23 0.000640825
75 *116:55 *392:31 0.129118
76 *116:55 *672:11 0.00058428
77 *116:55 *683:11 0.0297327
78 *116:55 *693:19 0.00111797
79 *116:61 *661:13 6.75178e-05
80 *116:63 *117:39 0.0683865
81 *116:63 *160:23 0.146684
82 *116:63 *393:21 0.0188027
83 *116:63 *661:13 7.06369e-05
84 *116:63 *687:17 0.000292746
85 *116:67 *406:11 0.0050681
86 *116:67 *407:11 0.00254174
87 *116:67 *454:25 0.00286763
88 *116:67 *750:11 0.014776
89 *116:67 *764:11 0.00230821
90 *116:67 *764:17 0.000241472
91 *116:67 *794:11 0.0033011
92 *95:17 *116:53 0.000199889
93 *109:21 *116:27 0.00122586
*RES
1 *921:gpio_analog_en[34] *116:9 5.22107 
2 *116:9 *116:11 74.6518 
3 *116:11 *116:17 11.5893 
4 *116:17 *116:19 160.107 
5 *116:19 *116:25 14.0536 
6 *116:25 *116:27 196.839 
7 *116:27 *116:33 10.0357 
8 *116:33 *116:39 47.8138 
9 *116:39 *116:53 39.1161 
10 *116:53 *116:55 1276.62 
11 *116:55 *116:61 8.79393 
12 *116:61 *116:63 233.003 
13 *116:63 *116:65 3.41 
14 *116:65 *116:67 55.977 
15 *116:67 gpio_analog_en[34] 21.9194 
*END

*D_NET *117 0.775124
*CONN
*P gpio_analog_en[35] O
*I *921:gpio_analog_en[35] O *D CF_CARAVEL_SOC
*CAP
1 gpio_analog_en[35] 0.0001597
2 *921:gpio_analog_en[35] 0.00200195
3 *117:43 0.00828153
4 *117:41 0.00812183
5 *117:39 0.0591575
6 *117:37 0.0591575
7 *117:35 0.00443766
8 *117:33 0.00515685
9 *117:25 0.00273465
10 *117:11 0.0156194
11 *117:9 0.0156059
12 gpio_analog_en[35] gpio_dm0[35] 3.54334e-05
13 gpio_analog_en[35] gpio_dm1[35] 0
14 *117:9 *118:9 0.00025924
15 *117:9 *119:9 0
16 *117:9 *334:6 0.000201414
17 *117:11 *153:25 0.000256137
18 *117:11 *279:11 0.00348489
19 *117:11 *316:11 0.0348519
20 *117:11 *483:11 0
21 *117:25 *161:13 0.00046579
22 *117:25 *162:9 0.000463154
23 *117:25 *333:11 0.000767797
24 *117:25 *334:30 0.000183617
25 *117:33 *157:29 0.00158389
26 *117:33 *158:22 0.000381778
27 *117:33 *328:51 0.000365949
28 *117:33 *329:54 0.000278276
29 *117:33 *330:13 0.00227943
30 *117:33 *392:45 0
31 *117:35 *140:73 0.000451218
32 *117:35 *195:29 0
33 *117:35 *205:31 0.000202501
34 *117:35 *326:19 0.000107658
35 *117:35 *329:58 0
36 *117:35 *392:35 0.00546879
37 *117:35 *831:41 0.00010385
38 *117:39 *141:29 0.00816868
39 *117:39 *193:61 0.000145859
40 *117:39 *195:29 5.11566e-05
41 *117:39 *205:53 0.0800841
42 *117:39 *291:25 0.0024576
43 *117:39 *392:23 0.164715
44 *117:39 *393:21 0.020097
45 *117:39 *661:13 0.00284107
46 *117:39 *661:15 0.0740599
47 *117:39 *687:17 2.8185e-05
48 *117:39 *691:11 9.53406e-06
49 *117:39 *705:21 0.0368624
50 *117:43 *459:13 0.0413561
51 *117:43 *553:25 0.0413575
52 *116:9 *117:9 0
53 *116:39 *117:25 0.000765745
54 *116:53 *117:35 0.00111083
55 *116:63 *117:39 0.0683865
*RES
1 *921:gpio_analog_en[35] *117:9 7.85307 
2 *117:9 *117:11 428.161 
3 *117:11 *117:25 31.5373 
4 *117:25 *117:33 35.6336 
5 *117:33 *117:35 127.625 
6 *117:35 *117:37 3.41 
7 *117:37 *117:39 474.894 
8 *117:39 *117:41 3.41 
9 *117:41 *117:43 516.183 
10 *117:43 gpio_analog_en[35] 3.80637 
*END

*D_NET *118 0.861394
*CONN
*P gpio_analog_en[36] O
*I *921:gpio_analog_en[36] O *D CF_CARAVEL_SOC
*CAP
1 gpio_analog_en[36] 0.0046046
2 *921:gpio_analog_en[36] 0.000637403
3 *118:211 0.019772
4 *118:209 0.0179842
5 *118:205 0.00557374
6 *118:197 0.0035663
7 *118:187 0.00426812
8 *118:185 0.00476654
9 *118:179 0.00379047
10 *118:177 0.00445283
11 *118:163 0.00467003
12 *118:161 0.00273354
13 *118:155 0.00408438
14 *118:153 0.00408417
15 *118:147 0.00535641
16 *118:145 0.00862995
17 *118:137 0.00419228
18 *118:129 0.00461492
19 *118:115 0.00811204
20 *118:113 0.00514091
21 *118:107 0.0015768
22 *118:105 0.00154242
23 *118:99 0.00163853
24 *118:97 0.00285342
25 *118:87 0.00332454
26 *118:75 0.00240845
27 *118:73 0.00350643
28 *118:65 0.00337267
29 *118:57 0.00183718
30 *118:53 0.0016571
31 *118:49 0.00395219
32 *118:39 0.00435685
33 *118:37 0.00683531
34 *118:27 0.0125332
35 *118:19 0.0278255
36 *118:17 0.0216218
37 *118:11 0.0103333
38 *118:9 0.0103628
39 gpio_analog_en[36] gpio_dm0[36] 0.00116069
40 gpio_analog_en[36] gpio_dm1[36] 0
41 gpio_analog_en[36] *822:9 0.000567378
42 *118:9 *119:9 0.00025924
43 *118:11 *212:19 0.0249594
44 *118:11 *275:11 0
45 *118:11 *740:59 0.00320161
46 *118:19 *244:11 0
47 *118:19 *245:11 0.00163398
48 *118:19 *250:11 0.00344795
49 *118:19 *251:11 0.0238704
50 *118:19 *253:11 0
51 *118:19 *271:11 0
52 *118:19 *282:11 0.00164652
53 *118:19 *286:11 0
54 *118:19 *290:11 0.00625559
55 *118:19 *296:11 0
56 *118:19 *322:35 0
57 *118:19 *740:67 0.00602649
58 *118:19 *740:75 0
59 *118:27 gpio_analog_sel[43] 0.00093713
60 *118:27 *529:9 0
61 *118:27 *532:32 0.00435697
62 *118:27 *536:63 0.00528468
63 *118:27 *540:34 0.00469821
64 *118:27 *562:119 0.0108277
65 *118:27 *569:18 0.00435697
66 *118:27 *697:109 0.00178373
67 *118:27 *740:79 0.00536503
68 *118:27 *826:127 0.00469821
69 *118:37 *322:57 0
70 *118:37 *322:61 0.000257677
71 *118:37 *533:108 0
72 *118:37 *537:52 0
73 *118:37 *826:125 0.000119575
74 *118:39 *322:65 0.00450868
75 *118:39 *444:23 0.000184646
76 *118:39 *533:102 0.00063069
77 *118:39 *536:63 0.00059766
78 *118:39 *569:18 0.00252881
79 *118:39 *696:95 0.00293804
80 *118:39 *740:95 0.000801634
81 *118:39 *826:127 5.52238e-05
82 *118:49 *386:201 0.00851385
83 *118:53 *386:201 0
84 *118:53 *536:49 0.000750258
85 *118:57 *125:15 0.00292704
86 *118:57 *444:37 0.00095653
87 *118:57 *696:95 0.00208005
88 *118:65 *125:15 0.000263104
89 *118:65 *322:101 0
90 *118:65 *386:189 0.000115395
91 *118:65 *444:39 0.00033296
92 *118:65 *532:16 0.00145135
93 *118:65 *540:32 0.00206768
94 *118:65 *696:95 0.000369617
95 *118:65 *741:148 0
96 *118:65 *826:109 0.000253501
97 *118:73 *322:113 2.24813e-05
98 *118:73 *325:37 0.000727413
99 *118:73 *336:29 0.000634922
100 *118:73 *386:189 0.00891854
101 *118:73 *533:68 0.00166287
102 *118:73 *535:59 0.000167316
103 *118:75 *444:53 0.00121529
104 *118:75 *532:16 0.00407022
105 *118:75 *696:95 0.00731741
106 *118:87 *293:15 0.00187715
107 *118:87 *322:123 0.00131991
108 *118:87 *325:51 0
109 *118:87 *336:41 0
110 *118:87 *531:16 0.000314658
111 *118:87 *696:101 0.000103841
112 *118:87 *741:164 0
113 *118:87 *840:19 0.000369355
114 *118:97 *325:61 0.000678929
115 *118:97 *336:41 0.00696065
116 *118:97 *338:29 0.00590452
117 *118:97 *397:109 0.000288599
118 *118:97 *408:45 0.000240274
119 *118:97 *540:18 0.000657971
120 *118:97 *696:117 0.00109485
121 *118:99 *325:63 0.00696353
122 *118:99 *338:35 0.000386371
123 *118:99 *532:16 0.00766324
124 *118:99 *537:12 0.000525934
125 *118:105 gpio_analog_en[42] 0
126 *118:107 *212:23 0.00123453
127 *118:107 *292:15 0.0066508
128 *118:107 *858:11 0.00664741
129 *118:113 *397:93 0.000400224
130 *118:113 *541:25 0
131 *118:115 *530:17 0.00211149
132 *118:115 *539:35 0
133 *118:115 *562:35 0
134 *118:115 *569:18 1.82549e-05
135 *118:115 *826:47 0.00800591
136 *118:129 *386:137 0.0130128
137 *118:129 *540:18 0.00168063
138 *118:129 *562:33 7.69776e-06
139 *118:129 *569:16 0
140 *118:129 *570:12 0
141 *118:129 *696:163 0.00026109
142 *118:137 *419:69 0.000395712
143 *118:137 *551:25 0.0020687
144 *118:137 *562:21 0.000263192
145 *118:137 *826:47 0
146 *118:145 *338:63 0
147 *118:145 *386:121 8.22435e-05
148 *118:145 *419:61 0.0147673
149 *118:145 *540:18 0.0011543
150 *118:145 *551:17 0.000975928
151 *118:145 *562:21 0.00151194
152 *118:147 *386:107 0.0176525
153 *118:153 *419:45 4.15592e-05
154 *118:155 gpio_out[39] 0.00267465
155 *118:155 *338:63 0.000934973
156 *118:155 *386:99 0.0354584
157 *118:155 *419:39 0.0357335
158 *118:161 *386:97 9.15621e-06
159 *118:161 *541:41 2.04825e-05
160 *118:163 *325:87 2.28598e-05
161 *118:163 *386:91 0.0236149
162 *118:163 *541:43 0.0236967
163 *118:177 *322:207 0.0117083
164 *118:177 *325:97 4.95831e-05
165 *118:177 *386:89 4.15161e-05
166 *118:177 *397:71 0.00420933
167 *118:177 *541:53 0.00522831
168 *118:177 *739:116 0.000553064
169 *118:179 *293:15 0.00424297
170 *118:179 *322:207 0.000134026
171 *118:179 *386:77 0.000320532
172 *118:179 *397:71 0.000527714
173 *118:179 *419:23 0.00391352
174 *118:179 *444:71 0.00109189
175 *118:179 *693:173 0.000361075
176 *118:179 *840:19 0.00124766
177 *118:185 *921:gpio_in[16] 0.000981551
178 *118:185 *293:15 0.00044821
179 *118:185 *419:23 0.00500856
180 *118:185 *693:131 0.000196058
181 *118:187 *293:15 0.00547114
182 *118:187 *325:145 0.00022729
183 *118:187 *419:23 0.00545123
184 *118:187 *539:119 0.00224055
185 *118:187 *541:81 0.0023652
186 *118:187 *541:97 2.12005e-05
187 *118:187 *693:113 0.000804847
188 *118:187 *693:131 2.14757e-05
189 *118:187 *737:143 0.000450433
190 *118:187 *840:19 0.0023826
191 *118:197 *292:15 0.00230855
192 *118:197 *737:117 0.000308382
193 *118:197 *858:11 0.00230257
194 *118:205 *335:45 0.0166076
195 *118:205 *338:77 0
196 *118:205 *338:81 0.000297299
197 *118:205 *397:25 0.0172532
198 *118:205 *419:19 0.000221753
199 *118:205 *693:109 0.000452383
200 *118:205 *739:60 0
201 *118:205 *826:27 0.00279426
202 *118:209 *325:157 0
203 *118:209 *335:55 1.56427e-05
204 *118:209 *338:81 0.0061507
205 *118:209 *397:25 0.000504357
206 *118:209 *419:19 0.000410615
207 *118:211 *322:277 0.049954
208 *118:211 *338:83 2.69104e-05
209 *118:211 *387:11 0
210 *118:211 *440:19 0.000130827
211 *118:211 *734:15 0.00189366
212 *118:211 *736:39 0.0335924
213 *118:211 *833:11 0.0143982
214 *117:9 *118:9 0.00025924
*RES
1 *921:gpio_analog_en[36] *118:9 5.37147 
2 *118:9 *118:11 306.58 
3 *118:11 *118:17 18.1607 
4 *118:17 *118:19 625.027 
5 *118:19 *118:27 47.1288 
6 *118:27 *118:37 42.2915 
7 *118:37 *118:39 71.1786 
8 *118:39 *118:49 39.2593 
9 *118:49 *118:53 19.9554 
10 *118:53 *118:57 49.6339 
11 *118:57 *118:65 43.3921 
12 *118:65 *118:73 31.0336 
13 *118:73 *118:75 68.7143 
14 *118:75 *118:87 49.9018 
15 *118:87 *118:97 33.5635 
16 *118:97 *118:99 72 
17 *118:99 *118:105 19.4464 
18 *118:105 *118:107 62.9643 
19 *118:107 *118:113 21.5714 
20 *118:113 *118:115 136.071 
21 *118:115 *118:129 38.8116 
22 *118:129 *118:137 37.0618 
23 *118:137 *118:145 31.9896 
24 *118:145 *118:147 165.643 
25 *118:147 *118:153 8.49036 
26 *118:153 *118:155 55.178 
27 *118:155 *118:161 8.49036 
28 *118:161 *118:163 222.732 
29 *118:163 *118:177 43.848 
30 *118:177 *118:179 112.045 
31 *118:179 *118:185 48.6161 
32 *118:185 *118:187 164.821 
33 *118:187 *118:197 41.8929 
34 *118:197 *118:205 43.6799 
35 *118:205 *118:209 13.7265 
36 *118:209 *118:211 807.625 
37 *118:211 gpio_analog_en[36] 14.0861 
*END

*D_NET *119 0.90038
*CONN
*P gpio_analog_en[37] O
*I *921:gpio_analog_en[37] O *D CF_CARAVEL_SOC
*CAP
1 gpio_analog_en[37] 0.00428178
2 *921:gpio_analog_en[37] 0.00329382
3 *119:27 0.0146795
4 *119:25 0.0103978
5 *119:23 0.0405087
6 *119:21 0.0406126
7 *119:15 0.0174511
8 *119:13 0.0173473
9 *119:11 0.0295235
10 *119:9 0.0328173
11 gpio_analog_en[37] gpio_dm0[37] 0.00109382
12 gpio_analog_en[37] gpio_dm1[37] 0
13 *119:9 *334:6 0.000255549
14 *119:11 *442:11 0
15 *119:11 *445:19 0
16 *119:11 *483:19 0.0738291
17 *119:11 *572:28 0.010669
18 *119:11 *683:15 0.00171585
19 *119:15 *289:23 0.137442
20 *119:15 *336:15 0.0582453
21 *119:15 *481:15 0.000336042
22 *119:15 *547:13 0.0818472
23 *119:15 *571:27 0.000859752
24 *119:15 *749:27 8.71731e-05
25 *119:15 *838:11 0.0282858
26 *119:21 gpio_dm2[40] 0.000155893
27 *119:23 *167:19 0.00180525
28 *119:23 *207:39 0.00744756
29 *119:23 *207:49 0.00486555
30 *119:23 *208:29 0.0197094
31 *119:23 *336:55 0.00172207
32 *119:23 *336:63 0.012723
33 *119:23 *455:25 0.00444713
34 *119:23 *462:23 0.00772917
35 *119:23 *465:21 0.000368233
36 *119:23 *481:23 0.017715
37 *119:23 *739:130 0.0423817
38 *119:23 *749:27 0.0212556
39 *119:23 *838:11 0.0308675
40 *119:23 *841:11 0.0152005
41 *119:23 *868:11 6.67959e-05
42 *119:27 *207:51 0.000488675
43 *119:27 *289:33 3.89679e-05
44 *119:27 *294:27 0.0513308
45 *119:27 *339:27 0.0492949
46 *119:27 *446:25 0.00010693
47 *119:27 *544:17 0.000518377
48 *102:11 *119:11 0.000877671
49 *106:11 *119:11 0.000595945
50 *110:11 *119:11 0.00282799
51 *117:9 *119:9 0
52 *118:9 *119:9 0.00025924
*RES
1 *921:gpio_analog_en[37] *119:9 10.6981 
2 *119:9 *119:11 960.473 
3 *119:11 *119:13 4.5 
4 *119:13 *119:15 1331.66 
5 *119:15 *119:21 10.0082 
6 *119:21 *119:23 240.389 
7 *119:23 *119:25 3.41 
8 *119:25 *119:27 646.125 
9 *119:27 gpio_analog_en[37] 13.1868 
*END

*D_NET *120 0.593033
*CONN
*P gpio_analog_en[38] O
*I *921:gpio_analog_en[38] O *D CF_CARAVEL_SOC
*CAP
1 gpio_analog_en[38] 0.00297415
2 *921:gpio_analog_en[38] 0.0079123
3 *120:15 0.0932984
4 *120:13 0.0903242
5 *120:11 0.0324321
6 *120:9 0.0403444
7 gpio_analog_en[38] *251:15 0.000112254
8 gpio_analog_en[38] *384:15 0.00279966
9 gpio_analog_en[38] *428:23 0.000202298
10 gpio_analog_en[38] *692:35 0.000202805
11 gpio_analog_en[38] *736:43 7.01182e-05
12 gpio_analog_en[38] *855:11 0.000590306
13 *120:9 *121:9 9.34626e-05
14 *120:11 *229:11 0.0205431
15 *120:11 *281:11 0.0396954
16 *120:11 *305:11 0
17 *120:11 *397:177 0
18 *120:11 *482:11 0
19 *120:11 *529:13 0
20 *120:11 *749:31 0
21 *120:11 *815:53 0
22 *120:15 gpio_out[39] 0.000652167
23 *120:15 *251:15 0.0152795
24 *120:15 *692:35 0.0267982
25 *120:15 *695:75 0.112074
26 *120:15 *698:27 0.00222456
27 *120:15 *742:120 0.00992366
28 *120:15 *839:15 0.000160562
29 *120:15 *855:11 0.0931933
30 *120:15 *866:13 0.00100055
31 gpio_analog_en[0] *120:11 0.000131917
*RES
1 *921:gpio_analog_en[38] *120:9 20.0731 
2 *120:9 *120:11 989.161 
3 *120:11 *120:13 3.41 
4 *120:13 *120:15 366.686 
5 *120:15 gpio_analog_en[38] 12.755 
*END

*D_NET *121 0.652263
*CONN
*P gpio_analog_en[39] O
*I *921:gpio_analog_en[39] O *D CF_CARAVEL_SOC
*CAP
1 gpio_analog_en[39] 0.00218548
2 *921:gpio_analog_en[39] 0.000439451
3 *121:15 0.0311241
4 *121:13 0.0289386
5 *121:11 0.0135337
6 *121:9 0.0139731
7 gpio_analog_en[39] gpio_dm0[39] 0.000577215
8 *121:9 *123:9 0
9 *121:9 *334:6 0.000201414
10 *121:11 *123:11 0.0773522
11 *121:11 *126:11 0.000125789
12 *121:11 *164:15 0.00664063
13 *121:11 *164:23 0.00614416
14 *121:11 *209:11 0.00129786
15 *121:11 *345:11 0.0618322
16 *121:11 *846:11 0.000240316
17 *121:15 *165:15 0.0202737
18 *121:15 *256:15 0.118816
19 *121:15 *257:15 0.0917877
20 *121:15 *296:23 0.0123483
21 *121:15 *299:23 0.0125817
22 *121:15 *325:71 0.015924
23 *121:15 *338:19 0.0162286
24 *121:15 *431:15 0.0311573
25 *121:15 *432:15 0.0584984
26 *121:15 *771:27 0.00822031
27 *121:15 *842:11 0.0176719
28 *109:11 *121:11 0.00405466
29 *120:9 *121:9 9.34626e-05
*RES
1 *921:gpio_analog_en[39] *121:9 4.46593 
2 *121:9 *121:11 958.196 
3 *121:11 *121:13 3.41 
4 *121:13 *121:15 274.333 
5 *121:15 gpio_analog_en[39] 39.2582 
*END

*D_NET *122 0.0339379
*CONN
*P gpio_analog_en[3] O
*I *921:gpio_analog_en[3] O *D CF_CARAVEL_SOC
*CAP
1 gpio_analog_en[3] 0.0100941
2 *921:gpio_analog_en[3] 0.0100941
3 gpio_analog_en[3] gpio_dm0[3] 0.00394706
4 gpio_analog_en[3] gpio_inp_dis[3] 0
5 gpio_analog_en[3] *127:9 0
6 gpio_analog_en[3] *133:11 0
7 gpio_analog_en[3] *177:11 0.00588877
8 gpio_analog_en[3] *260:19 0.000915818
9 gpio_analog_en[3] *266:11 0.000217105
10 gpio_analog_en[3] *312:19 0.000754179
11 gpio_analog_en[3] *326:11 0.000660664
12 gpio_analog_en[3] *535:121 0.000658531
13 gpio_analog_en[2] gpio_analog_en[3] 0
14 *94:17 gpio_analog_en[3] 0.000707609
*RES
1 *921:gpio_analog_en[3] gpio_analog_en[3] 38.6507 
*END

*D_NET *123 0.565501
*CONN
*P gpio_analog_en[40] O
*I *921:gpio_analog_en[40] O *D CF_CARAVEL_SOC
*CAP
1 gpio_analog_en[40] 0.00290542
2 *921:gpio_analog_en[40] 0.000339499
3 *123:15 0.0264583
4 *123:13 0.0235529
5 *123:11 0.0130252
6 *123:9 0.0133647
7 gpio_analog_en[40] gpio_dm0[40] 0
8 gpio_analog_en[40] *921:gpio_in[43] 0
9 *123:9 *124:7 0
10 *123:11 *126:11 0.0778501
11 *123:11 *164:23 0.00614416
12 *123:11 *208:9 0.000918676
13 *123:15 *341:18 0.145717
14 *123:15 *344:15 0.00017235
15 *123:15 *346:15 0.0624965
16 *123:15 *408:23 0.0627404
17 *123:15 *442:15 0.0313785
18 *123:15 *531:24 0.00962174
19 *123:15 *840:19 0.0111869
20 *109:11 *123:11 0.000276215
21 *121:9 *123:9 0
22 *121:11 *123:11 0.0773522
*RES
1 *921:gpio_analog_en[40] *123:9 4.1808 
2 *123:9 *123:11 957.589 
3 *123:11 *123:13 3.41 
4 *123:13 *123:15 231.309 
5 *123:15 gpio_analog_en[40] 46.0796 
*END

*D_NET *124 0.473104
*CONN
*P gpio_analog_en[41] O
*I *921:gpio_analog_en[41] O *D CF_CARAVEL_SOC
*CAP
1 gpio_analog_en[41] 0.00100362
2 *921:gpio_analog_en[41] 0.000151238
3 *124:13 0.0195896
4 *124:11 0.018586
5 *124:9 0.0140742
6 *124:7 0.0142254
7 gpio_analog_en[41] gpio_dm0[41] 0
8 *124:7 *125:9 7.15037e-05
9 *124:9 *126:11 0.0794068
10 *124:9 *164:33 4.65158e-06
11 *124:9 *208:9 0.00906081
12 *124:9 *211:9 0.0786808
13 *124:9 *300:17 0
14 *124:9 *845:9 0.000868996
15 *124:9 *846:11 0.000459105
16 *124:13 *843:11 0.118836
17 *124:13 *849:11 0.000418905
18 *124:13 *862:11 0.117548
19 *124:13 *864:11 0.000118177
20 *123:9 *124:7 0
*RES
1 *921:gpio_analog_en[41] *124:7 3.82987 
2 *124:7 *124:9 990.071 
3 *124:9 *124:11 3.41 
4 *124:11 *124:13 188.429 
5 *124:13 gpio_analog_en[41] 18.2761 
*END

*D_NET *125 0.354049
*CONN
*P gpio_analog_en[42] O
*I *921:gpio_analog_en[42] O *D CF_CARAVEL_SOC
*CAP
1 gpio_analog_en[42] 0.00281092
2 *921:gpio_analog_en[42] 0.0027821
3 *125:17 0.00281092
4 *125:15 0.014433
5 *125:13 0.014433
6 *125:11 0.0238039
7 *125:9 0.026586
8 gpio_analog_en[42] gpio_dm0[42] 0.00116786
9 gpio_analog_en[42] *339:21 0.000628837
10 *125:9 *126:9 0
11 *125:9 *334:6 0.000255549
12 *125:11 *314:19 0.00103676
13 *125:11 *336:11 0.0577393
14 *125:11 *338:11 0.000467813
15 *125:11 *350:11 0.00208613
16 *125:11 *443:11 0
17 *125:11 *443:19 0.00473091
18 *125:11 *452:11 0.0133995
19 *125:11 *463:11 0
20 *125:11 *474:11 0
21 *125:15 *322:39 0.00605075
22 *125:15 *325:39 0.00675757
23 *125:15 *444:23 0.00955186
24 *125:15 *444:39 0.00901625
25 *125:15 *444:55 0.0183189
26 *125:15 *529:9 0.00358211
27 *125:15 *532:16 0.000742516
28 *125:15 *533:102 0.00270569
29 *125:15 *536:33 0.0015579
30 *125:15 *537:12 0.00280802
31 *125:15 *572:16 0.0911671
32 *125:15 *696:95 0.0001515
33 *125:15 *697:109 0.00218027
34 *125:15 *740:79 0.00426457
35 *125:15 *826:127 0.00156101
36 *95:11 *125:11 0.010239
37 *96:11 *125:11 0.00984066
38 *105:11 *125:11 0.000105594
39 *108:11 *125:11 0.00101364
40 *118:57 *125:15 0.00292704
41 *118:65 *125:15 0.000263104
42 *118:105 gpio_analog_en[42] 0
43 *124:7 *125:9 7.15037e-05
*RES
1 *921:gpio_analog_en[42] *125:9 9.61713 
2 *125:9 *125:11 960.17 
3 *125:11 *125:13 4.5 
4 *125:13 *125:15 857.286 
5 *125:15 *125:17 4.5 
6 *125:17 gpio_analog_en[42] 48.6786 
*END

*D_NET *126 0.32967
*CONN
*P gpio_analog_en[43] O
*I *921:gpio_analog_en[43] O *D CF_CARAVEL_SOC
*CAP
1 gpio_analog_en[43] 0.00179956
2 *921:gpio_analog_en[43] 0.00042359
3 *126:15 0.0163721
4 *126:13 0.0145726
5 *126:11 0.0136976
6 *126:9 0.0141212
7 gpio_analog_en[43] gpio_dm0[43] 0
8 gpio_analog_en[43] *845:17 0
9 *126:9 *334:6 0.000255549
10 *126:11 *164:23 0.00754046
11 *126:11 *208:9 0.00143966
12 *126:11 *211:9 0.000309756
13 *126:11 *846:11 0.000833292
14 *126:15 *168:15 0.0649344
15 *126:15 *249:15 0.0140319
16 *126:15 *343:15 0.0215469
17 *109:11 *126:11 0.000408964
18 *121:11 *126:11 0.000125789
19 *123:11 *126:11 0.0778501
20 *124:9 *126:11 0.0794068
21 *125:9 *126:9 0
*RES
1 *921:gpio_analog_en[43] *126:9 4.42833 
2 *126:9 *126:11 984.911 
3 *126:11 *126:13 3.41 
4 *126:13 *126:15 102.742 
5 *126:15 gpio_analog_en[43] 29.7582 
*END

*D_NET *127 0.0739602
*CONN
*P gpio_analog_en[4] O
*I *921:gpio_analog_en[4] O *D CF_CARAVEL_SOC
*CAP
1 gpio_analog_en[4] 0.00664705
2 *921:gpio_analog_en[4] 0.00105557
3 *127:13 0.0106105
4 *127:9 0.00501905
5 gpio_analog_en[4] gpio_dm0[4] 0.000374143
6 gpio_analog_en[4] gpio_dm1[4] 0.0030038
7 gpio_analog_en[4] *181:9 0.00113104
8 gpio_analog_en[4] *182:11 0.00103096
9 gpio_analog_en[4] *281:11 0.0001538
10 gpio_analog_en[4] *375:59 9.99706e-05
11 *127:9 *128:9 0
12 *127:13 *228:11 0.0220961
13 *127:13 *237:11 0.0220909
14 gpio_analog_en[3] *127:9 0
15 *94:17 gpio_analog_en[4] 0.000647261
*RES
1 *921:gpio_analog_en[4] *127:9 5.8023 
2 *127:9 *127:13 48.9467 
3 *127:13 gpio_analog_en[4] 28.2951 
*END

*D_NET *128 0.10515
*CONN
*P gpio_analog_en[5] O
*I *921:gpio_analog_en[5] O *D CF_CARAVEL_SOC
*CAP
1 gpio_analog_en[5] 0.00434121
2 *921:gpio_analog_en[5] 0.00436208
3 *128:11 0.0132433
4 *128:9 0.0132642
5 gpio_analog_en[5] gpio_dm0[5] 0.00258253
6 gpio_analog_en[5] gpio_inp_dis[5] 0
7 gpio_analog_en[5] *136:9 7.21482e-05
8 gpio_analog_en[5] *182:17 0
9 *128:9 *129:9 0
10 *128:11 *129:11 0.00845413
11 *128:11 *175:11 0.000325345
12 *128:11 *182:11 0.00421366
13 *128:11 *203:11 0.00942326
14 *128:11 *225:19 0.000466433
15 *128:11 *259:11 2.35536e-05
16 *128:11 *274:45 0.000521763
17 *128:11 *304:11 0.0386479
18 *128:11 *312:15 0.000229645
19 *128:11 *321:11 0.00337928
20 *112:11 *128:11 0.00159976
21 *127:9 *128:9 0
*RES
1 *921:gpio_analog_en[5] *128:9 13.3348 
2 *128:9 *128:11 80.5862 
3 *128:11 gpio_analog_en[5] 13.6192 
*END

*D_NET *129 0.141405
*CONN
*P gpio_analog_en[6] O
*I *921:gpio_analog_en[6] O *D CF_CARAVEL_SOC
*CAP
1 gpio_analog_en[6] 0.00459999
2 *921:gpio_analog_en[6] 0.00452262
3 *129:11 0.017873
4 *129:9 0.0177957
5 gpio_analog_en[6] gpio_dm0[6] 0.000784368
6 gpio_analog_en[6] gpio_inp_dis[6] 0
7 *129:9 *130:9 0
8 *129:9 *312:15 4.90966e-05
9 *129:11 gpio_analog_sel[4] 0.00015381
10 *129:11 *132:11 0.000113898
11 *129:11 *136:11 0.0173064
12 *129:11 *162:11 0.00110912
13 *129:11 *171:13 0.00734482
14 *129:11 *176:11 0.000483193
15 *129:11 *181:11 0
16 *129:11 *182:11 0.0176128
17 *129:11 *203:11 0.00953768
18 *129:11 *259:11 0.0219573
19 *129:11 *266:11 0.000514488
20 *129:11 *315:11 0.00673788
21 *129:11 *375:43 0.000116031
22 *129:11 *532:36 0.000285653
23 *129:11 *568:15 0.00405282
24 *128:9 *129:9 0
25 *128:11 *129:11 0.00845413
*RES
1 *921:gpio_analog_en[6] *129:9 13.7672 
2 *129:9 *129:11 115.316 
3 *129:11 gpio_analog_en[6] 12.9173 
*END

*D_NET *130 0.288115
*CONN
*P gpio_analog_en[7] O
*I *921:gpio_analog_en[7] O *D CF_CARAVEL_SOC
*CAP
1 gpio_analog_en[7] 0.00541957
2 *921:gpio_analog_en[7] 0.00381523
3 *130:11 0.0506158
4 *130:9 0.0490115
5 gpio_analog_en[7] gpio_analog_pol[7] 0
6 gpio_analog_en[7] gpio_dm0[7] 0
7 gpio_analog_en[7] gpio_dm1[7] 0
8 *130:9 *131:9 0
9 *130:11 *134:11 0.0857226
10 *130:11 *141:15 0.012063
11 *130:11 *144:11 0
12 *130:11 *155:11 0
13 *130:11 *179:11 0.00974952
14 *130:11 *180:11 0
15 *130:11 *216:13 0.0224249
16 *130:11 *223:19 0.0156325
17 *130:11 *246:11 0.00155667
18 *130:11 *246:21 0.000656663
19 *130:11 *270:19 0.014257
20 *130:11 *321:21 0.000474114
21 *130:11 *342:11 0.00576699
22 *130:11 *530:113 0.00168965
23 *130:11 *567:18 0.00200257
24 *93:11 *130:11 0.00157691
25 *103:11 *130:11 0.00568022
26 *129:9 *130:9 0
*RES
1 *921:gpio_analog_en[7] *130:9 12.0376 
2 *130:9 *130:11 252.744 
3 *130:11 gpio_analog_en[7] 15.2673 
*END

*D_NET *131 0.309847
*CONN
*P gpio_analog_en[8] O
*I *921:gpio_analog_en[8] O *D CF_CARAVEL_SOC
*CAP
1 gpio_analog_en[8] 0.00432791
2 *921:gpio_analog_en[8] 0.0042548
3 *131:11 0.0430339
4 *131:9 0.0429608
5 gpio_analog_en[8] gpio_analog_pol[8] 0
6 gpio_analog_en[8] gpio_dm0[8] 0.00104872
7 gpio_analog_en[8] gpio_dm1[8] 0
8 *131:9 *132:9 0
9 *131:11 *175:11 0.0202788
10 *131:11 *188:11 0.00268532
11 *131:11 *225:19 0
12 *131:11 *304:11 0.00302855
13 *131:11 *310:11 0.133857
14 *131:11 *349:11 0.0543713
15 *130:9 *131:9 0
*RES
1 *921:gpio_analog_en[8] *131:9 13.0826 
2 *131:9 *131:11 1639.41 
3 *131:11 gpio_analog_en[8] 13.9403 
*END

*D_NET *132 0.343136
*CONN
*P gpio_analog_en[9] O
*I *921:gpio_analog_en[9] O *D CF_CARAVEL_SOC
*CAP
1 gpio_analog_en[9] 0.00291972
2 *921:gpio_analog_en[9] 0.00474325
3 *132:11 0.0477238
4 *132:9 0.0495473
5 gpio_analog_en[9] gpio_analog_pol[9] 0.00346514
6 gpio_analog_en[9] gpio_dm0[9] 0.00224973
7 gpio_analog_en[9] gpio_inp_dis[9] 0
8 *132:11 gpio_analog_sel[4] 0.000494439
9 *132:11 *171:13 0.0021549
10 *132:11 *176:11 0.026617
11 *132:11 *177:11 0.00277373
12 *132:11 *259:11 0.000171395
13 *132:11 *266:11 0.150161
14 *132:11 *312:19 0
15 *132:11 *327:31 0.00482594
16 *132:11 *337:35 0.00436773
17 *132:11 *375:43 0.00194925
18 *132:11 *568:15 0.0362805
19 *132:11 *782:31 0.00257719
20 *129:11 *132:11 0.000113898
21 *131:9 *132:9 0
*RES
1 *921:gpio_analog_en[9] *132:9 14.0915 
2 *132:9 *132:11 1838.55 
3 *132:11 gpio_analog_en[9] 12.6698 
*END

*D_NET *133 0.227957
*CONN
*P gpio_analog_pol[0] O
*I *921:gpio_analog_pol[0] O *D CF_CARAVEL_SOC
*CAP
1 gpio_analog_pol[0] 0.00368659
2 *921:gpio_analog_pol[0] 0.00547804
3 *133:11 0.02506
4 *133:9 0.0268515
5 gpio_analog_pol[0] gpio_inp_dis[0] 0.00201752
6 gpio_analog_pol[0] *241:9 0
7 *133:9 *144:9 0
8 *133:11 *166:11 0.00688811
9 *133:11 *177:11 0
10 *133:11 *181:11 0.0128207
11 *133:11 *222:17 0.00107156
12 *133:11 *288:11 0.00467772
13 *133:11 *298:11 0.000253672
14 *133:11 *303:11 0.0590213
15 *133:11 *307:11 0.00429084
16 *133:11 *435:27 0.0128483
17 *133:11 *481:11 0.011382
18 *133:11 *771:31 0.00156551
19 gpio_analog_en[0] gpio_analog_pol[0] 0.000358414
20 gpio_analog_en[3] *133:11 0
21 *89:11 *133:11 0.0438483
22 *94:17 *133:11 0.00222583
23 *100:11 *133:11 0
24 *104:11 *133:11 0.00247964
25 *113:11 *133:11 0.00113146
*RES
1 *921:gpio_analog_pol[0] *133:9 15.0644 
2 *133:9 *133:11 164.534 
3 *133:11 gpio_analog_pol[0] 12.474 
*END

*D_NET *134 0.353049
*CONN
*P gpio_analog_pol[10] O
*I *921:gpio_analog_pol[10] O *D CF_CARAVEL_SOC
*CAP
1 gpio_analog_pol[10] 0.00424918
2 *921:gpio_analog_pol[10] 0.00382226
3 *134:11 0.0388604
4 *134:9 0.0384334
5 gpio_analog_pol[10] gpio_dm0[10] 0.00294877
6 gpio_analog_pol[10] gpio_inp_dis[10] 0
7 gpio_analog_pol[10] *268:11 0
8 gpio_analog_pol[10] *311:11 0
9 *134:9 gpio_slow_sel[5] 0.000618343
10 *134:9 *135:9 0
11 *134:9 *176:9 0
12 *134:11 *138:11 0.0266112
13 *134:11 *179:11 0.138043
14 *134:11 *180:11 0
15 *134:11 *223:19 0.00673573
16 *134:11 *270:19 0.00673573
17 gpio_analog_en[10] gpio_analog_pol[10] 0.000268011
18 *130:11 *134:11 0.0857226
*RES
1 *921:gpio_analog_pol[10] *134:9 11.8935 
2 *134:9 *134:11 282.36 
3 *134:11 gpio_analog_pol[10] 23.8175 
*END

*D_NET *135 0.411393
*CONN
*P gpio_analog_pol[11] O
*I *921:gpio_analog_pol[11] O *D CF_CARAVEL_SOC
*CAP
1 gpio_analog_pol[11] 0.00407147
2 *921:gpio_analog_pol[11] 0.00442814
3 *135:11 0.0414651
4 *135:9 0.0418218
5 gpio_analog_pol[11] gpio_dm0[11] 0
6 gpio_analog_pol[11] gpio_inp_dis[11] 0.00113238
7 *135:9 gpio_slow_sel[5] 0
8 *135:9 *136:9 0
9 *135:11 *136:11 0
10 *135:11 *175:11 0.103264
11 *135:11 *180:11 0.155046
12 *135:11 *225:19 0.006151
13 *135:11 *310:11 0.0307938
14 *135:11 *484:11 0.0232185
15 *134:9 *135:9 0
*RES
1 *921:gpio_analog_pol[11] *135:9 12.9024 
2 *135:9 *135:11 317.09 
3 *135:11 gpio_analog_pol[11] 13.8761 
*END

*D_NET *136 0.33727
*CONN
*P gpio_analog_pol[12] O
*I *921:gpio_analog_pol[12] O *D CF_CARAVEL_SOC
*CAP
1 gpio_analog_pol[12] 0.0032698
2 *921:gpio_analog_pol[12] 0.00489049
3 *136:11 0.0809586
4 *136:9 0.0825793
5 gpio_analog_pol[12] gpio_dm0[12] 0.00309531
6 gpio_analog_pol[12] gpio_inp_dis[12] 0.0002641
7 *136:9 *137:9 0
8 *136:9 *182:17 3.66987e-05
9 *136:11 *141:29 1.08578e-05
10 *136:11 *175:11 0
11 *136:11 *176:11 0.0664321
12 *136:11 *180:11 0
13 *136:11 *181:11 0
14 *136:11 *182:19 0.0061434
15 *136:11 *203:11 0.00251912
16 *136:11 *266:11 0.0301956
17 *136:11 *312:19 0.0061434
18 *136:11 *532:36 0.0327556
19 gpio_analog_en[12] gpio_analog_pol[12] 0.000596756
20 gpio_analog_en[5] *136:9 7.21482e-05
21 *129:11 *136:11 0.0173064
22 *135:9 *136:9 0
23 *135:11 *136:11 0
*RES
1 *921:gpio_analog_pol[12] *136:9 13.9114 
2 *136:9 *136:11 350.861 
3 *136:11 gpio_analog_pol[12] 22.9889 
*END

*D_NET *137 0.477273
*CONN
*P gpio_analog_pol[13] O
*I *921:gpio_analog_pol[13] O *D CF_CARAVEL_SOC
*CAP
1 gpio_analog_pol[13] 0.00242779
2 *921:gpio_analog_pol[13] 0.00536474
3 *137:11 0.0638775
4 *137:9 0.0668144
5 gpio_analog_pol[13] gpio_dm0[13] 0.00487826
6 gpio_analog_pol[13] gpio_inp_dis[13] 0.000446859
7 *137:9 gpio_inp_dis[5] 0.000180777
8 *137:9 *138:9 0
9 *137:9 *182:17 6.13442e-05
10 *137:11 *174:11 0.0851227
11 *137:11 *181:11 0.205719
12 *137:11 *224:19 0.0181568
13 *137:11 *321:63 0.00123603
14 *137:11 *327:39 0.00107541
15 *137:11 *481:11 0.00269634
16 *94:19 *137:11 0.0192155
17 *136:9 *137:9 0
*RES
1 *921:gpio_analog_pol[13] *137:9 15.0644 
2 *137:9 *137:11 420.428 
3 *137:11 gpio_analog_pol[13] 11.7956 
*END

*D_NET *138 0.433239
*CONN
*P gpio_analog_pol[14] O
*I *921:gpio_analog_pol[14] O *D CF_CARAVEL_SOC
*CAP
1 gpio_analog_pol[14] 0.00308796
2 *921:gpio_analog_pol[14] 0.00399322
3 *138:18 0
4 *138:11 0.0965851
5 *138:9 0.0974904
6 gpio_analog_pol[14] gpio_dm0[14] 0
7 gpio_analog_pol[14] gpio_inp_dis[14] 0.00694864
8 *138:9 *139:9 0
9 *138:11 gpio_inp_dis[13] 0
10 *138:11 *179:11 0.0036155
11 *138:11 *223:19 0
12 *138:11 *270:19 0
13 *138:11 *832:49 3.05098e-05
14 *93:11 *138:11 0.194876
15 *134:11 *138:11 0.0266112
16 *137:9 *138:9 0
*RES
1 *921:gpio_analog_pol[14] *138:9 11.9295 
2 *138:9 *138:11 2791.16 
3 *138:11 gpio_analog_pol[14] 14.5662 
4 gpio_analog_pol[14] *138:18 0.0687805 
*END

*D_NET *139 0.397646
*CONN
*P gpio_analog_pol[15] O
*I *921:gpio_analog_pol[15] O *D CF_CARAVEL_SOC
*CAP
1 gpio_analog_pol[15] 8.66671e-05
2 *921:gpio_analog_pol[15] 0.00460982
3 *139:19 0.116042
4 *139:17 0.120615
5 *139:11 0.00838102
6 *139:9 0.00833115
7 gpio_analog_pol[15] gpio_dm0[15] 0
8 gpio_analog_pol[15] gpio_inp_dis[15] 0
9 *139:9 gpio_analog_sel[5] 0.000870032
10 *139:9 *140:17 0
11 *139:9 *194:33 0
12 *139:11 *162:11 0.0124078
13 *139:11 *203:11 0.00440076
14 *139:11 *225:19 5.67492e-05
15 *139:11 *315:11 0.00468529
16 *139:11 *532:36 0
17 *139:17 *183:17 0.00080953
18 *139:17 *683:11 0
19 *139:17 *700:6 0.000391968
20 *139:17 *701:11 0.0100326
21 *139:17 *744:11 0.000147446
22 *139:19 *140:113 0
23 *139:19 *227:19 0
24 *139:19 *274:145 0.00327373
25 *139:19 *536:161 0.021381
26 *139:19 *537:126 0.0460934
27 *139:19 *538:155 0.00378253
28 *95:17 *139:17 0.0104418
29 *112:11 *139:11 0.0208068
30 *138:9 *139:9 0
*RES
1 *921:gpio_analog_pol[15] *139:9 13.5871 
2 *139:9 *139:11 257.554 
3 *139:11 *139:17 29.1356 
4 *139:17 *139:19 2691.59 
5 *139:19 gpio_analog_pol[15] 1.60714 
*END

*D_NET *140 0.41106
*CONN
*P gpio_analog_pol[16] O
*I *921:gpio_analog_pol[16] O *D CF_CARAVEL_SOC
*CAP
1 gpio_analog_pol[16] 0.000755033
2 *921:gpio_analog_pol[16] 0.000990803
3 *140:385 0.00760719
4 *140:375 0.00974675
5 *140:367 0.00641191
6 *140:355 0.00572159
7 *140:347 0.0087515
8 *140:345 0.0075361
9 *140:339 0.00822739
10 *140:337 0.00759255
11 *140:331 0.0056362
12 *140:329 0.00606543
13 *140:323 0.00399347
14 *140:321 0.0037425
15 *140:315 0.00304507
16 *140:313 0.00251276
17 *140:311 0.00301823
18 *140:305 0.00449479
19 *140:297 0.00318507
20 *140:283 0.0143626
21 *140:281 0.0151098
22 *140:267 0.0273383
23 *140:265 0.0252275
24 *140:259 0.00433743
25 *140:257 0.00482316
26 *140:249 0.00319568
27 *140:235 0.00519593
28 *140:229 0.00429632
29 *140:221 0.00347302
30 *140:213 0.00417629
31 *140:199 0.006129
32 *140:197 0.00434369
33 *140:191 0.00403647
34 *140:189 0.00489798
35 *140:181 0.00266525
36 *140:173 0.00401297
37 *140:159 0.0052359
38 *140:149 0.00486682
39 *140:131 0.00619526
40 *140:129 0.00580644
41 *140:115 0.0043012
42 *140:113 0.00514835
43 *140:95 0.0140249
44 *140:93 0.0122031
45 *140:83 0.00418579
46 *140:75 0.00606108
47 *140:73 0.00351266
48 *140:65 0.00325411
49 *140:55 0.00385871
50 *140:43 0.00218191
51 *140:41 0.00114649
52 *140:33 0.00250632
53 *140:27 0.00293383
54 *140:25 0.00150746
55 *140:17 0.00172419
56 gpio_analog_pol[16] gpio_dm0[16] 0
57 gpio_analog_pol[16] gpio_inp_dis[16] 0
58 *140:17 *141:9 0
59 *140:17 *194:33 4.98422e-05
60 *140:17 *204:9 0.00258953
61 *140:17 *204:15 1.02504e-05
62 *140:17 *327:25 0.00187818
63 *140:25 *204:15 0.000543226
64 *140:25 *204:17 0.00107438
65 *140:25 *787:49 6.05161e-06
66 *140:27 *142:11 2.00842e-05
67 *140:27 *149:33 0.000369016
68 *140:27 *149:35 4.47395e-05
69 *140:27 *164:15 0.00342068
70 *140:27 *167:13 0.00258307
71 *140:27 *167:15 0.000788186
72 *140:27 *193:33 0.000632765
73 *140:41 *392:47 9.28668e-05
74 *140:41 *572:28 0.000119924
75 *140:41 *672:15 0.0011625
76 *140:41 *683:15 0.00116078
77 *140:43 *226:11 0.0011328
78 *140:55 *570:26 0.00152365
79 *140:55 *661:19 0.00152194
80 *140:65 *279:11 0.0006039
81 *140:65 *316:11 0.00250412
82 *140:65 *319:11 0.00250583
83 *140:65 *789:23 0.00142713
84 *140:65 *831:41 0
85 *140:73 *195:15 0
86 *140:73 *242:25 6.87975e-06
87 *140:73 *326:19 0.000666316
88 *140:73 *329:58 0
89 *140:73 *437:31 0.000740613
90 *140:75 *157:39 0.000251371
91 *140:75 *195:29 0
92 *140:75 *753:19 0.000584677
93 *140:83 *143:15 0.00096244
94 *140:83 *316:15 0
95 *140:93 *189:15 0.000205827
96 *140:93 *319:15 0.0002192
97 *140:113 *191:15 0.000217818
98 *140:113 *234:15 0.000215245
99 *140:113 *279:15 0.000550468
100 *140:113 *537:126 0
101 *140:129 *403:19 0
102 *140:129 *799:19 0.00102035
103 *140:131 *667:15 0
104 *140:149 *157:43 0
105 *140:173 *790:15 0.00157543
106 *140:181 *702:13 0.000775243
107 *140:181 *834:15 0
108 *140:189 *323:15 0.000223428
109 *140:213 *747:11 0
110 *140:229 *154:13 0.000182605
111 *140:229 *198:31 0
112 *140:249 *537:142 0
113 *140:257 *537:142 0
114 *140:265 *197:15 0
115 *140:281 *752:15 0.00107958
116 *140:329 *235:15 0
117 *140:329 *665:11 0.000440876
118 *140:355 *402:15 0.000146889
119 *140:367 *318:15 0.00102628
120 *140:375 *536:225 0
121 *92:11 *140:55 0.000301041
122 *95:19 *140:95 0.0301984
123 *105:31 *140:355 0.000149462
124 *106:11 *140:43 0.00522431
125 *109:21 *140:17 0.000135968
126 *110:11 *140:43 0.00522431
127 *113:23 *140:149 0.000988073
128 *116:27 *140:17 0.000126926
129 *116:27 *140:25 0.0020933
130 *117:35 *140:73 0.000451218
131 *139:9 *140:17 0
132 *139:19 *140:113 0
*RES
1 *921:gpio_analog_pol[16] *140:17 42.7127 
2 *140:17 *140:25 39.2946 
3 *140:25 *140:27 50.5179 
4 *140:27 *140:33 41.1607 
5 *140:33 *140:41 25.9821 
6 *140:41 *140:43 63.875 
7 *140:43 *140:55 49.6429 
8 *140:55 *140:65 47.0456 
9 *140:65 *140:73 28.8304 
10 *140:73 *140:75 50.0625 
11 *140:75 *140:83 48.3626 
12 *140:83 *140:93 10.2385 
13 *140:93 *140:95 369.268 
14 *140:95 *140:113 39.3533 
15 *140:113 *140:115 48.6964 
16 *140:115 *140:129 46.9853 
17 *140:129 *140:131 80.2679 
18 *140:131 *140:149 47.9898 
19 *140:149 *140:159 47.3708 
20 *140:159 *140:173 48.6122 
21 *140:173 *140:181 31.8236 
22 *140:181 *140:189 27.5736 
23 *140:189 *140:191 73.5893 
24 *140:191 *140:197 7.948 
25 *140:197 *140:199 80.875 
26 *140:199 *140:213 35.5739 
27 *140:213 *140:221 39.3976 
28 *140:221 *140:229 32.8217 
29 *140:229 *140:235 48.8511 
30 *140:235 *140:249 49.0768 
31 *140:249 *140:257 15.256 
32 *140:257 *140:259 80.2679 
33 *140:259 *140:265 7.948 
34 *140:265 *140:267 504.661 
35 *140:267 *140:281 49.2806 
36 *140:281 *140:283 257.554 
37 *140:283 *140:297 35.5937 
38 *140:297 *140:305 31.6074 
39 *140:305 *140:311 48.8511 
40 *140:311 *140:313 3.41 
41 *140:313 *140:315 49.9107 
42 *140:315 *140:321 7.948 
43 *140:321 *140:323 65.0893 
44 *140:323 *140:329 10.11 
45 *140:329 *140:331 107.589 
46 *140:331 *140:337 7.948 
47 *140:337 *140:339 148.268 
48 *140:339 *140:345 10.11 
49 *140:345 *140:347 132.482 
50 *140:347 *140:355 48.1444 
51 *140:355 *140:367 48.8776 
52 *140:367 *140:375 47.2707 
53 *140:375 *140:385 43.1648 
54 *140:385 gpio_analog_pol[16] 14.6339 
*END

*D_NET *141 0.648643
*CONN
*P gpio_analog_pol[17] O
*I *921:gpio_analog_pol[17] O *D CF_CARAVEL_SOC
*CAP
1 gpio_analog_pol[17] 0.000622716
2 *921:gpio_analog_pol[17] 0.00303471
3 *141:31 0.138715
4 *141:29 0.187587
5 *141:15 0.0568172
6 *141:9 0.0103574
7 gpio_analog_pol[17] gpio_dm0[17] 0
8 gpio_analog_pol[17] gpio_inp_dis[17] 0
9 *141:9 gpio_out[5] 0.00067694
10 *141:9 *194:33 0
11 *141:9 *831:81 0.00412473
12 *141:15 *180:11 0.00852347
13 *141:15 *205:53 0.00063243
14 *141:15 *223:19 0.00433551
15 *141:15 *246:11 0.00386777
16 *141:15 *270:19 0.00386777
17 *141:15 *788:19 0.000580804
18 *141:29 gpio_dm0[17] 0.000295675
19 *141:29 *175:11 0.000147646
20 *141:29 *203:11 0.000165782
21 *141:29 *203:15 0.0186452
22 *141:29 *205:53 0.0108835
23 *141:29 *227:17 0.0013317
24 *141:29 *228:25 0.0145298
25 *141:29 *230:25 4.58851e-05
26 *141:29 *286:35 0.00636679
27 *141:29 *328:59 0.00032473
28 *141:29 *391:15 0.0076774
29 *141:29 *689:11 0.0127329
30 *141:29 *691:11 0.0148962
31 *141:29 *745:11 0.0187746
32 *141:29 *831:31 0.00256216
33 *141:29 *832:39 0.0122214
34 *141:31 gpio_dm0[17] 0.0565672
35 *103:11 *141:15 0.00419061
36 *114:23 *141:29 0.0184242
37 *115:11 *141:15 0.00387371
38 *117:39 *141:29 0.00816868
39 *130:11 *141:15 0.012063
40 *136:11 *141:29 1.08578e-05
41 *140:17 *141:9 0
*RES
1 *921:gpio_analog_pol[17] *141:9 12.3259 
2 *141:9 *141:15 49.2569 
3 *141:15 *141:29 30.4445 
4 *141:29 *141:31 459.491 
5 *141:31 gpio_analog_pol[17] 17.9662 
*END

*D_NET *142 0.572565
*CONN
*P gpio_analog_pol[18] O
*I *921:gpio_analog_pol[18] O *D CF_CARAVEL_SOC
*CAP
1 gpio_analog_pol[18] 0.132154
2 *921:gpio_analog_pol[18] 0.000614839
3 *142:17 0.132154
4 *142:15 0.026442
5 *142:13 0.026442
6 *142:11 0.00383661
7 *142:9 0.00445145
8 gpio_analog_pol[18] gpio_dm0[18] 0
9 gpio_analog_pol[18] gpio_inp_dis[18] 0
10 *142:9 *143:9 0
11 *142:9 *334:6 0.000255549
12 *142:11 *143:11 0.0200371
13 *142:11 *149:35 0
14 *142:11 *156:11 0.00247238
15 *142:11 *164:15 0.00766434
16 *142:11 *193:9 0
17 *142:11 *193:33 0.0124444
18 *142:11 *321:37 0.000750594
19 *142:15 *184:15 0.057656
20 *142:15 *227:17 0.00129052
21 *142:15 *689:11 0.00694556
22 *98:15 *142:15 0.122412
23 *99:15 *142:15 0.000342046
24 *114:23 *142:15 0.014067
25 *116:27 *142:9 0.000111764
26 *140:27 *142:11 2.00842e-05
*RES
1 *921:gpio_analog_pol[18] *142:9 4.64453 
2 *142:9 *142:11 252.545 
3 *142:11 *142:13 4.5 
4 *142:13 *142:15 1155.05 
5 *142:15 *142:17 4.5 
6 *142:17 gpio_analog_pol[18] 2680.75 
*END

*D_NET *143 0.550023
*CONN
*P gpio_analog_pol[19] O
*I *921:gpio_analog_pol[19] O *D CF_CARAVEL_SOC
*CAP
1 gpio_analog_pol[19] 0.129841
2 *921:gpio_analog_pol[19] 0.000559858
3 *143:17 0.129841
4 *143:15 0.0720229
5 *143:13 0.0720229
6 *143:11 0.00509359
7 *143:9 0.00565345
8 gpio_analog_pol[19] gpio_dm0[19] 0
9 gpio_analog_pol[19] gpio_inp_dis[19] 0
10 gpio_analog_pol[19] *759:19 0
11 *143:9 *145:9 5.56803e-05
12 *143:9 *334:6 0.000255549
13 *143:11 *145:11 0.0231601
14 *143:11 *149:33 0.000107789
15 *143:11 *149:35 0
16 *143:11 *156:11 0.00237595
17 *143:11 *193:9 9.4069e-05
18 *143:11 *321:37 0.000519366
19 *143:15 *145:15 0
20 *143:15 *185:15 0.0873078
21 *143:15 *316:15 0
22 *116:27 *143:9 0.000111764
23 *140:83 *143:15 0.00096244
24 *142:9 *143:9 0
25 *142:11 *143:11 0.0200371
*RES
1 *921:gpio_analog_pol[19] *143:9 4.57247 
2 *143:9 *143:11 289.732 
3 *143:11 *143:13 3.41 
4 *143:13 *143:15 282.404 
5 *143:15 *143:17 3.41 
6 *143:17 gpio_analog_pol[19] 2638.71 
*END

*D_NET *144 0.136806
*CONN
*P gpio_analog_pol[1] O
*I *921:gpio_analog_pol[1] O *D CF_CARAVEL_SOC
*CAP
1 gpio_analog_pol[1] 0.00380461
2 *921:gpio_analog_pol[1] 0.00371656
3 *144:19 0.00815632
4 *144:17 0.00467062
5 *144:11 0.0209273
6 *144:9 0.0243249
7 gpio_analog_pol[1] gpio_dm0[1] 0
8 gpio_analog_pol[1] gpio_inp_dis[1] 0.00653952
9 *144:9 *155:9 0
10 *144:11 gpio_dm2[2] 3.81206e-05
11 *144:11 *170:11 0.00127083
12 *144:11 *179:11 0.00541775
13 *144:11 *207:19 0.00422141
14 *144:11 *247:11 0.00549224
15 *144:11 *254:11 0.00610337
16 *144:11 *308:11 0.00161691
17 *144:11 *342:11 0.000203894
18 *144:11 *430:27 0.00185118
19 *144:11 *530:113 0.00123018
20 *144:11 *562:123 0.00181937
21 *144:17 gpio_dm2[2] 0.000354094
22 *144:17 *326:9 0
23 *144:19 *223:19 0.00159593
24 *144:19 *246:11 0.00381062
25 *144:19 *254:11 0.00106527
26 *144:19 *270:19 0.00363068
27 *144:19 *342:11 0.00105605
28 *144:19 *567:18 0.00699984
29 *90:11 *144:11 0.0126361
30 *98:11 *144:11 0.00425235
31 *130:11 *144:11 0
32 *133:9 *144:9 0
*RES
1 *921:gpio_analog_pol[1] *144:9 11.317 
2 *144:9 *144:11 92.8375 
3 *144:11 *144:17 7.69577 
4 *144:17 *144:19 216.268 
5 *144:19 gpio_analog_pol[1] 14.5153 
*END

*D_NET *145 0.520167
*CONN
*P gpio_analog_pol[20] O
*I *921:gpio_analog_pol[20] O *D CF_CARAVEL_SOC
*CAP
1 gpio_analog_pol[20] 0.000112372
2 *921:gpio_analog_pol[20] 0.000295616
3 *145:19 0.1296
4 *145:17 0.129487
5 *145:15 0.10094
6 *145:13 0.10094
7 *145:11 0.00457988
8 *145:9 0.0048755
9 gpio_analog_pol[20] gpio_dm0[20] 0
10 gpio_analog_pol[20] gpio_inp_dis[20] 0
11 gpio_analog_pol[20] *541:135 0
12 *145:9 *193:19 0.000116148
13 *145:9 *334:30 0.000131947
14 *145:11 *146:13 0.000662328
15 *145:11 *147:11 1.84531e-05
16 *145:11 *147:13 0.0203417
17 *145:11 *148:9 0.000137276
18 *145:11 *149:25 0.00174787
19 *145:11 *149:35 0
20 *145:11 *156:11 0.00237595
21 *145:11 *193:9 2.69575e-05
22 *145:11 *204:9 0
23 *145:11 *334:30 0.000561723
24 *145:15 *185:15 0
25 *145:15 *330:25 0
26 *145:19 gpio_dm0[20] 0
27 *145:19 *233:19 0
28 *145:19 *541:135 0
29 *143:9 *145:9 5.56803e-05
30 *143:11 *145:11 0.0231601
31 *143:15 *145:15 0
*RES
1 *921:gpio_analog_pol[20] *145:9 4.1808 
2 *145:9 *145:11 292.768 
3 *145:11 *145:13 3.41 
4 *145:13 *145:15 322.689 
5 *145:15 *145:17 3.41 
6 *145:17 *145:19 2631.48 
7 *145:19 gpio_analog_pol[20] 1.60714 
*END

*D_NET *146 0.594717
*CONN
*P gpio_analog_pol[21] O
*I *921:gpio_analog_pol[21] O *D CF_CARAVEL_SOC
*CAP
1 gpio_analog_pol[21] 0.000112372
2 *921:gpio_analog_pol[21] 0.000810094
3 *146:25 0.0799615
4 *146:23 0.0798491
5 *146:21 0.113017
6 *146:19 0.113017
7 *146:17 0.00900286
8 *146:15 0.00900286
9 *146:13 0.000810094
10 gpio_analog_pol[21] gpio_dm0[21] 0
11 gpio_analog_pol[21] gpio_inp_dis[21] 0
12 gpio_analog_pol[21] *542:55 0
13 *146:13 *147:11 0.00253085
14 *146:13 *148:9 0.000111243
15 *146:13 *149:25 0.00174959
16 *146:13 *204:9 0.000213953
17 *146:13 *334:30 0.00021226
18 *146:17 *147:13 0.0485813
19 *146:17 *148:9 0.00264361
20 *146:17 *149:35 0
21 *146:17 *151:9 7.23173e-05
22 *146:17 *154:9 0.0508958
23 *146:21 *538:233 0.00297897
24 *146:25 gpio_dm0[21] 0
25 *146:25 *234:19 0
26 *146:25 *542:55 0
27 *146:25 *670:7 0.0711222
28 *109:27 *146:17 0.00736034
29 *145:11 *146:13 0.000662328
*RES
1 *921:gpio_analog_pol[21] *146:13 45.7674 
2 *146:13 *146:15 4.5 
3 *146:15 *146:17 627.455 
4 *146:17 *146:19 3.41 
5 *146:19 *146:21 362.831 
6 *146:21 *146:23 3.41 
7 *146:23 *146:25 2255.66 
8 *146:25 gpio_analog_pol[21] 1.60714 
*END

*D_NET *147 0.911664
*CONN
*P gpio_analog_pol[22] O
*I *921:gpio_analog_pol[22] O *D CF_CARAVEL_SOC
*CAP
1 gpio_analog_pol[22] 0.112584
2 *921:gpio_analog_pol[22] 0.000728814
3 *147:19 0.112584
4 *147:17 0.0315955
5 *147:15 0.0315955
6 *147:13 0.0144072
7 *147:11 0.015136
8 gpio_analog_pol[22] gpio_dm0[22] 0
9 gpio_analog_pol[22] gpio_inp_dis[22] 0
10 gpio_analog_pol[22] *543:47 0
11 gpio_analog_pol[22] *709:7 0
12 *147:11 *148:9 0
13 *147:11 *151:9 0.00101486
14 *147:11 *204:9 0.000799713
15 *147:11 *204:15 0.000428587
16 *147:11 *329:50 5.51691e-06
17 *147:13 *148:9 0.00014854
18 *147:13 *149:35 0
19 *147:13 *151:9 8.42484e-06
20 *147:13 *156:11 0.00970416
21 *147:17 *679:13 0.0154054
22 *147:17 *720:9 0
23 *102:23 *147:17 0.23398
24 *103:15 *147:17 0.260066
25 *145:11 *147:11 1.84531e-05
26 *145:11 *147:13 0.0203417
27 *146:13 *147:11 0.00253085
28 *146:17 *147:13 0.0485813
*RES
1 *921:gpio_analog_pol[22] *147:11 36.7042 
2 *147:11 *147:13 597.554 
3 *147:13 *147:15 3.41 
4 *147:15 *147:17 403.188 
5 *147:17 *147:19 3.41 
6 *147:19 gpio_analog_pol[22] 2287.17 
*END

*D_NET *148 0.797987
*CONN
*P gpio_analog_pol[23] O
*I *921:gpio_analog_pol[23] O *D CF_CARAVEL_SOC
*CAP
1 gpio_analog_pol[23] 0.0021993
2 *921:gpio_analog_pol[23] 0.00751602
3 *148:17 0.130815
4 *148:15 0.128616
5 *148:13 0.0855503
6 *148:11 0.0855503
7 *148:9 0.00751602
8 gpio_analog_pol[23] gpio_dm0[23] 0
9 gpio_analog_pol[23] gpio_inp_dis[23] 0
10 *148:9 *149:33 0.000151756
11 *148:9 *150:19 0.00152122
12 *148:9 *154:9 0.00222125
13 *148:9 *156:11 0.0100419
14 *148:9 *164:15 0.000129086
15 *148:9 *193:31 0
16 *148:9 *205:23 9.90517e-05
17 *148:9 *321:37 5.28985e-05
18 *148:9 *327:29 3.4734e-05
19 *148:9 *329:50 3.96418e-07
20 *148:9 *334:30 0.00137669
21 *148:13 *230:25 0.00774003
22 *148:13 *290:15 0.286844
23 *148:13 *330:23 0
24 *148:13 *361:33 0.0155427
25 *148:13 *394:15 0
26 *148:13 *440:23 0
27 *148:13 *730:19 0
28 *148:17 *236:19 0
29 *148:17 *539:255 0
30 *148:17 *544:33 0
31 *109:23 *148:9 0.0214277
32 *145:11 *148:9 0.000137276
33 *146:13 *148:9 0.000111243
34 *146:17 *148:9 0.00264361
35 *147:11 *148:9 0
36 *147:13 *148:9 0.00014854
*RES
1 *921:gpio_analog_pol[23] *148:9 48.4595 
2 *148:9 *148:11 3.41 
3 *148:11 *148:13 443.293 
4 *148:13 *148:15 3.41 
5 *148:15 *148:17 2615.14 
6 *148:17 gpio_analog_pol[23] 42.9732 
*END

*D_NET *149 0.598057
*CONN
*P gpio_analog_pol[24] O
*I *921:gpio_analog_pol[24] O *D CF_CARAVEL_SOC
*CAP
1 gpio_analog_pol[24] 0.000503208
2 *921:gpio_analog_pol[24] 0.000958073
3 *149:43 0.0027082
4 *149:41 0.00220499
5 *149:39 0.149908
6 *149:37 0.149908
7 *149:35 0.127853
8 *149:33 0.129808
9 *149:25 0.00291331
10 gpio_analog_pol[24] gpio_dm0[24] 0
11 gpio_analog_pol[24] gpio_inp_dis[24] 0
12 *149:25 *153:25 9.93737e-06
13 *149:25 *164:15 0.000339145
14 *149:25 *167:15 0.000184529
15 *149:25 *327:29 4.46867e-05
16 *149:33 *156:11 0.00374516
17 *149:33 *164:15 0.000318832
18 *149:33 *165:9 9.07311e-05
19 *149:33 *167:13 0.000304264
20 *149:33 *167:15 0.000166008
21 *149:33 *193:31 0.00141388
22 *149:33 *285:11 6.4068e-05
23 *149:35 *151:9 0
24 *149:35 *154:9 0
25 *149:35 *156:11 0.00967242
26 *149:35 *167:13 5.59239e-05
27 *149:35 *193:33 0.00455835
28 *149:35 *197:11 0
29 *149:35 *285:11 0.00460398
30 *149:39 *446:7 0
31 *149:43 gpio_dm0[24] 0
32 *149:43 *193:63 0
33 *149:43 *325:167 0.00154922
34 *105:31 gpio_analog_pol[24] 0
35 *140:27 *149:33 0.000369016
36 *140:27 *149:35 4.47395e-05
37 *142:11 *149:35 0
38 *143:11 *149:33 0.000107789
39 *143:11 *149:35 0
40 *145:11 *149:25 0.00174787
41 *145:11 *149:35 0
42 *146:13 *149:25 0.00174959
43 *146:17 *149:35 0
44 *147:13 *149:35 0
45 *148:9 *149:33 0.000151756
*RES
1 *921:gpio_analog_pol[24] *149:25 47.9059 
2 *149:25 *149:33 15.7954 
3 *149:33 *149:35 2633.3 
4 *149:35 *149:37 3.41 
5 *149:37 *149:39 476.768 
6 *149:39 *149:41 3.41 
7 *149:41 *149:43 52.9464 
8 *149:43 gpio_analog_pol[24] 4.62025 
*END

*D_NET *150 0.620453
*CONN
*P gpio_analog_pol[25] O
*I *921:gpio_analog_pol[25] O *D CF_CARAVEL_SOC
*CAP
1 gpio_analog_pol[25] 8.98168e-05
2 *921:gpio_analog_pol[25] 0.00339014
3 *150:31 0.149692
4 *150:29 0.149602
5 *150:27 0.0592541
6 *150:25 0.0595725
7 *150:19 0.00465623
8 *150:17 0.00674163
9 *150:11 0.00374767
10 *150:9 0.00473409
11 *150:11 *288:53 0.00223058
12 *150:11 *683:15 0.00179894
13 *150:17 *169:9 0.00083625
14 *150:17 *170:9 0.0005625
15 *150:17 *788:37 0.00237206
16 *150:19 *152:19 0.00495041
17 *150:19 *204:21 0.00408428
18 *150:19 *241:19 0.00757554
19 *150:19 *330:13 0
20 *150:19 *831:57 0.00219408
21 *150:19 *831:69 0.000877572
22 *150:25 *186:15 9.61986e-05
23 *150:25 *330:25 4.35374e-05
24 *150:27 *152:27 0.114261
25 *150:27 *242:27 0
26 *150:27 *281:19 0.0171864
27 *150:27 *281:27 0
28 *150:27 *326:31 0.00823937
29 *150:31 gpio_dm0[25] 0.000598674
30 *150:31 gpio_inp_dis[25] 0
31 *150:31 *274:265 0
32 *102:11 *150:11 0.0012114
33 *106:23 *150:31 0
34 *109:23 *150:19 0.000699672
35 *110:11 *150:11 0.00678714
36 *116:39 *150:19 0.000845347
37 *148:9 *150:19 0.00152122
*RES
1 *921:gpio_analog_pol[25] *150:9 10.3785 
2 *150:9 *150:11 83.3036 
3 *150:11 *150:17 13.5692 
4 *150:17 *150:19 194.411 
5 *150:19 *150:25 7.76783 
6 *150:25 *150:27 301.749 
7 *150:27 *150:29 3.41 
8 *150:29 *150:31 475.736 
9 *150:31 gpio_analog_pol[25] 0.301583 
*END

*D_NET *151 0.583352
*CONN
*P gpio_analog_pol[26] O
*I *921:gpio_analog_pol[26] O *D CF_CARAVEL_SOC
*CAP
1 gpio_analog_pol[26] 0.000460186
2 *921:gpio_analog_pol[26] 0.000135331
3 *151:13 0.150803
4 *151:11 0.150343
5 *151:9 0.0533313
6 *151:7 0.0534666
7 gpio_analog_pol[26] gpio_dm0[26] 0.000235023
8 gpio_analog_pol[26] gpio_inp_dis[26] 0
9 gpio_analog_pol[26] *459:13 0.000782865
10 *151:7 *334:30 5.07704e-05
11 *151:9 *154:9 0.0977078
12 *151:9 *157:13 0.00307268
13 *151:9 *204:15 0.000225073
14 *151:9 *204:17 0.00105352
15 *151:9 *204:21 0.0108238
16 *151:9 *241:19 0.027788
17 *151:13 gpio_analog_sel[26] 0
18 *109:23 *151:9 0.00288028
19 *109:27 *151:9 0.0290975
20 *146:17 *151:9 7.23173e-05
21 *147:11 *151:9 0.00101486
22 *147:13 *151:9 8.42484e-06
23 *149:35 *151:9 0
*RES
1 *921:gpio_analog_pol[26] *151:7 3.68573 
2 *151:7 *151:9 1792.11 
3 *151:9 *151:11 3.41 
4 *151:11 *151:13 476.48 
5 *151:13 gpio_analog_pol[26] 17.0333 
*END

*D_NET *152 0.614125
*CONN
*P gpio_analog_pol[27] O
*I *921:gpio_analog_pol[27] O *D CF_CARAVEL_SOC
*CAP
1 gpio_analog_pol[27] 0.00283129
2 *921:gpio_analog_pol[27] 0.0026372
3 *152:31 0.150627
4 *152:29 0.147795
5 *152:27 0.0236809
6 *152:25 0.0238349
7 *152:19 0.00299351
8 *152:17 0.00470457
9 *152:11 0.00333216
10 *152:9 0.00410426
11 gpio_analog_pol[27] gpio_dm0[27] 0
12 gpio_analog_pol[27] gpio_inp_dis[27] 0.000466112
13 *152:9 *153:25 0
14 *152:9 *193:31 0
15 *152:9 *321:37 0
16 *152:9 *329:50 0.000284346
17 *152:11 *160:11 0.00360853
18 *152:11 *534:15 0.00244081
19 *152:17 *153:25 0.000161683
20 *152:17 *170:9 0.00144749
21 *152:19 *332:13 0.00115984
22 *152:19 *333:11 0.00946199
23 *152:19 *334:34 0.00186602
24 *152:19 *831:57 0.00219578
25 *152:25 *273:15 0.000399065
26 *152:25 *332:19 0.000310755
27 *152:27 *153:27 1.00926e-05
28 *152:27 *241:27 0.052105
29 *152:27 *242:27 0
30 *152:27 *333:19 0.0494783
31 gpio_analog_en[27] gpio_analog_pol[27] 0
32 *91:11 *152:11 0.00101364
33 *107:11 *152:11 0.00146244
34 *108:15 *152:31 0
35 *109:27 *152:27 0
36 *116:39 *152:19 0.000500611
37 *150:19 *152:19 0.00495041
38 *150:27 *152:27 0.114261
*RES
1 *921:gpio_analog_pol[27] *152:9 8.6458 
2 *152:9 *152:11 76.625 
3 *152:11 *152:17 11.7675 
4 *152:17 *152:19 147.054 
5 *152:19 *152:25 7.47957 
6 *152:25 *152:27 241.238 
7 *152:27 *152:29 3.41 
8 *152:29 *152:31 470.498 
9 *152:31 gpio_analog_pol[27] 6.17188 
*END

*D_NET *153 0.69007
*CONN
*P gpio_analog_pol[28] O
*I *921:gpio_analog_pol[28] O *D CF_CARAVEL_SOC
*CAP
1 gpio_analog_pol[28] 0.00255641
2 *921:gpio_analog_pol[28] 0.00746601
3 *153:31 0.0956984
4 *153:29 0.093142
5 *153:27 0.0386584
6 *153:25 0.0461244
7 gpio_analog_pol[28] gpio_dm0[28] 0.000629067
8 gpio_analog_pol[28] gpio_inp_dis[28] 0
9 *153:25 *154:7 3.98903e-05
10 *153:25 *156:11 0.00016174
11 *153:25 *168:9 0.000216306
12 *153:25 *193:31 8.79646e-05
13 *153:25 *279:11 0.00496386
14 *153:25 *285:11 0.00134137
15 *153:25 *316:11 0.000221011
16 *153:25 *329:50 0.000360771
17 *153:25 *483:11 0.00033199
18 *153:27 *157:29 0.00134692
19 *153:27 *157:37 0.0032922
20 *153:27 *163:19 0.00166793
21 *153:27 *241:27 0.0288038
22 *153:27 *330:13 0.0019743
23 *153:27 *330:23 0.0020858
24 *153:27 *332:13 0.00186765
25 *153:27 *333:11 0.0020892
26 *153:27 *333:19 0.0274447
27 *153:27 *334:34 0.0135508
28 *153:31 gpio_dm0[28] 0.000712596
29 *153:31 *241:31 0.299337
30 *153:31 *538:297 0.00032431
31 *91:11 *153:25 0
32 *109:23 *153:27 0.000672631
33 *109:27 *153:27 0.0123504
34 *109:31 *153:31 0
35 *116:27 *153:25 0.000111764
36 *116:39 *153:25 0
37 *117:11 *153:25 0.000256137
38 *149:25 *153:25 9.93737e-06
39 *152:9 *153:25 0
40 *152:17 *153:25 0.000161683
41 *152:27 *153:27 1.00926e-05
*RES
1 *921:gpio_analog_pol[28] *153:25 38.7499 
2 *153:25 *153:27 233.035 
3 *153:27 *153:29 3.41 
4 *153:29 *153:31 470.931 
5 *153:31 gpio_analog_pol[28] 5.88988 
*END

*D_NET *154 0.523713
*CONN
*P gpio_analog_pol[29] O
*I *921:gpio_analog_pol[29] O *D CF_CARAVEL_SOC
*CAP
1 gpio_analog_pol[29] 0.000480632
2 *921:gpio_analog_pol[29] 0.000187846
3 *154:13 0.151644
4 *154:11 0.151164
5 *154:9 0.0261032
6 *154:7 0.026291
7 gpio_analog_pol[29] gpio_dm0[29] 0.000245932
8 gpio_analog_pol[29] gpio_inp_dis[29] 0
9 gpio_analog_pol[29] *459:13 0.000834326
10 *154:13 gpio_inp_dis[29] 0
11 *109:23 *154:9 0.00010283
12 *109:27 *154:9 0.0156123
13 *140:229 *154:13 0.000182605
14 *146:17 *154:9 0.0508958
15 *148:9 *154:9 0.00222125
16 *149:35 *154:9 0
17 *151:9 *154:9 0.0977078
18 *153:25 *154:7 3.98903e-05
*RES
1 *921:gpio_analog_pol[29] *154:7 3.7578 
2 *154:7 *154:9 1198.32 
3 *154:9 *154:11 3.41 
4 *154:11 *154:13 476.552 
5 *154:13 gpio_analog_pol[29] 17.6762 
*END

*D_NET *155 0.128368
*CONN
*P gpio_analog_pol[2] O
*I *921:gpio_analog_pol[2] O *D CF_CARAVEL_SOC
*CAP
1 gpio_analog_pol[2] 0.00483998
2 *921:gpio_analog_pol[2] 0.00442042
3 *155:11 0.0224704
4 *155:9 0.0220508
5 gpio_analog_pol[2] gpio_dm0[2] 0
6 gpio_analog_pol[2] gpio_inp_dis[2] 0.00192529
7 *155:9 *166:9 0
8 *155:11 *180:11 0.0140647
9 *155:11 *188:11 0.0281698
10 *155:11 *216:13 0
11 *155:11 *304:11 0.0102572
12 *155:11 *310:11 0.00605369
13 *155:11 *342:11 0
14 *155:11 *444:11 0.00536271
15 *155:11 *484:11 0.00734874
16 gpio_analog_en[2] *155:11 0.000751065
17 *115:11 *155:11 0.000653059
18 *130:11 *155:11 0
19 *144:9 *155:9 0
*RES
1 *921:gpio_analog_pol[2] *155:9 12.9024 
2 *155:9 *155:11 95.927 
3 *155:11 gpio_analog_pol[2] 14.2913 
*END

*D_NET *156 0.465464
*CONN
*P gpio_analog_pol[30] O
*I *921:gpio_analog_pol[30] O *D CF_CARAVEL_SOC
*CAP
1 gpio_analog_pol[30] 0.0013845
2 *921:gpio_analog_pol[30] 0.000584546
3 *156:15 0.150511
4 *156:13 0.149126
5 *156:11 0.0383839
6 *156:9 0.0389684
7 gpio_analog_pol[30] gpio_dm0[30] 6.27088e-05
8 gpio_analog_pol[30] gpio_inp_dis[30] 0.000297076
9 gpio_analog_pol[30] *447:17 0
10 gpio_analog_pol[30] *548:23 0.000248504
11 *156:9 *329:50 0.000207921
12 *156:9 *787:49 0
13 *156:11 *193:33 0.00210998
14 *156:11 *285:11 0
15 *156:15 gpio_inp_dis[30] 0.00595474
16 *156:15 *538:265 0
17 *109:23 *156:11 0.000917399
18 *109:27 *156:11 0.0361571
19 *112:31 *156:15 0
20 *142:11 *156:11 0.00247238
21 *143:11 *156:11 0.00237595
22 *145:11 *156:11 0.00237595
23 *147:13 *156:11 0.00970416
24 *148:9 *156:11 0.0100419
25 *149:33 *156:11 0.00374516
26 *149:35 *156:11 0.00967242
27 *153:25 *156:11 0.00016174
*RES
1 *921:gpio_analog_pol[30] *156:9 4.32337 
2 *156:9 *156:11 176.36 
3 *156:11 *156:13 3.41 
4 *156:13 *156:15 474.57 
5 *156:15 gpio_analog_pol[30] 12.9112 
*END

*D_NET *157 0.429497
*CONN
*P gpio_analog_pol[31] O
*I *921:gpio_analog_pol[31] O *D CF_CARAVEL_SOC
*CAP
1 gpio_analog_pol[31] 0.00298564
2 *921:gpio_analog_pol[31] 0.00103736
3 *157:43 0.150914
4 *157:41 0.147928
5 *157:39 0.0253705
6 *157:37 0.0276346
7 *157:29 0.00355517
8 *157:13 0.00232848
9 gpio_analog_pol[31] gpio_dm0[31] 0
10 gpio_analog_pol[31] gpio_inp_dis[31] 0.000148858
11 *157:13 *204:17 0.00307268
12 *157:13 *288:45 2.79435e-05
13 *157:13 *334:30 0.000284346
14 *157:13 *787:49 4.98192e-05
15 *157:29 *158:22 0.000783419
16 *157:29 *163:19 0.000160692
17 *157:29 *328:51 0.000219452
18 *157:29 *329:54 0.000583304
19 *157:29 *329:58 0
20 *157:29 *330:13 0.000188362
21 *157:29 *334:34 5.46488e-05
22 *157:29 *392:45 0.000224515
23 *157:37 *158:22 0.00842682
24 *157:37 *161:15 0.000601098
25 *157:37 *333:19 1.84474e-05
26 *157:37 *436:23 0.000152412
27 *157:37 *694:6 0.000597312
28 *157:37 *831:43 0.0012235
29 *157:39 *195:29 6.1633e-06
30 *157:39 *195:31 0.0209096
31 *157:39 *198:27 0
32 *157:39 *753:19 0.0112459
33 *157:39 *754:27 0.00905091
34 *109:23 *157:13 0.000165754
35 *113:23 gpio_analog_pol[31] 0
36 *116:39 *157:29 0
37 *117:33 *157:29 0.00158389
38 *140:75 *157:39 0.000251371
39 *140:149 *157:43 0
40 *151:9 *157:13 0.00307268
41 *153:27 *157:29 0.00134692
42 *153:27 *157:37 0.0032922
*RES
1 *921:gpio_analog_pol[31] *157:13 46.5973 
2 *157:13 *157:29 39.6196 
3 *157:29 *157:37 26.0085 
4 *157:37 *157:39 111.481 
5 *157:39 *157:41 3.41 
6 *157:41 *157:43 468.624 
7 *157:43 gpio_analog_pol[31] 6.00268 
*END

*D_NET *158 0.750213
*CONN
*P gpio_analog_pol[32] O
*I *921:gpio_analog_pol[32] O *D CF_CARAVEL_SOC
*CAP
1 gpio_analog_pol[32] 0.00011363
2 *921:gpio_analog_pol[32] 0.00538013
3 *158:32 0.0147713
4 *158:30 0.0170933
5 *158:24 0.0337833
6 *158:22 0.0367278
7 *158:22 *196:27 0
8 *158:22 *205:31 0.00193044
9 *158:22 *242:27 0
10 *158:22 *328:51 0.00289156
11 *158:22 *328:53 0.00175714
12 *158:22 *329:54 0.00119678
13 *158:22 *329:58 0.000113748
14 *158:22 *330:13 0.000584624
15 *158:22 *333:19 0.00104765
16 *158:22 *334:34 0
17 *158:22 *831:41 0.0003461
18 *158:24 *228:25 0.000109655
19 *158:24 *229:15 0.08458
20 *158:24 *230:25 0.027237
21 *158:24 *244:15 0.000478775
22 *158:24 *246:23 0.266867
23 *158:24 *277:23 0.00142681
24 *158:24 *286:35 0.0134987
25 *158:24 *801:15 0.179403
26 *158:30 *334:42 0
27 *158:32 gpio_dm0[32] 0.00155415
28 *114:29 *158:30 0
29 *114:31 *158:32 0.0378182
30 *116:53 *158:22 0.00990984
31 *117:33 *158:22 0.000381778
32 *157:29 *158:22 0.000783419
33 *157:37 *158:22 0.00842682
*RES
1 *921:gpio_analog_pol[32] *158:22 43.2011 
2 *158:22 *158:24 413.71 
3 *158:24 *158:30 14.0047 
4 *158:30 *158:32 62.0729 
5 *158:32 gpio_analog_pol[32] 0.290617 
*END

*D_NET *159 0.756689
*CONN
*P gpio_analog_pol[33] O
*I *921:gpio_analog_pol[33] O *D CF_CARAVEL_SOC
*CAP
1 gpio_analog_pol[33] 0.011454
2 *921:gpio_analog_pol[33] 0.00777431
3 *159:15 0.0581075
4 *159:13 0.0544278
5 gpio_analog_pol[33] gpio_dm0[33] 0
6 gpio_analog_pol[33] gpio_inp_dis[33] 0
7 gpio_analog_pol[33] *206:57 0
8 gpio_analog_pol[33] *355:11 0.00220048
9 gpio_analog_pol[33] *359:11 0.00203407
10 gpio_analog_pol[33] *371:11 0.0103256
11 gpio_analog_pol[33] *389:9 0
12 gpio_analog_pol[33] *390:9 0.000538933
13 gpio_analog_pol[33] *393:11 0
14 *159:13 *160:9 0
15 *159:13 *170:11 0.00047516
16 *159:13 *179:11 0.00548912
17 *159:13 *247:11 0.00230961
18 *159:13 *288:59 0.00151015
19 *159:13 *391:33 0.00538787
20 *159:13 *788:53 0.000684878
21 *159:13 *831:75 0.000303285
22 *159:15 *337:39 0.296778
23 *159:15 *692:13 0.00662972
24 *159:15 *698:13 0.00624297
25 *159:15 *731:14 0.00236217
26 *159:15 *833:23 0.273292
27 *90:11 *159:13 0.00165962
28 *98:11 *159:13 0.00259249
29 *101:11 *159:13 0.00196223
30 *105:25 *159:13 0.000179685
31 *115:35 gpio_analog_pol[33] 0.00196713
*RES
1 *921:gpio_analog_pol[33] *159:13 43.1118 
2 *159:13 *159:15 469.489 
3 *159:15 gpio_analog_pol[33] 43.0484 
*END

*D_NET *160 0.732443
*CONN
*P gpio_analog_pol[34] O
*I *921:gpio_analog_pol[34] O *D CF_CARAVEL_SOC
*CAP
1 gpio_analog_pol[34] 0.00924777
2 *921:gpio_analog_pol[34] 0.00238521
3 *160:27 0.0188109
4 *160:25 0.00956316
5 *160:23 0.0290341
6 *160:21 0.0290922
7 *160:15 0.018205
8 *160:13 0.0181469
9 *160:11 0.00473936
10 *160:9 0.00712457
11 gpio_analog_pol[34] gpio_dm0[34] 0.000163345
12 gpio_analog_pol[34] *248:49 0
13 gpio_analog_pol[34] *354:9 0
14 gpio_analog_pol[34] *355:9 0.00232576
15 gpio_analog_pol[34] *556:52 0
16 *160:9 *161:13 0
17 *160:11 *534:15 0
18 *160:15 *392:31 0.129335
19 *160:15 *393:23 0.0148497
20 *160:15 *683:11 0.00668324
21 *160:15 *687:11 0.0225176
22 *160:15 *688:11 0.000501807
23 *160:15 *693:19 0.108499
24 *160:21 *672:9 0
25 *160:23 *541:131 0.0172838
26 *160:23 *661:13 0.00146388
27 *160:23 *661:15 0.000416162
28 *160:23 *687:11 0.0792255
29 *160:23 *687:17 0.00107564
30 *160:27 *449:13 0.0023099
31 *160:27 *752:11 0.00343722
32 *160:27 *758:9 0.027663
33 gpio_analog_en[34] gpio_analog_pol[34] 0
34 *91:11 *160:11 0.00239967
35 *97:11 *160:11 1.95625e-05
36 *99:11 *160:11 0.000129053
37 *107:11 *160:11 0.0132712
38 *116:55 *160:15 0.00159143
39 *116:55 *160:23 0.000640825
40 *116:63 *160:23 0.146684
41 *152:11 *160:11 0.00360853
42 *159:13 *160:9 0
*RES
1 *921:gpio_analog_pol[34] *160:9 8.25413 
2 *160:9 *160:11 169.366 
3 *160:11 *160:13 4.5 
4 *160:13 *160:15 1285.66 
5 *160:15 *160:21 8.79393 
6 *160:21 *160:23 236.966 
7 *160:23 *160:25 3.41 
8 *160:25 *160:27 56.9358 
9 *160:27 gpio_analog_pol[34] 22.8719 
*END

*D_NET *161 0.561761
*CONN
*P gpio_analog_pol[35] O
*I *921:gpio_analog_pol[35] O *D CF_CARAVEL_SOC
*CAP
1 gpio_analog_pol[35] 0.0104476
2 *921:gpio_analog_pol[35] 0.00986737
3 *161:19 0.0218338
4 *161:17 0.0113862
5 *161:15 0.0879952
6 *161:13 0.0978625
7 gpio_analog_pol[35] gpio_dm0[35] 0.00353571
8 gpio_analog_pol[35] *353:11 0.000365668
9 gpio_analog_pol[35] *765:9 0.000427881
10 gpio_analog_pol[35] *798:19 0.000143652
11 gpio_analog_pol[35] *819:11 0.0026594
12 gpio_analog_pol[35] *834:11 0
13 *161:13 *162:9 0
14 *161:13 *176:11 0.0073375
15 *161:13 *181:11 0.00518693
16 *161:13 *182:19 0.00207751
17 *161:13 *312:19 0.0024352
18 *161:13 *326:11 0.0024352
19 *161:13 *327:37 4.11022e-05
20 *161:13 *535:121 0.00207751
21 *161:15 *183:17 0
22 *161:15 *202:25 1.14338e-05
23 *161:15 *271:25 0.00321063
24 *161:15 *288:65 8.86297e-05
25 *161:15 *315:25 0.00161902
26 *161:15 *333:17 0.000126818
27 *161:15 *436:23 0.00481379
28 *161:15 *692:13 0.0126045
29 *161:15 *694:6 0.00312164
30 *161:15 *731:14 0.00505747
31 *161:15 *734:11 0.0395867
32 *161:15 *738:11 0.000348055
33 *161:15 *740:11 0.0450093
34 *161:15 *743:11 0.000348055
35 *161:15 *808:21 0.00344415
36 *161:15 *833:21 0.00412467
37 *161:15 *833:23 0.0867665
38 *161:19 *356:11 0.00280614
39 *161:19 *360:11 0.00473437
40 *161:19 *391:11 0.0303609
41 *161:19 *393:11 0.00753832
42 *161:19 *448:13 0.00110883
43 *161:19 *751:11 0.00211078
44 *161:19 *797:19 0.00264784
45 *161:19 *798:19 0.00140548
46 *161:19 *819:11 0.0245694
47 *161:19 *831:19 0.0007787
48 *161:19 *834:11 0
49 *104:27 *161:13 0.00225104
50 *113:11 *161:13 0.00198531
51 *117:25 *161:13 0.00046579
52 *157:37 *161:15 0.000601098
53 *160:9 *161:13 0
*RES
1 *921:gpio_analog_pol[35] *161:13 45.0044 
2 *161:13 *161:15 471.651 
3 *161:15 *161:17 3.41 
4 *161:17 *161:19 78.6717 
5 *161:19 gpio_analog_pol[35] 30.558 
*END

*D_NET *162 0.86976
*CONN
*P gpio_analog_pol[36] O
*I *921:gpio_analog_pol[36] O *D CF_CARAVEL_SOC
*CAP
1 gpio_analog_pol[36] 0.00238707
2 *921:gpio_analog_pol[36] 0.004816
3 *162:27 0.0142486
4 *162:25 0.0143636
5 *162:15 0.0389393
6 *162:13 0.0364372
7 *162:11 0.00213537
8 *162:9 0.00695137
9 gpio_analog_pol[36] gpio_dm0[36] 0.00358607
10 gpio_analog_pol[36] gpio_inp_dis[36] 0
11 *162:11 *203:11 0.00103158
12 *162:11 *315:11 0.011939
13 *162:11 *532:36 0
14 *162:15 *183:17 0.000961538
15 *162:15 *198:15 0.00698566
16 *162:15 *204:33 0.0119996
17 *162:15 *436:23 0.00309548
18 *162:15 *690:11 0.252496
19 *162:15 *694:6 0.0241149
20 *162:15 *727:11 0.271855
21 *162:15 *731:6 0.0219826
22 *162:15 *733:6 0.00359218
23 *162:15 *734:11 0.000551323
24 *162:15 *738:11 1.98839e-05
25 *162:15 *739:6 0.0026989
26 *162:15 *740:11 0.00344879
27 *162:25 *163:33 0.000212405
28 *162:25 *355:11 0.000254007
29 *162:25 *437:29 0.000596747
30 *162:25 *690:21 0.00528137
31 *162:25 *736:21 0.0019727
32 *162:25 *790:11 0.000255654
33 *162:27 *249:27 0.0156151
34 *162:27 *465:11 0.00201164
35 *162:27 *754:11 0.0454882
36 *162:27 *773:11 0.0372342
37 *162:27 *802:11 0.00594893
38 *112:15 *162:15 0.00026858
39 *115:33 *162:15 3.69047e-06
40 *117:25 *162:9 0.000463154
41 *129:11 *162:11 0.00110912
42 *139:11 *162:11 0.0124078
43 *161:13 *162:9 0
*RES
1 *921:gpio_analog_pol[36] *162:9 13.6591 
2 *162:9 *162:11 152.366 
3 *162:11 *162:13 4.5 
4 *162:13 *162:15 2688.66 
5 *162:15 *162:25 23.5437 
6 *162:25 *162:27 707.446 
7 *162:27 gpio_analog_pol[36] 9.66335 
*END

*D_NET *163 0.897728
*CONN
*P gpio_analog_pol[37] O
*I *921:gpio_analog_pol[37] O *D CF_CARAVEL_SOC
*CAP
1 gpio_analog_pol[37] 0.000266262
2 *921:gpio_analog_pol[37] 0.00089893
3 *163:35 0.0177289
4 *163:33 0.0233334
5 *163:23 0.0399992
6 *163:21 0.0341284
7 *163:19 0.00178767
8 *163:17 0.0026866
9 gpio_analog_pol[37] gpio_dm0[37] 0.000469536
10 gpio_analog_pol[37] gpio_inp_dis[37] 6.46448e-05
11 *163:17 *333:11 0.00220586
12 *163:17 *334:30 0.000255549
13 *163:17 *334:34 0.000448556
14 *163:19 *330:13 0.0100644
15 *163:19 *332:13 0.0100704
16 *163:23 *291:15 0.276586
17 *163:23 *541:131 0
18 *163:23 *688:11 0.00351676
19 *163:23 *716:11 0.270385
20 *163:23 *744:11 0.0594774
21 *163:33 *204:43 0
22 *163:33 *291:25 0.00113618
23 *163:33 *437:29 0.0041346
24 *163:33 *688:11 0.00360643
25 *163:33 *690:21 6.50001e-05
26 *163:33 *736:21 0.000410097
27 *163:33 *796:11 4.19535e-05
28 *163:35 *204:45 0.00022276
29 *163:35 *206:59 0.0476618
30 *163:35 *291:27 0.00950679
31 *163:35 *459:13 0
32 *163:35 *466:11 0.0723245
33 *116:39 *163:17 0.00220381
34 *153:27 *163:19 0.00166793
35 *157:29 *163:19 0.000160692
36 *162:25 *163:33 0.000212405
*RES
1 *921:gpio_analog_pol[37] *163:17 41.3441 
2 *163:17 *163:19 124.286 
3 *163:19 *163:21 4.5 
4 *163:21 *163:23 2615.55 
5 *163:23 *163:33 28.5227 
6 *163:33 *163:35 902.946 
7 *163:35 gpio_analog_pol[37] 4.29282 
*END

*D_NET *164 0.712077
*CONN
*P gpio_analog_pol[38] O
*I *921:gpio_analog_pol[38] O *D CF_CARAVEL_SOC
*CAP
1 gpio_analog_pol[38] 0.0018136
2 *921:gpio_analog_pol[38] 0.000571002
3 *164:43 0.0136408
4 *164:41 0.0119594
5 *164:35 0.0282168
6 *164:33 0.0281937
7 *164:23 0.0231997
8 *164:21 0.0232117
9 *164:15 0.0130587
10 *164:13 0.0135085
11 gpio_analog_pol[38] gpio_dm0[38] 0
12 gpio_analog_pol[38] gpio_inp_dis[38] 0
13 gpio_analog_pol[38] *541:57 0
14 *164:13 *165:9 0
15 *164:13 *193:31 2.63501e-05
16 *164:15 *167:15 0.0121146
17 *164:15 *193:9 0
18 *164:15 *193:19 0.00178926
19 *164:15 *209:11 0.000895064
20 *164:15 *344:11 0.000304867
21 *164:15 *345:11 0.000799336
22 *164:21 *343:9 2.10787e-05
23 *164:23 *208:9 0.0354537
24 *164:23 *209:11 0.06438
25 *164:33 *168:15 0.000267413
26 *164:33 *253:15 0.000261793
27 *164:35 *168:15 0.0252
28 *164:35 *238:15 0.164818
29 *164:35 *340:39 0.0102644
30 *164:35 *386:207 0.0138692
31 *164:35 *429:19 0.000689247
32 *164:35 *545:11 0.0384697
33 *164:35 *554:13 0.00635357
34 *164:41 gpio_dm0[39] 0.000173687
35 *164:43 *339:23 0.0534552
36 *164:43 *390:23 0.010913
37 *164:43 *760:23 0.0117761
38 *164:43 *827:19 0.0177796
39 *164:43 *852:11 0.0117677
40 *109:11 *164:15 0.0215224
41 *116:19 *164:15 0.012992
42 *121:11 *164:15 0.00664063
43 *121:11 *164:23 0.00614416
44 *123:11 *164:23 0.00614416
45 *124:9 *164:33 4.65158e-06
46 *126:11 *164:23 0.00754046
47 *140:27 *164:15 0.00342068
48 *142:11 *164:15 0.00766434
49 *148:9 *164:15 0.000129086
50 *149:25 *164:15 0.000339145
51 *149:33 *164:15 0.000318832
*RES
1 *921:gpio_analog_pol[38] *164:13 4.491 
2 *164:13 *164:15 631.554 
3 *164:15 *164:21 7.04717 
4 *164:21 *164:23 133.001 
5 *164:23 *164:33 12.0402 
6 *164:33 *164:35 1559.2 
7 *164:35 *164:41 10.3118 
8 *164:41 *164:43 84.5091 
9 *164:43 gpio_analog_pol[38] 29.5082 
*END

*D_NET *165 0.557865
*CONN
*P gpio_analog_pol[39] O
*I *921:gpio_analog_pol[39] O *D CF_CARAVEL_SOC
*CAP
1 gpio_analog_pol[39] 0.00221213
2 *921:gpio_analog_pol[39] 0.00645489
3 *165:23 0.0175584
4 *165:21 0.0155039
5 *165:15 0.0175071
6 *165:13 0.0173496
7 *165:11 0.0378756
8 *165:9 0.0443305
9 gpio_analog_pol[39] gpio_dm0[39] 0
10 gpio_analog_pol[39] gpio_inp_dis[39] 0
11 *165:9 *167:13 0.000109995
12 *165:9 *193:31 0
13 *165:9 *288:53 0
14 *165:9 *782:37 0.000474658
15 *165:9 *831:73 0
16 *165:11 *195:11 0.0221799
17 *165:11 *241:11 0
18 *165:11 *263:11 0.0520868
19 *165:11 *277:11 0.0132139
20 *165:11 *692:15 0.00817892
21 *165:11 *692:23 0
22 *165:11 *793:31 0.00454394
23 *165:11 *804:27 0
24 *165:15 *325:71 0.0250258
25 *165:15 *338:19 0.0753776
26 *165:15 *339:15 0.0896726
27 *165:15 *484:15 0.000765469
28 *165:15 *548:11 0.00783378
29 *165:15 *771:27 0
30 *165:15 *842:11 0.0131479
31 *165:21 gpio_analog_sel[41] 5.5927e-05
32 *165:23 *296:23 0.0280832
33 *165:23 *434:23 0.00965663
34 *165:23 *470:15 0.00326437
35 *165:23 *543:11 0.0121928
36 *165:23 *847:16 0.0127942
37 *105:25 *165:9 5.00194e-05
38 *121:15 *165:15 0.0202737
39 *149:33 *165:9 9.07311e-05
40 *164:13 *165:9 0
*RES
1 *921:gpio_analog_pol[39] *165:9 17.0463 
2 *165:9 *165:11 1387.9 
3 *165:11 *165:13 4.5 
4 *165:13 *165:15 1129.59 
5 *165:15 *165:21 10.6154 
6 *165:21 *165:23 88.2566 
7 *165:23 gpio_analog_pol[39] 35.7225 
*END

*D_NET *166 0.0787177
*CONN
*P gpio_analog_pol[3] O
*I *921:gpio_analog_pol[3] O *D CF_CARAVEL_SOC
*CAP
1 gpio_analog_pol[3] 0.00356618
2 *921:gpio_analog_pol[3] 0.00552811
3 *166:11 0.0131461
4 *166:9 0.015108
5 gpio_analog_pol[3] gpio_dm0[3] 0
6 gpio_analog_pol[3] gpio_inp_dis[3] 0.00189125
7 gpio_analog_pol[3] *281:11 0.000179918
8 gpio_analog_pol[3] *375:59 0.000116905
9 *166:9 *171:13 0
10 *166:11 *169:11 0.00242889
11 *166:11 *178:11 0.00827476
12 *166:11 *181:11 0.000495711
13 *166:11 *199:11 0.00137474
14 *166:11 *224:19 0.00268245
15 *166:11 *242:11 0.00017465
16 *166:11 *303:11 0.015952
17 *166:11 *481:11 0.000411845
18 *104:25 *166:9 4.53703e-05
19 *104:25 *166:11 0.00027798
20 *114:11 *166:11 0.00017465
21 *133:11 *166:11 0.00688811
22 *155:9 *166:9 0
*RES
1 *921:gpio_analog_pol[3] *166:9 15.3527 
2 *166:9 *166:11 61.1971 
3 *166:11 gpio_analog_pol[3] 22.3851 
*END

*D_NET *167 0.488581
*CONN
*P gpio_analog_pol[40] O
*I *921:gpio_analog_pol[40] O *D CF_CARAVEL_SOC
*CAP
1 gpio_analog_pol[40] 0.00140297
2 *921:gpio_analog_pol[40] 0.00185369
3 *167:19 0.0472579
4 *167:17 0.0458549
5 *167:15 0.0219003
6 *167:13 0.023754
7 gpio_analog_pol[40] gpio_dm0[40] 0
8 gpio_analog_pol[40] gpio_inp_dis[40] 0.000192037
9 gpio_analog_pol[40] *208:27 0
10 *167:13 *197:11 0
11 *167:15 *193:19 0.0031814
12 *167:15 *197:11 0
13 *167:15 *205:23 0.00134778
14 *167:15 *206:27 0.00624942
15 *167:15 *207:11 0.0104118
16 *167:15 *209:11 0.00819467
17 *167:15 *213:11 0.096747
18 *167:15 *252:11 0
19 *167:15 *274:51 0.00222396
20 *167:15 *343:11 0.0615925
21 *167:15 *344:11 0.000276215
22 *167:15 *847:6 9.21621e-05
23 *167:15 *852:9 0
24 *167:19 *208:19 5.1283e-05
25 *167:19 *297:14 2.85982e-05
26 *167:19 *571:27 0.0196329
27 *167:19 *749:27 0.0179243
28 *167:19 *838:11 0.077096
29 *167:19 *841:11 0.0213986
30 *109:23 *167:13 0.000255549
31 *116:19 *167:15 0.00143762
32 *116:39 *167:13 0.000111764
33 *119:23 *167:19 0.00180525
34 *140:27 *167:13 0.00258307
35 *140:27 *167:15 0.000788186
36 *149:25 *167:15 0.000184529
37 *149:33 *167:13 0.000304264
38 *149:33 *167:15 0.000166008
39 *149:35 *167:13 5.59239e-05
40 *164:15 *167:15 0.0121146
41 *165:9 *167:13 0.000109995
*RES
1 *921:gpio_analog_pol[40] *167:13 37.2536 
2 *167:13 *167:15 1372.11 
3 *167:15 *167:17 3.41 
4 *167:17 *167:19 230.732 
5 *167:19 gpio_analog_pol[40] 25.4368 
*END

*D_NET *168 0.541863
*CONN
*P gpio_analog_pol[41] O
*I *921:gpio_analog_pol[41] O *D CF_CARAVEL_SOC
*CAP
1 gpio_analog_pol[41] 0.0019234
2 *921:gpio_analog_pol[41] 0.00594065
3 *168:15 0.0257291
4 *168:13 0.0238057
5 *168:11 0.0543173
6 *168:9 0.0602579
7 gpio_analog_pol[41] gpio_dm0[41] 0
8 gpio_analog_pol[41] gpio_inp_dis[41] 0
9 *168:9 *169:9 0
10 *168:9 *787:33 0.000295018
11 *168:9 *831:69 0.00407017
12 *168:11 *218:11 0
13 *168:11 *269:11 0
14 *168:11 *273:11 0.0777842
15 *168:11 *306:11 0
16 *168:11 *348:11 0
17 *168:11 *386:211 0
18 *168:11 *408:101 0
19 *168:11 *760:35 0
20 *168:11 *832:59 0
21 *168:15 *169:15 0.000857862
22 *168:15 *238:15 0.0233902
23 *168:15 *253:15 0.000954768
24 *168:15 *255:15 6.04876e-05
25 *168:15 *340:39 0.117762
26 *168:15 *343:15 8.85501e-05
27 *168:15 *386:207 0.000636153
28 *168:15 *845:19 0.0533709
29 *126:15 *168:15 0.0649344
30 *153:25 *168:9 0.000216306
31 *164:33 *168:15 0.000267413
32 *164:35 *168:15 0.0252
*RES
1 *921:gpio_analog_pol[41] *168:9 17.7669 
2 *168:9 *168:11 1405.05 
3 *168:11 *168:13 3.41 
4 *168:13 *168:15 201.185 
5 *168:15 gpio_analog_pol[41] 31.4368 
*END

*D_NET *169 0.421216
*CONN
*P gpio_analog_pol[42] O
*I *921:gpio_analog_pol[42] O *D CF_CARAVEL_SOC
*CAP
1 gpio_analog_pol[42] 0.00208373
2 *921:gpio_analog_pol[42] 0.00532333
3 *169:15 0.0311995
4 *169:13 0.0291158
5 *169:11 0.0314302
6 *169:9 0.0367535
7 gpio_analog_pol[42] gpio_dm0[42] 0
8 gpio_analog_pol[42] gpio_inp_dis[42] 0.00022817
9 *169:9 *170:9 0
10 *169:9 *280:17 2.01997e-05
11 *169:9 *391:33 0
12 *169:9 *788:37 0.00237494
13 *169:9 *831:69 0
14 *169:11 *178:11 0.00238695
15 *169:11 *222:17 0.00201441
16 *169:11 *224:19 0.0314924
17 *169:11 *242:11 0.0924056
18 *169:11 *267:15 0.00363267
19 *169:11 *298:11 0.00295992
20 *169:11 *435:27 0
21 *169:11 *531:28 0
22 *169:11 *692:23 0
23 *169:11 *771:31 0
24 *169:15 *170:23 0.00969534
25 *169:15 *209:15 0.000218972
26 *169:15 *213:15 0.0900988
27 *169:15 *253:15 0.000337733
28 *169:15 *257:15 0
29 *169:15 *296:23 0.00401029
30 *169:15 *322:77 0.000325149
31 *169:15 *434:23 0.00584042
32 *169:15 *474:15 0.000235564
33 *169:15 *480:15 0.00014225
34 *169:15 *847:16 0.00111638
35 *94:19 *169:11 0.0287774
36 *104:25 *169:11 0.00287337
37 *150:17 *169:9 0.00083625
38 *166:11 *169:11 0.00242889
39 *168:9 *169:9 0
40 *168:15 *169:15 0.000857862
*RES
1 *921:gpio_analog_pol[42] *169:9 15.6049 
2 *169:9 *169:11 1406.88 
3 *169:11 *169:13 3.41 
4 *169:13 *169:15 156.071 
5 *169:15 gpio_analog_pol[42] 34.6154 
*END

*D_NET *170 0.35764
*CONN
*P gpio_analog_pol[43] O
*I *921:gpio_analog_pol[43] O *D CF_CARAVEL_SOC
*CAP
1 gpio_analog_pol[43] 0.00220325
2 *921:gpio_analog_pol[43] 0.00309991
3 *170:23 0.020574
4 *170:21 0.0183708
5 *170:19 0.0265745
6 *170:17 0.0290033
7 *170:11 0.00665418
8 *170:9 0.00732532
9 gpio_analog_pol[43] gpio_dm0[43] 0
10 gpio_analog_pol[43] gpio_inp_dis[43] 0
11 gpio_analog_pol[43] *296:21 2.83284e-06
12 gpio_analog_pol[43] *345:21 0.000105912
13 gpio_analog_pol[43] *545:9 0
14 *170:9 *391:33 0.000111541
15 *170:11 *179:11 0.00100993
16 *170:11 *247:11 0.0258097
17 *170:17 gpio_out[4] 0.000134991
18 *170:17 gpio_vtrip_sel[4] 0.000547454
19 *170:19 *185:11 0.00013101
20 *170:19 *212:19 0.0201627
21 *170:19 *228:11 0.00868998
22 *170:19 *234:11 0
23 *170:19 *240:11 0.0264538
24 *170:19 *249:11 0
25 *170:19 *274:19 0.0180653
26 *170:19 *325:11 0.0104582
27 *170:19 *325:19 0
28 *170:19 *858:9 0
29 *170:23 *257:15 0.0652882
30 *170:23 *296:15 0.0137575
31 *170:23 *771:27 0.0137491
32 *98:11 *170:11 0.0258097
33 *102:17 *170:9 9.61175e-05
34 *144:11 *170:11 0.00127083
35 *150:17 *170:9 0.0005625
36 *152:17 *170:9 0.00144749
37 *159:13 *170:11 0.00047516
38 *169:9 *170:9 0
39 *169:15 *170:23 0.00969534
*RES
1 *921:gpio_analog_pol[43] *170:9 11.353 
2 *170:9 *170:11 317.054 
3 *170:11 *170:17 12.5603 
4 *170:17 *170:19 1091.16 
5 *170:19 *170:21 3.41 
6 *170:21 *170:23 103.391 
7 *170:23 gpio_analog_pol[43] 36.4368 
*END

*D_NET *171 0.0525391
*CONN
*P gpio_analog_pol[4] O
*I *921:gpio_analog_pol[4] O *D CF_CARAVEL_SOC
*CAP
1 gpio_analog_pol[4] 0.00342664
2 *921:gpio_analog_pol[4] 0.011518
3 *171:13 0.0149446
4 gpio_analog_pol[4] gpio_dm0[4] 0
5 gpio_analog_pol[4] gpio_inp_dis[4] 0.00085359
6 gpio_analog_pol[4] *183:9 0
7 gpio_analog_pol[4] *184:9 0.00357376
8 *171:13 gpio_analog_pol[5] 0
9 *171:13 gpio_analog_sel[4] 0.00116591
10 *171:13 *181:11 0
11 *171:13 *260:19 0.00132887
12 *171:13 *266:11 0.0021549
13 *171:13 *312:19 0.00132887
14 *171:13 *532:36 0.00274426
15 *129:11 *171:13 0.00734482
16 *132:11 *171:13 0.0021549
17 *166:9 *171:13 0
*RES
1 *921:gpio_analog_pol[4] *171:13 44.9981 
2 *171:13 gpio_analog_pol[4] 9.03027 
*END

*D_NET *172 0.0291337
*CONN
*P gpio_analog_pol[5] O
*I *921:gpio_analog_pol[5] O *D CF_CARAVEL_SOC
*CAP
1 gpio_analog_pol[5] 0.00950885
2 *921:gpio_analog_pol[5] 0.00950885
3 gpio_analog_pol[5] gpio_dm0[5] 0.000245905
4 gpio_analog_pol[5] gpio_inp_dis[5] 0.0030275
5 gpio_analog_pol[5] *173:9 0
6 gpio_analog_pol[5] *174:11 0.00241228
7 gpio_analog_pol[5] *181:11 0.000313796
8 gpio_analog_pol[5] *224:19 0.000469732
9 gpio_analog_pol[5] *375:49 8.74451e-05
10 gpio_analog_pol[5] *391:43 0.000320474
11 *104:25 gpio_analog_pol[5] 0.00323884
12 *171:13 gpio_analog_pol[5] 0
*RES
1 *921:gpio_analog_pol[5] gpio_analog_pol[5] 33.4557 
*END

*D_NET *173 0.0546824
*CONN
*P gpio_analog_pol[6] O
*I *921:gpio_analog_pol[6] O *D CF_CARAVEL_SOC
*CAP
1 gpio_analog_pol[6] 0.00250509
2 *921:gpio_analog_pol[6] 0.00500668
3 *173:18 0
4 *173:13 0.0147734
5 *173:9 0.0172749
6 gpio_analog_pol[6] gpio_dm0[6] 0
7 gpio_analog_pol[6] gpio_inp_dis[6] 0.0042211
8 gpio_analog_pol[6] *782:29 0.000613772
9 *173:9 *174:9 0
10 *173:9 *178:17 6.87506e-05
11 *173:9 *375:49 0.000182055
12 *173:9 *480:9 0.00224992
13 *173:13 *174:11 0
14 *173:13 *242:11 0.0014391
15 gpio_analog_pol[5] *173:9 0
16 *104:25 *173:13 0.00468766
17 *114:11 *173:13 0.00166001
*RES
1 *921:gpio_analog_pol[6] *173:9 15.9292 
2 *173:9 *173:13 44.8985 
3 *173:13 gpio_analog_pol[6] 7.15653 
4 gpio_analog_pol[6] *173:18 0.0854545 
*END

*D_NET *174 0.20095
*CONN
*P gpio_analog_pol[7] O
*I *921:gpio_analog_pol[7] O *D CF_CARAVEL_SOC
*CAP
1 gpio_analog_pol[7] 0.00316085
2 *921:gpio_analog_pol[7] 0.00521134
3 *174:11 0.0338198
4 *174:9 0.0358703
5 gpio_analog_pol[7] gpio_dm0[7] 0.00075948
6 gpio_analog_pol[7] gpio_inp_dis[7] 0.00155571
7 *174:9 *175:9 0
8 *174:9 *206:25 0.000545508
9 *174:9 *480:9 0
10 *174:11 *181:11 0.00138214
11 *174:11 *224:19 0.0142253
12 *174:11 *481:11 0.000395558
13 gpio_analog_en[7] gpio_analog_pol[7] 0
14 gpio_analog_pol[5] *174:11 0.00241228
15 *94:19 *174:11 0.00920114
16 *104:25 *174:11 0.00502042
17 *114:21 *174:11 0.00226726
18 *137:11 *174:11 0.0851227
19 *173:9 *174:9 0
20 *173:13 *174:11 0
*RES
1 *921:gpio_analog_pol[7] *174:9 15.2086 
2 *174:9 *174:11 179.023 
3 *174:11 gpio_analog_pol[7] 11.8269 
*END

*D_NET *175 0.242014
*CONN
*P gpio_analog_pol[8] O
*I *921:gpio_analog_pol[8] O *D CF_CARAVEL_SOC
*CAP
1 gpio_analog_pol[8] 0.00421026
2 *921:gpio_analog_pol[8] 0.00422009
3 *175:11 0.0405302
4 *175:9 0.04054
5 gpio_analog_pol[8] gpio_dm0[8] 0.000473719
6 gpio_analog_pol[8] gpio_inp_dis[8] 0.000377962
7 *175:9 *176:9 0
8 *175:9 *206:25 0.000545508
9 *175:11 *180:11 0.000691078
10 *175:11 *203:11 0.00942575
11 *175:11 *225:19 0.0107909
12 *175:11 *274:93 0.000901073
13 *175:11 *304:11 0.000902502
14 *175:11 *349:11 0.00404043
15 *175:11 *787:37 0.000348479
16 gpio_analog_en[8] gpio_analog_pol[8] 0
17 *128:11 *175:11 0.000325345
18 *131:11 *175:11 0.0202788
19 *135:11 *175:11 0.103264
20 *136:11 *175:11 0
21 *141:29 *175:11 0.000147646
22 *174:9 *175:9 0
*RES
1 *921:gpio_analog_pol[8] *175:9 13.0466 
2 *175:9 *175:11 213.646 
3 *175:11 gpio_analog_pol[8] 13.826 
*END

*D_NET *176 0.259281
*CONN
*P gpio_analog_pol[9] O
*I *921:gpio_analog_pol[9] O *D CF_CARAVEL_SOC
*CAP
1 gpio_analog_pol[9] 0.0032684
2 *921:gpio_analog_pol[9] 0.00505609
3 *176:11 0.0416466
4 *176:9 0.0434343
5 gpio_analog_pol[9] gpio_dm0[9] 0.000578841
6 gpio_analog_pol[9] gpio_inp_dis[9] 0.000262122
7 gpio_analog_pol[9] *268:11 0
8 gpio_analog_pol[9] *311:11 0
9 *176:9 gpio_slow_sel[5] 0
10 *176:11 *181:11 0
11 *176:11 *182:19 0.00832174
12 *176:11 *202:25 0.00226242
13 *176:11 *312:19 0.00942279
14 *176:11 *326:11 0.00124078
15 *176:11 *327:31 0.00100564
16 *176:11 *337:35 0.00083984
17 *176:11 *375:43 0.00237342
18 *176:11 *535:121 0.00552826
19 *176:11 *568:15 0.000110498
20 *176:11 *782:31 0.00121144
21 gpio_analog_en[9] gpio_analog_pol[9] 0.00346514
22 *113:19 *176:11 0.0283831
23 *129:11 *176:11 0.000483193
24 *132:11 *176:11 0.026617
25 *134:9 *176:9 0
26 *136:11 *176:11 0.0664321
27 *161:13 *176:11 0.0073375
28 *175:9 *176:9 0
*RES
1 *921:gpio_analog_pol[9] *176:9 14.1996 
2 *176:9 *176:11 247.524 
3 *176:11 gpio_analog_pol[9] 22.6881 
*END

*D_NET *177 0.164792
*CONN
*P gpio_analog_sel[0] O
*I *921:gpio_analog_sel[0] O *D CF_CARAVEL_SOC
*CAP
1 gpio_analog_sel[0] 0.00363101
2 *921:gpio_analog_sel[0] 0.00487827
3 *177:11 0.0157257
4 *177:9 0.0169729
5 gpio_analog_sel[0] gpio_dm2[0] 0.00271472
6 gpio_analog_sel[0] *242:9 0.000340864
7 *177:9 *188:9 0
8 *177:11 *232:11 0.00854424
9 *177:11 *259:11 0.0611695
10 *177:11 *260:19 0.000118153
11 *177:11 *326:11 0.000118153
12 *177:11 *419:197 0.00582381
13 *177:11 *535:121 0.00386183
14 gpio_analog_en[3] *177:11 0.00588877
15 *94:17 *177:11 0.00433436
16 *100:11 *177:11 0.0278959
17 *132:11 *177:11 0.00277373
18 *133:11 *177:11 0
*RES
1 *921:gpio_analog_sel[0] *177:9 14.0555 
2 *177:9 *177:11 125.011 
3 *177:11 gpio_analog_sel[0] 13.1288 
*END

*D_NET *178 0.312706
*CONN
*P gpio_analog_sel[10] O
*I *921:gpio_analog_sel[10] O *D CF_CARAVEL_SOC
*CAP
1 gpio_analog_sel[10] 0.00340687
2 *921:gpio_analog_sel[10] 0.013558
3 *178:19 0.0374063
4 *178:17 0.0343454
5 *178:11 0.0139039
6 gpio_analog_sel[10] gpio_inp_dis[10] 0
7 gpio_analog_sel[10] *354:15 0
8 *178:11 *179:9 0
9 *178:11 *220:9 0
10 *178:11 *242:11 0.00275163
11 *178:11 *337:11 0.00247638
12 *178:11 *479:9 0.00131115
13 *178:17 *480:9 4.67141e-05
14 *178:19 *267:23 0.131538
15 *178:19 *274:69 0.00169088
16 *178:19 *321:47 0.00432049
17 *178:19 *445:11 0.0392319
18 *178:19 *787:19 0.00600007
19 *178:19 *832:51 0.00249569
20 *94:19 *178:11 0.00268245
21 *104:25 *178:11 0.00138873
22 *114:11 *178:11 0.00342068
23 *166:11 *178:11 0.00827476
24 *169:11 *178:11 0.00238695
25 *173:9 *178:17 6.87506e-05
*RES
1 *921:gpio_analog_sel[10] *178:11 49.459 
2 *178:11 *178:17 7.69577 
3 *178:17 *178:19 1641.84 
4 *178:19 gpio_analog_sel[10] 10.995 
*END

*D_NET *179 0.428202
*CONN
*P gpio_analog_sel[11] O
*I *921:gpio_analog_sel[11] O *D CF_CARAVEL_SOC
*CAP
1 gpio_analog_sel[11] 0.00497452
2 *921:gpio_analog_sel[11] 0.00379732
3 *179:11 0.0638499
4 *179:9 0.0626727
5 gpio_analog_sel[11] gpio_dm2[11] 0
6 gpio_analog_sel[11] *355:15 0
7 *179:9 *180:9 0
8 *179:11 *180:11 0
9 *179:11 *223:19 0.00211867
10 *179:11 *226:11 0
11 *179:11 *270:19 0.00233129
12 *179:11 *288:57 0.000417938
13 *179:11 *288:67 0.0282812
14 *179:11 *530:113 0.0514764
15 *179:11 *831:75 0.00136299
16 *90:11 *179:11 0
17 *93:11 *179:11 0.0391178
18 *98:11 *179:11 0.00101206
19 *101:11 *179:11 0.00346409
20 *130:11 *179:11 0.00974952
21 *134:11 *179:11 0.138043
22 *138:11 *179:11 0.0036155
23 *144:11 *179:11 0.00541775
24 *159:13 *179:11 0.00548912
25 *170:11 *179:11 0.00100993
26 *178:11 *179:9 0
*RES
1 *921:gpio_analog_sel[11] *179:9 11.7494 
2 *179:9 *179:11 356.721 
3 *179:11 gpio_analog_sel[11] 15.2767 
*END

*D_NET *180 0.395499
*CONN
*P gpio_analog_sel[12] O
*I *921:gpio_analog_sel[12] O *D CF_CARAVEL_SOC
*CAP
1 gpio_analog_sel[12] 0.00351153
2 *921:gpio_analog_sel[12] 0.00305723
3 *180:11 0.0779132
4 *180:9 0.0774589
5 gpio_analog_sel[12] gpio_dm2[12] 0.00339189
6 gpio_analog_sel[12] gpio_holdover[12] 0
7 *180:9 gpio_slow_sel[4] 0.00559877
8 *180:11 *216:13 0.00240918
9 *180:11 *246:21 0.000436465
10 *180:11 *304:11 0.00096608
11 *180:11 *444:11 0.0402309
12 *115:11 *180:11 0.0021995
13 *130:11 *180:11 0
14 *134:11 *180:11 0
15 *135:11 *180:11 0.155046
16 *136:11 *180:11 0
17 *141:15 *180:11 0.00852347
18 *155:11 *180:11 0.0140647
19 *175:11 *180:11 0.000691078
20 *179:9 *180:9 0
21 *179:11 *180:11 0
*RES
1 *921:gpio_analog_sel[12] *180:9 12.7583 
2 *180:9 *180:11 391.557 
3 *180:11 gpio_analog_sel[12] 13.8291 
*END

*D_NET *181 0.479291
*CONN
*P gpio_analog_sel[13] O
*I *921:gpio_analog_sel[13] O *D CF_CARAVEL_SOC
*CAP
1 gpio_analog_sel[13] 0.00391936
2 *921:gpio_analog_sel[13] 0.0047916
3 *181:11 0.0811355
4 *181:9 0.0820078
5 *181:9 gpio_slow_sel[4] 0
6 *181:9 *182:11 0
7 *181:11 gpio_analog_sel[4] 0
8 *181:11 *202:11 0.00654673
9 *181:11 *202:25 0.00151357
10 *181:11 *288:11 0.00163685
11 *181:11 *307:11 0.0259287
12 *181:11 *326:11 0.0015588
13 *181:11 *375:53 0.000447736
14 *181:11 *481:11 0.00255269
15 *181:11 *535:121 0.0124387
16 gpio_analog_en[4] *181:9 0.00113104
17 gpio_analog_pol[5] *181:11 0.000313796
18 *94:17 *181:9 8.63428e-05
19 *94:17 *181:11 6.3852e-05
20 *104:11 *181:11 0.0022875
21 *104:25 *181:11 0.000104478
22 *113:11 *181:11 0.00503918
23 *113:19 *181:11 0.0201828
24 *129:11 *181:11 0
25 *133:11 *181:11 0.0128207
26 *136:11 *181:11 0
27 *137:11 *181:11 0.205719
28 *161:13 *181:11 0.00518693
29 *166:11 *181:11 0.000495711
30 *171:13 *181:11 0
31 *174:11 *181:11 0.00138214
32 *176:11 *181:11 0
*RES
1 *921:gpio_analog_sel[13] *181:9 14.9203 
2 *181:9 *181:11 459.845 
3 *181:11 gpio_analog_sel[13] 12.4003 
*END

*D_NET *182 0.577047
*CONN
*P gpio_analog_sel[14] O
*I *921:gpio_analog_sel[14] O *D CF_CARAVEL_SOC
*CAP
1 gpio_analog_sel[14] 0.002951
2 *921:gpio_analog_sel[14] 0.00854152
3 *182:19 0.0526945
4 *182:17 0.0500826
5 *182:11 0.00888062
6 gpio_analog_sel[14] gpio_dm2[14] 0.00376321
7 gpio_analog_sel[14] *358:23 0
8 *182:11 *183:9 0
9 *182:11 *203:11 0.00983704
10 *182:11 *315:11 0.00305328
11 *182:11 *321:11 0.000972456
12 *182:17 gpio_inp_dis[5] 0.000199245
13 *182:19 *202:25 0.000497929
14 *182:19 *312:19 0.164703
15 *182:19 *535:121 0.229731
16 gpio_analog_en[4] *182:11 0.00103096
17 gpio_analog_en[5] *182:17 0
18 *112:11 *182:11 0.0013103
19 *113:19 *182:19 0.000331525
20 *128:11 *182:11 0.00421366
21 *129:11 *182:11 0.0176128
22 *136:9 *182:17 3.66987e-05
23 *136:11 *182:19 0.0061434
24 *137:9 *182:17 6.13442e-05
25 *161:13 *182:19 0.00207751
26 *176:11 *182:19 0.00832174
27 *181:9 *182:11 0
*RES
1 *921:gpio_analog_sel[14] *182:11 49.8914 
2 *182:11 *182:17 7.69577 
3 *182:17 *182:19 2810.59 
4 *182:19 gpio_analog_sel[14] 12.3236 
*END

*D_NET *183 0.394899
*CONN
*P gpio_analog_sel[15] O
*I *921:gpio_analog_sel[15] O *D CF_CARAVEL_SOC
*CAP
1 gpio_analog_sel[15] 8.02419e-05
2 *921:gpio_analog_sel[15] 0.00645623
3 *183:19 0.13647
4 *183:17 0.145379
5 *183:11 0.0249715
6 *183:9 0.0224386
7 gpio_analog_sel[15] gpio_dm2[15] 0
8 *183:9 gpio_dm0[4] 0.00119936
9 *183:9 *184:9 0
10 *183:11 *201:11 0.0313411
11 *183:11 *269:11 0
12 *183:11 *273:11 0.00330567
13 *183:17 *202:25 2.49817e-05
14 *183:17 *288:65 2.00441e-05
15 *183:17 *692:13 0
16 *183:17 *694:6 0.000407573
17 *183:17 *699:6 0.00629139
18 *183:17 *700:6 0.012311
19 *183:19 *315:27 0
20 gpio_analog_pol[4] *183:9 0
21 *97:15 *183:17 0.00160911
22 *107:15 *183:17 0.000395776
23 *112:15 *183:17 0.000426772
24 *139:17 *183:17 0.00080953
25 *161:15 *183:17 0
26 *162:15 *183:17 0.000961538
27 *182:11 *183:9 0
*RES
1 *921:gpio_analog_sel[15] *183:9 17.9831 
2 *183:9 *183:11 469.446 
3 *183:11 *183:17 35.9099 
4 *183:17 *183:19 2693.41 
5 *183:19 gpio_analog_sel[15] 1.60714 
*END

*D_NET *184 0.526582
*CONN
*P gpio_analog_sel[16] O
*I *921:gpio_analog_sel[16] O *D CF_CARAVEL_SOC
*CAP
1 gpio_analog_sel[16] 0.132072
2 *921:gpio_analog_sel[16] 0.00600455
3 *184:17 0.132072
4 *184:15 0.010472
5 *184:13 0.010472
6 *184:11 0.00800954
7 *184:9 0.0140141
8 gpio_analog_sel[16] gpio_dm2[16] 0
9 *184:9 gpio_inp_dis[4] 0.00484337
10 *184:9 *185:9 0
11 *184:11 *198:11 0.0320658
12 *184:11 *229:11 0.00175192
13 *184:11 *281:11 0.0383798
14 *184:11 *375:35 0.000649877
15 *184:15 *272:15 0.0563018
16 *184:15 *281:15 0.00427093
17 *184:15 *286:15 0
18 gpio_analog_pol[4] *184:9 0.00357376
19 *98:15 *184:15 0.00225213
20 *101:15 *184:15 8.25843e-06
21 *104:31 *184:15 0.000178704
22 *114:23 *184:15 0.011534
23 *142:15 *184:15 0.057656
24 *183:9 *184:9 0
*RES
1 *921:gpio_analog_sel[16] *184:9 20.0731 
2 *184:9 *184:11 479.312 
3 *184:11 *184:13 4.5 
4 *184:13 *184:15 632.214 
5 *184:15 *184:17 4.5 
6 *184:17 gpio_analog_sel[16] 2680.45 
*END

*D_NET *185 0.474314
*CONN
*P gpio_analog_sel[17] O
*I *921:gpio_analog_sel[17] O *D CF_CARAVEL_SOC
*CAP
1 gpio_analog_sel[17] 0.116055
2 *921:gpio_analog_sel[17] 0.000915196
3 *185:17 0.116055
4 *185:15 0.0274627
5 *185:13 0.0274627
6 *185:11 0.0176243
7 *185:9 0.0185394
8 gpio_analog_sel[17] gpio_dm2[17] 0
9 gpio_analog_sel[17] *538:315 0.0312509
10 *185:9 *186:9 0
11 *185:11 *186:11 0.0220846
12 *185:11 *192:11 0.00042239
13 *185:11 *212:19 0.00203767
14 *185:11 *228:11 0.00540224
15 *185:11 *240:11 0
16 *185:11 *274:19 0.00156235
17 *143:15 *185:15 0.0873078
18 *145:15 *185:15 0
19 *170:19 *185:11 0.00013101
20 *184:9 *185:9 0
*RES
1 *921:gpio_analog_sel[17] *185:9 5.62213 
2 *185:9 *185:11 515.589 
3 *185:11 *185:13 3.41 
4 *185:13 *185:15 136.685 
5 *185:15 *185:17 3.41 
6 *185:17 gpio_analog_sel[17] 2638.1 
*END

*D_NET *186 0.487438
*CONN
*P gpio_analog_sel[18] O
*I *921:gpio_analog_sel[18] O *D CF_CARAVEL_SOC
*CAP
1 gpio_analog_sel[18] 0.132324
2 *921:gpio_analog_sel[18] 0.000892195
3 *186:17 0.132324
4 *186:15 0.0648535
5 *186:13 0.0648535
6 *186:11 0.0091228
7 *186:9 0.010015
8 gpio_analog_sel[18] gpio_dm2[18] 0
9 *186:9 *187:9 0
10 *186:11 *187:11 0.0423212
11 *186:11 *192:11 0.00638751
12 *186:11 *212:19 0.00158777
13 *186:11 *228:11 0.000441941
14 *186:11 *240:11 0
15 *186:11 *275:11 0
16 *186:15 *187:15 0
17 *186:15 *274:145 0.00013351
18 *186:15 *330:25 0
19 *150:25 *186:15 9.61986e-05
20 *185:9 *186:9 0
21 *185:11 *186:11 0.0220846
*RES
1 *921:gpio_analog_sel[18] *186:9 5.58453 
2 *186:9 *186:11 527.732 
3 *186:11 *186:13 3.41 
4 *186:13 *186:15 206.23 
5 *186:15 *186:17 3.41 
6 *186:17 gpio_analog_sel[18] 2620.49 
*END

*D_NET *187 0.550124
*CONN
*P gpio_analog_sel[19] O
*I *921:gpio_analog_sel[19] O *D CF_CARAVEL_SOC
*CAP
1 gpio_analog_sel[19] 0.128635
2 *921:gpio_analog_sel[19] 0.000966263
3 *187:17 0.128635
4 *187:15 0.0879617
5 *187:13 0.0879617
6 *187:11 0.00759308
7 *187:9 0.00855934
8 gpio_analog_sel[19] gpio_dm2[19] 0
9 *187:9 *189:9 0
10 *187:9 *334:6 0.000255549
11 *187:11 *189:11 0.0424174
12 *187:11 *192:11 0.00570218
13 *187:11 *228:11 0.000316797
14 *187:11 *240:11 0
15 *187:11 *275:11 0
16 *187:15 *274:145 0.00013351
17 *187:15 *319:15 0
18 *187:15 *538:169 0.00866479
19 *186:9 *187:9 0
20 *186:11 *187:11 0.0423212
21 *186:15 *187:15 0
*RES
1 *921:gpio_analog_sel[19] *187:9 5.72553 
2 *187:9 *187:11 527.732 
3 *187:11 *187:13 3.41 
4 *187:13 *187:15 285.935 
5 *187:15 *187:17 3.41 
6 *187:17 gpio_analog_sel[19] 2614.42 
*END

*D_NET *188 0.125381
*CONN
*P gpio_analog_sel[1] O
*I *921:gpio_analog_sel[1] O *D CF_CARAVEL_SOC
*CAP
1 gpio_analog_sel[1] 0.00450713
2 *921:gpio_analog_sel[1] 0.00436917
3 *188:11 0.0117537
4 *188:9 0.0116157
5 gpio_analog_sel[1] gpio_dm2[1] 0.00224643
6 gpio_analog_sel[1] gpio_holdover[1] 0.000408365
7 gpio_analog_sel[1] *283:9 0.000158874
8 *188:9 *199:9 0
9 *188:11 *243:11 0.000597806
10 *188:11 *287:11 0.0144818
11 *188:11 *304:11 0.0441771
12 *188:11 *484:11 0.000210142
13 gpio_analog_en[2] *188:11 0
14 *131:11 *188:11 0.00268532
15 *155:11 *188:11 0.0281698
16 *177:9 *188:9 0
*RES
1 *921:gpio_analog_sel[1] *188:9 13.0466 
2 *188:9 *188:11 90.1742 
3 *188:11 gpio_analog_sel[1] 14.4198 
*END

*D_NET *189 0.595927
*CONN
*P gpio_analog_sel[20] O
*I *921:gpio_analog_sel[20] O *D CF_CARAVEL_SOC
*CAP
1 gpio_analog_sel[20] 0.000112372
2 *921:gpio_analog_sel[20] 0.000843967
3 *189:19 0.117334
4 *189:17 0.117221
5 *189:15 0.102085
6 *189:13 0.102085
7 *189:11 0.00777233
8 *189:9 0.0086163
9 gpio_analog_sel[20] gpio_dm2[20] 0
10 gpio_analog_sel[20] *321:71 0
11 *189:9 *190:9 0.000228198
12 *189:9 *334:6 0.000255549
13 *189:11 *190:11 0.000261319
14 *189:11 *191:11 0.0427696
15 *189:11 *192:11 0.00581268
16 *189:11 *240:11 0
17 *189:11 *275:11 7.3994e-05
18 *189:15 *231:15 0
19 *189:15 *538:169 0
20 *189:19 *321:71 0
21 *189:19 *722:9 0.0478319
22 *140:93 *189:15 0.000205827
23 *187:9 *189:9 0
24 *187:11 *189:11 0.0424174
*RES
1 *921:gpio_analog_sel[20] *189:9 5.65347 
2 *189:9 *189:11 535.625 
3 *189:11 *189:13 3.41 
4 *189:13 *189:15 326.221 
5 *189:15 *189:17 3.41 
6 *189:17 *189:19 2600.52 
7 *189:19 gpio_analog_sel[20] 1.60714 
*END

*D_NET *190 0.621297
*CONN
*P gpio_analog_sel[21] O
*I *921:gpio_analog_sel[21] O *D CF_CARAVEL_SOC
*CAP
1 gpio_analog_sel[21] 0.000112372
2 *921:gpio_analog_sel[21] 0.000713436
3 *190:19 0.11063
4 *190:17 0.110518
5 *190:15 0.114744
6 *190:13 0.114744
7 *190:11 0.0128594
8 *190:9 0.0135728
9 gpio_analog_sel[21] gpio_dm2[21] 0
10 *190:9 gpio_vtrip_sel[4] 0
11 *190:9 *191:9 0
12 *190:11 *191:11 0.0719777
13 *190:11 *194:35 0.0121023
14 *190:11 *200:11 0.019277
15 *190:11 *275:11 0.0382463
16 *190:11 *285:11 0.00130946
17 *190:15 *191:15 0
18 *190:19 gpio_dm2[21] 0
19 *190:19 *669:7 0
20 *189:9 *190:9 0.000228198
21 *189:11 *190:11 0.000261319
*RES
1 *921:gpio_analog_sel[21] *190:9 5.0832 
2 *190:9 *190:11 890.196 
3 *190:11 *190:13 3.41 
4 *190:13 *190:15 366.362 
5 *190:15 *190:17 3.41 
6 *190:17 *190:19 2243.52 
7 *190:19 gpio_analog_sel[21] 1.60714 
*END

*D_NET *191 0.701511
*CONN
*P gpio_analog_sel[22] O
*I *921:gpio_analog_sel[22] O *D CF_CARAVEL_SOC
*CAP
1 gpio_analog_sel[22] 0.0863375
2 *921:gpio_analog_sel[22] 0.000841957
3 *191:17 0.0863375
4 *191:15 0.127171
5 *191:13 0.127171
6 *191:11 0.0185227
7 *191:9 0.0193647
8 gpio_analog_sel[22] gpio_dm2[22] 0
9 gpio_analog_sel[22] *539:431 0
10 gpio_analog_sel[22] *708:7 0.106056
11 *191:9 gpio_vtrip_sel[4] 0.000285736
12 *191:9 *192:9 0
13 *191:11 *192:11 0.0139318
14 *191:11 *200:11 0.000194444
15 *191:11 *240:11 0
16 *191:15 *234:15 0
17 *191:15 *538:233 0.000330908
18 *140:113 *191:15 0.000217818
19 *189:11 *191:11 0.0427696
20 *190:9 *191:9 0
21 *190:11 *191:11 0.0719777
22 *190:15 *191:15 0
*RES
1 *921:gpio_analog_sel[22] *191:9 5.36833 
2 *191:9 *191:11 890.196 
3 *191:11 *191:13 3.41 
4 *191:13 *191:15 406.719 
5 *191:15 *191:17 3.41 
6 *191:17 gpio_analog_sel[22] 2238.6 
*END

*D_NET *192 0.661334
*CONN
*P gpio_analog_sel[23] O
*I *921:gpio_analog_sel[23] O *D CF_CARAVEL_SOC
*CAP
1 gpio_analog_sel[23] 0.0021993
2 *921:gpio_analog_sel[23] 0.00107672
3 *192:19 0.0981252
4 *192:17 0.0959259
5 *192:15 0.140028
6 *192:13 0.140028
7 *192:11 0.035374
8 *192:9 0.0364507
9 gpio_analog_sel[23] gpio_dm2[23] 0
10 *192:9 *193:7 6.40458e-05
11 *192:9 *334:6 0.000255549
12 *192:11 *194:35 0.0447202
13 *192:11 *205:23 0.000110007
14 *192:11 *228:11 0.0209193
15 *192:11 *237:19 0.00729337
16 *192:11 *285:11 0.00591929
17 *192:15 *713:11 0
18 *192:19 *322:371 0.000588758
19 *192:19 *324:19 0
20 *192:19 *722:17 0
21 *185:11 *192:11 0.00042239
22 *186:11 *192:11 0.00638751
23 *187:11 *192:11 0.00570218
24 *189:11 *192:11 0.00581268
25 *191:9 *192:9 0
26 *191:11 *192:11 0.0139318
*RES
1 *921:gpio_analog_sel[23] *192:9 5.6895 
2 *192:9 *192:11 197.347 
3 *192:11 *192:13 3.41 
4 *192:13 *192:15 447.113 
5 *192:15 *192:17 3.41 
6 *192:17 *192:19 1956.39 
7 *192:19 gpio_analog_sel[23] 42.9732 
*END

*D_NET *193 0.912914
*CONN
*P gpio_analog_sel[24] O
*I *921:gpio_analog_sel[24] O *D CF_CARAVEL_SOC
*CAP
1 gpio_analog_sel[24] 0.000277499
2 *921:gpio_analog_sel[24] 0.0001525
3 *193:63 0.0817489
4 *193:61 0.0939406
5 *193:37 0.132985
6 *193:35 0.120516
7 *193:33 0.00293831
8 *193:31 0.00451031
9 *193:19 0.00238015
10 *193:9 0.00738115
11 *193:7 0.00672551
12 gpio_analog_sel[24] gpio_dm2[24] 0
13 gpio_analog_sel[24] gpio_inp_dis[24] 0
14 gpio_analog_sel[24] *237:23 1.20849e-05
15 *193:9 *204:9 0.00533307
16 *193:9 *209:11 0.000220203
17 *193:9 *211:9 0.00631268
18 *193:9 *321:37 0.000342774
19 *193:19 *205:23 0.000484535
20 *193:19 *334:30 5.11642e-05
21 *193:31 *197:11 0.000441572
22 *193:31 *205:23 0.000255552
23 *193:31 *285:11 0.0040416
24 *193:37 *205:53 0.117424
25 *193:37 *705:35 0.0809801
26 *193:61 *203:15 0.000624134
27 *193:61 *205:53 0.000300584
28 *193:61 *286:35 0.00209309
29 *193:61 *322:317 0
30 *193:61 *392:23 0.000170155
31 *193:61 *407:19 0.000364303
32 *193:61 *689:11 0.000379721
33 *193:61 *691:11 0.000934108
34 *193:61 *705:21 9.40346e-05
35 *193:61 *764:21 0.000391856
36 *193:61 *782:15 0
37 *193:61 *832:39 0.000337535
38 *193:63 gpio_analog_sel[28] 0
39 *193:63 gpio_vtrip_sel[24] 0.00101463
40 *193:63 *286:41 0.081075
41 *193:63 *325:167 0
42 *193:63 *459:11 0.000382188
43 *193:63 *459:13 0.128606
44 *193:63 *466:11 0
45 *104:31 *193:37 0
46 *109:11 *193:9 0
47 *117:39 *193:61 0.000145859
48 *140:27 *193:33 0.000632765
49 *142:11 *193:9 0
50 *142:11 *193:33 0.0124444
51 *143:11 *193:9 9.4069e-05
52 *145:9 *193:19 0.000116148
53 *145:11 *193:9 2.69575e-05
54 *148:9 *193:31 0
55 *149:33 *193:31 0.00141388
56 *149:35 *193:33 0.00455835
57 *149:43 *193:63 0
58 *152:9 *193:31 0
59 *153:25 *193:31 8.79646e-05
60 *156:11 *193:33 0.00210998
61 *164:13 *193:31 2.63501e-05
62 *164:15 *193:9 0
63 *164:15 *193:19 0.00178926
64 *165:9 *193:31 0
65 *167:15 *193:19 0.0031814
66 *192:9 *193:7 6.40458e-05
*RES
1 *921:gpio_analog_sel[24] *193:7 3.82987 
2 *193:7 *193:9 195.929 
3 *193:9 *193:19 49.7636 
4 *193:19 *193:31 19.3292 
5 *193:31 *193:33 153.884 
6 *193:33 *193:35 4.5 
7 *193:35 *193:37 2591.73 
8 *193:37 *193:61 29.9614 
9 *193:61 *193:63 2523.41 
10 *193:63 gpio_analog_sel[24] 4.08445 
*END

*D_NET *194 0.64798
*CONN
*P gpio_analog_sel[25] O
*I *921:gpio_analog_sel[25] O *D CF_CARAVEL_SOC
*CAP
1 gpio_analog_sel[25] 1.6097e-05
2 *921:gpio_analog_sel[25] 0.000312879
3 *194:39 0.15062
4 *194:37 0.150604
5 *194:35 0.0624944
6 *194:33 0.066355
7 *194:11 0.00457745
8 *194:9 0.00102965
9 *194:9 *195:9 1.44355e-05
10 *194:9 *334:6 0.000255549
11 *194:11 *274:27 0.00300824
12 *194:11 *327:19 0.00424945
13 *194:11 *328:11 0.00072132
14 *194:11 *334:6 0.000365629
15 *194:33 *207:9 0
16 *194:33 *208:7 3.47462e-06
17 *194:33 *208:9 0.000104416
18 *194:33 *209:11 0
19 *194:33 *212:9 0.000360771
20 *194:33 *213:9 0.000360771
21 *194:33 *214:9 0.000207921
22 *194:33 *327:19 0.000512548
23 *194:33 *328:11 0.000506662
24 *194:33 *334:6 0.00690264
25 *194:33 *831:81 0
26 *194:35 *205:23 0.000155846
27 *194:35 *237:19 0
28 *194:35 *275:11 0.00342578
29 *194:35 *285:11 0.126232
30 *194:39 gpio_dm2[25] 0
31 *194:39 *274:265 0
32 *194:39 *326:35 0
33 *109:21 *194:33 0.0077115
34 *139:9 *194:33 0
35 *140:17 *194:33 4.98422e-05
36 *141:9 *194:33 0
37 *190:11 *194:35 0.0121023
38 *192:11 *194:35 0.0447202
*RES
1 *921:gpio_analog_sel[25] *194:9 3.99593 
2 *194:9 *194:11 52.3571 
3 *194:11 *194:33 41.3492 
4 *194:33 *194:35 355.975 
5 *194:35 *194:37 3.41 
6 *194:37 *194:39 478.042 
7 *194:39 gpio_analog_sel[25] 0.05405 
*END

*D_NET *195 0.819059
*CONN
*P gpio_analog_sel[26] O
*I *921:gpio_analog_sel[26] O *D CF_CARAVEL_SOC
*CAP
1 gpio_analog_sel[26] 0.00265644
2 *921:gpio_analog_sel[26] 0.00638534
3 *195:35 0.0944381
4 *195:33 0.0917816
5 *195:31 0.0483861
6 *195:29 0.0490337
7 *195:15 0.00509719
8 *195:13 0.00444957
9 *195:11 0.00709312
10 *195:9 0.0134785
11 gpio_analog_sel[26] *327:67 0.000637718
12 *195:9 *196:9 0
13 *195:11 *263:11 0.00177451
14 *195:11 *277:11 0.00025109
15 *195:11 *692:15 0.0328494
16 *195:11 *787:27 0.00597311
17 *195:15 *196:15 0.000177778
18 *195:15 *437:31 0
19 *195:29 *198:25 8.92565e-05
20 *195:29 *198:27 6.72288e-05
21 *195:29 *205:53 4.73891e-05
22 *195:31 *196:27 0.000823441
23 *195:31 *198:27 0.0470431
24 *195:31 *281:27 0.0262999
25 *195:31 *753:19 0.0101605
26 *195:31 *754:27 0.0191439
27 *195:35 *327:67 0.30309
28 *97:15 *195:15 0.00382851
29 *107:15 *195:15 1.21258e-05
30 *112:15 *195:15 0.000731727
31 *116:53 *195:29 9.69044e-05
32 *117:35 *195:29 0
33 *117:39 *195:29 5.11566e-05
34 *140:73 *195:15 0
35 *140:75 *195:29 0
36 *151:13 gpio_analog_sel[26] 0
37 *157:39 *195:29 6.1633e-06
38 *157:39 *195:31 0.0209096
39 *165:11 *195:11 0.0221799
40 *194:9 *195:9 1.44355e-05
*RES
1 *921:gpio_analog_sel[26] *195:9 16.9742 
2 *195:9 *195:11 416.777 
3 *195:11 *195:13 4.5 
4 *195:13 *195:15 88.0179 
5 *195:15 *195:29 20.2209 
6 *195:29 *195:31 275.862 
7 *195:31 *195:33 3.41 
8 *195:33 *195:35 469.057 
9 *195:35 gpio_analog_sel[26] 6.20635 
*END

*D_NET *196 0.862263
*CONN
*P gpio_analog_sel[27] O
*I *921:gpio_analog_sel[27] O *D CF_CARAVEL_SOC
*CAP
1 gpio_analog_sel[27] 0.00127747
2 *921:gpio_analog_sel[27] 0.00754187
3 *196:31 0.0945833
4 *196:29 0.0933059
5 *196:27 0.0207364
6 *196:25 0.02095
7 *196:15 0.00303496
8 *196:13 0.00282138
9 *196:11 0.00807063
10 *196:9 0.0156125
11 gpio_analog_sel[27] *328:65 0.00178437
12 gpio_analog_sel[27] *410:11 3.03519e-05
13 gpio_analog_sel[27] *811:11 5.15849e-05
14 *196:11 *206:35 0.00106337
15 *196:11 *230:11 0.00704968
16 *196:11 *283:11 0.000221853
17 *196:11 *337:27 0.0104077
18 *196:11 *698:15 0.0324271
19 *196:15 *198:15 0.0100222
20 *196:25 *198:25 8.26425e-05
21 *196:25 *392:35 0.000134703
22 *196:27 *198:27 0.0855106
23 *196:27 *242:27 0.0858807
24 *196:27 *281:27 0.0311299
25 *196:27 *326:31 0.0174053
26 *196:27 *831:41 0.000359688
27 *196:31 *240:15 0
28 *196:31 *328:65 0.302803
29 *95:17 *196:25 9.58914e-05
30 *112:15 *196:15 0.00677437
31 *116:53 *196:25 9.2692e-05
32 *158:22 *196:27 0
33 *195:9 *196:9 0
34 *195:15 *196:15 0.000177778
35 *195:31 *196:27 0.000823441
*RES
1 *921:gpio_analog_sel[27] *196:9 19.0641 
2 *196:9 *196:11 410.402 
3 *196:11 *196:13 4.5 
4 *196:13 *196:15 97.875 
5 *196:15 *196:25 15.3947 
6 *196:25 *196:27 243.369 
7 *196:27 *196:29 3.41 
8 *196:29 *196:31 471.904 
9 *196:31 gpio_analog_sel[27] 11.5159 
*END

*D_NET *197 0.526592
*CONN
*P gpio_analog_sel[28] O
*I *921:gpio_analog_sel[28] O *D CF_CARAVEL_SOC
*CAP
1 gpio_analog_sel[28] 0.00147534
2 *921:gpio_analog_sel[28] 0.000853365
3 *197:15 0.152295
4 *197:13 0.15082
5 *197:11 0.0545772
6 *197:9 0.0554305
7 gpio_analog_sel[28] gpio_dm2[28] 0
8 gpio_analog_sel[28] *325:167 0.00228353
9 *197:9 *198:9 0.000172266
10 *197:9 *274:27 0.000111764
11 *197:9 *334:6 0.000255549
12 *197:11 *200:11 0.0361805
13 *197:11 *206:27 4.1361e-05
14 *197:11 *214:11 0.000936029
15 *197:11 *227:11 0.0338651
16 *197:11 *274:51 0.00136688
17 *197:11 *285:11 0.0217437
18 *197:11 *831:83 0.0128045
19 *197:15 gpio_oeb[28] 0
20 *197:15 *322:375 0.000298084
21 *197:15 *538:289 0.000639961
22 *197:15 *681:21 0
23 *140:265 *197:15 0
24 *149:35 *197:11 0
25 *167:13 *197:11 0
26 *167:15 *197:11 0
27 *193:31 *197:11 0.000441572
28 *193:63 gpio_analog_sel[28] 0
*RES
1 *921:gpio_analog_sel[28] *197:9 5.22107 
2 *197:9 *197:11 1574.45 
3 *197:11 *197:13 3.41 
4 *197:13 *197:15 476.984 
5 *197:15 gpio_analog_sel[28] 36.5719 
*END

*D_NET *198 0.629141
*CONN
*P gpio_analog_sel[29] O
*I *921:gpio_analog_sel[29] O *D CF_CARAVEL_SOC
*CAP
1 gpio_analog_sel[29] 0.00143426
2 *921:gpio_analog_sel[29] 0.00803457
3 *198:31 0.134894
4 *198:29 0.13346
5 *198:27 0.0167688
6 *198:25 0.0170063
7 *198:15 0.0034485
8 *198:13 0.00321094
9 *198:11 0.00713966
10 *198:9 0.0151742
11 gpio_analog_sel[29] *330:33 0.000302444
12 gpio_analog_sel[29] *447:17 0
13 gpio_analog_sel[29] *548:23 0.000248504
14 *198:11 *229:11 0.0108353
15 *198:11 *375:35 0.0117795
16 *198:15 *436:23 0.000248427
17 *198:25 *392:35 0
18 *198:25 *744:11 1.00452e-05
19 *198:31 gpio_holdover[29] 0.00183185
20 *198:31 *330:33 0.0811302
21 *198:31 *726:21 0
22 *95:17 *198:25 5.01384e-05
23 *112:15 *198:15 6.89735e-05
24 *116:53 *198:25 2.63501e-05
25 *140:229 *198:31 0
26 *157:39 *198:27 0
27 *162:15 *198:15 0.00698566
28 *184:11 *198:11 0.0320658
29 *195:29 *198:25 8.92565e-05
30 *195:29 *198:27 6.72288e-05
31 *195:31 *198:27 0.0470431
32 *196:15 *198:15 0.0100222
33 *196:25 *198:25 8.26425e-05
34 *196:27 *198:27 0.0855106
35 *197:9 *198:9 0.000172266
*RES
1 *921:gpio_analog_sel[29] *198:9 20.1451 
2 *198:9 *198:11 400.384 
3 *198:11 *198:13 4.5 
4 *198:13 *198:15 105.268 
5 *198:15 *198:25 15.6262 
6 *198:25 *198:27 175.294 
7 *198:27 *198:29 3.41 
8 *198:29 *198:31 472.12 
9 *198:31 gpio_analog_sel[29] 13.0522 
*END

*D_NET *199 0.0653672
*CONN
*P gpio_analog_sel[2] O
*I *921:gpio_analog_sel[2] O *D CF_CARAVEL_SOC
*CAP
1 gpio_analog_sel[2] 0.00318374
2 *921:gpio_analog_sel[2] 0.00569117
3 *199:11 0.0209779
4 *199:9 0.0234853
5 gpio_analog_sel[2] gpio_dm2[2] 0.00121148
6 gpio_analog_sel[2] *267:21 0
7 *199:9 *210:9 0
8 *199:11 *242:11 0.00116167
9 *199:11 *298:11 0.00193102
10 *199:11 *303:11 0
11 *199:11 *337:11 0.00509312
12 *114:11 *199:11 0.00125699
13 *166:11 *199:11 0.00137474
14 *188:9 *199:9 0
*RES
1 *921:gpio_analog_sel[2] *199:9 15.9292 
2 *199:9 *199:11 56.4031 
3 *199:11 gpio_analog_sel[2] 10.8164 
*END

*D_NET *200 0.501311
*CONN
*P gpio_analog_sel[30] O
*I *921:gpio_analog_sel[30] O *D CF_CARAVEL_SOC
*CAP
1 gpio_analog_sel[30] 0.000629726
2 *921:gpio_analog_sel[30] 0.000914779
3 *200:15 0.152614
4 *200:13 0.151985
5 *200:11 0.0248423
6 *200:9 0.0257571
7 gpio_analog_sel[30] *332:25 3.43075e-05
8 gpio_analog_sel[30] *459:13 0.00107465
9 *200:9 *201:9 0.000190558
10 *200:9 *274:27 0.000111764
11 *200:9 *334:6 0.000255549
12 *200:11 *227:11 0.0330753
13 *200:11 *275:11 0.0345064
14 *200:11 *285:11 0.0196678
15 *200:15 gpio_vtrip_sel[30] 0
16 *200:15 *728:21 0
17 *190:11 *200:11 0.019277
18 *191:11 *200:11 0.000194444
19 *197:11 *200:11 0.0361805
*RES
1 *921:gpio_analog_sel[30] *200:9 5.3652 
2 *200:9 *200:11 1194.98 
3 *200:11 *200:13 3.41 
4 *200:13 *200:15 477.633 
5 *200:15 gpio_analog_sel[30] 20.7298 
*END

*D_NET *201 0.468288
*CONN
*P gpio_analog_sel[31] O
*I *921:gpio_analog_sel[31] O *D CF_CARAVEL_SOC
*CAP
1 gpio_analog_sel[31] 0.000108994
2 *921:gpio_analog_sel[31] 0.00686008
3 *201:15 0.157796
4 *201:13 0.157687
5 *201:11 0.0369669
6 *201:9 0.043827
7 *201:9 *202:9 0
8 *201:11 *218:11 0
9 *201:11 *269:11 0
10 *201:11 *273:11 0.0335104
11 *201:15 gpio_dm2[31] 0
12 *201:15 gpio_holdover[31] 0
13 *201:15 *770:17 0
14 *183:11 *201:11 0.0313411
15 *200:9 *201:9 0.000190558
*RES
1 *921:gpio_analog_sel[31] *201:9 17.9111 
2 *201:9 *201:11 1011.62 
3 *201:11 *201:13 3.41 
4 *201:13 *201:15 490.978 
5 *201:15 gpio_analog_sel[31] 0.27965 
*END

*D_NET *202 0.632232
*CONN
*P gpio_analog_sel[32] O
*I *921:gpio_analog_sel[32] O *D CF_CARAVEL_SOC
*CAP
1 gpio_analog_sel[32] 0.00146844
2 *921:gpio_analog_sel[32] 0.00535197
3 *202:27 0.0887291
4 *202:25 0.0895224
5 *202:11 0.00859295
6 *202:9 0.0116832
7 gpio_analog_sel[32] *334:44 0.000433441
8 gpio_analog_sel[32] *447:17 0
9 gpio_analog_sel[32] *548:23 0.000248511
10 *202:9 *203:9 0
11 *202:11 *307:11 0.0100947
12 *202:25 *312:19 0.000556996
13 *202:25 *535:121 0.000497929
14 *202:25 *692:13 3.25379e-05
15 *202:27 *316:15 0.0122829
16 *202:27 *334:36 0.0689987
17 *202:27 *334:44 0.000130772
18 *202:27 *361:33 0.00864253
19 *202:27 *681:15 0.000543613
20 *202:27 *685:15 0.000825017
21 *202:27 *723:15 0.00288636
22 *202:27 *725:13 0.00110765
23 *202:27 *726:15 0
24 *202:27 *728:15 0.00293555
25 *202:27 *729:15 0.00138783
26 *202:27 *730:19 0
27 *202:27 *753:15 0.042935
28 *202:27 *754:23 0.0397224
29 *202:27 *757:15 0.00464383
30 *202:27 *759:15 0.0138844
31 *202:27 *761:15 0.0971879
32 *202:27 *873:61 0.0683359
33 *104:11 *202:11 0.00572696
34 *104:27 *202:25 0.000171395
35 *113:11 *202:11 0.0313103
36 *113:11 *202:25 0.000482836
37 *113:19 *202:25 2.05803e-05
38 *161:15 *202:25 1.14338e-05
39 *176:11 *202:25 0.00226242
40 *181:11 *202:11 0.00654673
41 *181:11 *202:25 0.00151357
42 *182:19 *202:25 0.000497929
43 *183:17 *202:25 2.49817e-05
44 *201:9 *202:9 0
*RES
1 *921:gpio_analog_sel[32] *202:9 14.8122 
2 *202:9 *202:11 383.839 
3 *202:11 *202:25 19.6222 
4 *202:25 *202:27 484.803 
5 *202:27 gpio_analog_sel[32] 12.9958 
*END

*D_NET *203 0.885303
*CONN
*P gpio_analog_sel[33] O
*I *921:gpio_analog_sel[33] O *D CF_CARAVEL_SOC
*CAP
1 gpio_analog_sel[33] 0.0115943
2 *921:gpio_analog_sel[33] 0.00513481
3 *203:15 0.0504957
4 *203:13 0.0389014
5 *203:11 0.00912628
6 *203:9 0.0142611
7 gpio_analog_sel[33] gpio_dm2[33] 0
8 gpio_analog_sel[33] *247:19 0.00196713
9 gpio_analog_sel[33] *363:11 0.00215656
10 gpio_analog_sel[33] *374:11 0.0126644
11 gpio_analog_sel[33] *376:11 0.00154479
12 gpio_analog_sel[33] *453:25 0.000110498
13 gpio_analog_sel[33] *458:11 0.00199303
14 gpio_analog_sel[33] *472:25 0.000635471
15 gpio_analog_sel[33] *737:31 0.000159635
16 *203:9 *204:7 0
17 *203:11 *225:19 0.00583739
18 *203:11 *274:91 0.000147552
19 *203:11 *315:11 0.000855372
20 *203:11 *321:11 0.000155438
21 *203:15 *205:53 0.000381138
22 *203:15 *246:21 4.65519e-05
23 *203:15 *691:11 0.277897
24 *203:15 *705:21 0.0498477
25 *203:15 *745:11 0.0144373
26 *203:15 *832:39 0.305146
27 *203:15 *832:49 0.00082621
28 *104:31 *203:15 0.00789981
29 *112:11 *203:11 0.00547012
30 *114:23 *203:15 0
31 *128:11 *203:11 0.00942326
32 *129:11 *203:11 0.00953768
33 *136:11 *203:11 0.00251912
34 *139:11 *203:11 0.00440076
35 *141:29 *203:11 0.000165782
36 *141:29 *203:15 0.0186452
37 *162:11 *203:11 0.00103158
38 *175:11 *203:11 0.00942575
39 *182:11 *203:11 0.00983704
40 *193:61 *203:15 0.000624134
41 *202:9 *203:9 0
*RES
1 *921:gpio_analog_sel[33] *203:9 13.479 
2 *203:9 *203:11 68.9741 
3 *203:11 *203:13 3.41 
4 *203:13 *203:15 473.813 
5 *203:15 gpio_analog_sel[33] 46.354 
*END

*D_NET *204 0.717834
*CONN
*P gpio_analog_sel[34] O
*I *921:gpio_analog_sel[34] O *D CF_CARAVEL_SOC
*CAP
1 gpio_analog_sel[34] 0.000432615
2 *921:gpio_analog_sel[34] 0.000118666
3 *204:45 0.00610659
4 *204:43 0.0126495
5 *204:33 0.058093
6 *204:31 0.0521853
7 *204:21 0.00306888
8 *204:19 0.00202792
9 *204:17 0.00104316
10 *204:15 0.00131908
11 *204:9 0.00341172
12 *204:7 0.00322759
13 gpio_analog_sel[34] gpio_dm2[34] 0
14 gpio_analog_sel[34] gpio_inp_dis[34] 6.74423e-05
15 *204:7 *205:23 0
16 *204:9 *208:9 0.000110498
17 *204:9 *211:9 0.0023663
18 *204:9 *288:25 1.94879e-05
19 *204:9 *327:19 0.00549703
20 *204:9 *327:25 0.00018053
21 *204:17 *288:45 0.000214676
22 *204:17 *334:30 0.000185417
23 *204:17 *787:49 0.00070879
24 *204:17 *788:37 0.00153697
25 *204:17 *788:53 1.09232e-05
26 *204:21 *241:19 0.00155138
27 *204:21 *788:37 0.000405595
28 *204:21 *831:69 0.00131543
29 *204:31 *274:125 0.000420952
30 *204:31 *326:15 0.000766001
31 *204:31 *436:23 0
32 *204:31 *692:13 0.000152412
33 *204:31 *698:13 0
34 *204:33 *456:15 0.00289491
35 *204:33 *690:11 0.251864
36 *204:33 *693:11 0.0102664
37 *204:33 *699:6 0.0283865
38 *204:33 *731:6 0.000209261
39 *204:33 *732:6 0.00219583
40 *204:33 *733:6 0.0231734
41 *204:33 *735:11 0.000620103
42 *204:33 *736:11 0.108412
43 *204:33 *739:6 0.00339271
44 *204:33 *740:11 0.000327766
45 *204:33 *741:6 0.00407126
46 *204:43 *206:51 8.60828e-05
47 *204:43 *325:165 0.000213823
48 *204:43 *690:21 0.000430564
49 *204:43 *731:14 0
50 *204:43 *733:6 0.00493093
51 *204:43 *734:11 0.00555993
52 *204:45 *206:59 0.000907006
53 *204:45 *291:27 0.00482909
54 *204:45 *322:293 0.0150258
55 *204:45 *459:13 0.0264211
56 *97:15 *204:33 0.0175897
57 *107:15 *204:33 7.15503e-05
58 *109:21 *204:9 0.000232046
59 *109:23 *204:21 0.00205549
60 *112:15 *204:33 0.00118256
61 *116:27 *204:17 0.000815901
62 *140:17 *204:9 0.00258953
63 *140:17 *204:15 1.02504e-05
64 *140:25 *204:15 0.000543226
65 *140:25 *204:17 0.00107438
66 *145:11 *204:9 0
67 *146:13 *204:9 0.000213953
68 *147:11 *204:9 0.000799713
69 *147:11 *204:15 0.000428587
70 *150:19 *204:21 0.00408428
71 *151:9 *204:15 0.000225073
72 *151:9 *204:17 0.00105352
73 *151:9 *204:21 0.0108238
74 *157:13 *204:17 0.00307268
75 *162:15 *204:33 0.0119996
76 *163:33 *204:43 0
77 *163:35 *204:45 0.00022276
78 *193:9 *204:9 0.00533307
79 *203:9 *204:7 0
*RES
1 *921:gpio_analog_sel[34] *204:7 3.68573 
2 *204:7 *204:9 165.393 
3 *204:9 *204:15 13.5179 
4 *204:15 *204:17 62.0536 
5 *204:17 *204:19 0.535714 
6 *204:19 *204:21 132.938 
7 *204:21 *204:31 36.4821 
8 *204:31 *204:33 2587.62 
9 *204:33 *204:43 31.508 
10 *204:43 *204:45 329.804 
11 *204:45 gpio_analog_sel[34] 4.43695 
*END

*D_NET *205 1.05357
*CONN
*P gpio_analog_sel[35] O
*I *921:gpio_analog_sel[35] O *D CF_CARAVEL_SOC
*CAP
1 gpio_analog_sel[35] 0.00370051
2 *921:gpio_analog_sel[35] 0.00934698
3 *205:65 0.0153802
4 *205:63 0.0132742
5 *205:57 0.00492561
6 *205:55 0.0033311
7 *205:53 0.0473231
8 *205:51 0.0473231
9 *205:49 0.00139619
10 *205:47 0.00242977
11 *205:39 0.00210453
12 *205:31 0.0122674
13 *205:23 0.0205434
14 gpio_analog_sel[35] gpio_dm2[35] 0.000528714
15 gpio_analog_sel[35] *761:9 0
16 *205:23 *206:27 0.000523315
17 *205:23 *207:11 0.000123605
18 *205:23 *209:11 0.000931713
19 *205:23 *213:11 0.000375714
20 *205:23 *214:11 0.00325092
21 *205:23 *228:11 0.000110007
22 *205:23 *235:11 0.000110007
23 *205:23 *274:51 0.000894415
24 *205:23 *285:11 0.00681145
25 *205:23 *321:37 0.00527217
26 *205:31 *328:51 0
27 *205:31 *392:35 0.000269139
28 *205:39 *206:43 0.00348707
29 *205:39 *283:11 0.00085606
30 *205:39 *327:59 0.000889342
31 *205:47 gpio_dm2[6] 0.000141188
32 *205:47 *206:43 0.000316034
33 *205:47 *283:11 0.000932184
34 *205:49 gpio_ib_mode_sel[6] 0.00263339
35 *205:49 *218:11 0.000725863
36 *205:49 *273:11 0
37 *205:49 *274:119 6.27272e-06
38 *205:49 *789:27 0.00307354
39 *205:53 *246:21 5.00194e-05
40 *205:53 *392:23 0.164715
41 *205:53 *661:15 0.000859476
42 *205:53 *672:11 1.14892e-05
43 *205:53 *683:11 0
44 *205:53 *691:11 0.000441432
45 *205:53 *705:21 0.0482723
46 *205:53 *705:35 0.0182069
47 *205:53 *765:17 0.000282044
48 *205:53 *832:37 0.00159902
49 *205:53 *832:39 0.305303
50 *205:53 *832:49 0.000563913
51 *205:57 *404:11 0.0162251
52 *205:57 *691:15 0.000734934
53 *205:57 *789:19 0.0148297
54 *205:63 *378:9 0.000206312
55 *205:65 *398:19 0.00577566
56 *205:65 *412:11 0.00426354
57 *205:65 *422:11 0.0284691
58 *205:65 *437:11 0.000540065
59 *205:65 *769:11 0
60 *205:65 *813:11 0.00624816
61 *205:65 *814:11 0.0052713
62 *109:21 *205:23 0
63 *116:53 *205:31 0.000756493
64 *117:35 *205:31 0.000202501
65 *117:39 *205:53 0.0800841
66 *141:15 *205:53 0.00063243
67 *141:29 *205:53 0.0108835
68 *148:9 *205:23 9.90517e-05
69 *158:22 *205:31 0.00193044
70 *167:15 *205:23 0.00134778
71 *192:11 *205:23 0.000110007
72 *193:19 *205:23 0.000484535
73 *193:31 *205:23 0.000255552
74 *193:37 *205:53 0.117424
75 *193:61 *205:53 0.000300584
76 *194:35 *205:23 0.000155846
77 *195:29 *205:53 4.73891e-05
78 *203:15 *205:53 0.000381138
79 *204:7 *205:23 0
*RES
1 *921:gpio_analog_sel[35] *205:23 37.9554 
2 *205:23 *205:31 37.2995 
3 *205:31 *205:39 48.0714 
4 *205:39 *205:47 19.897 
5 *205:47 *205:49 55.9821 
6 *205:49 *205:51 3.41 
7 *205:51 *205:53 486.353 
8 *205:53 *205:55 3.41 
9 *205:55 *205:57 202.911 
10 *205:57 *205:63 9.92983 
11 *205:63 *205:65 58.5338 
12 *205:65 gpio_analog_sel[35] 10.818 
*END

*D_NET *206 1.07799
*CONN
*P gpio_analog_sel[36] O
*I *921:gpio_analog_sel[36] O *D CF_CARAVEL_SOC
*CAP
1 gpio_analog_sel[36] 0.000458543
2 *921:gpio_analog_sel[36] 0.00428415
3 *206:59 0.0111002
4 *206:57 0.0171564
5 *206:51 0.0110302
6 *206:49 0.00451554
7 *206:47 0.0395995
8 *206:45 0.0395995
9 *206:43 0.0035513
10 *206:41 0.00390499
11 *206:35 0.00185607
12 *206:33 0.00765261
13 *206:27 0.00716227
14 *206:25 0.00251688
15 *206:19 0.00264042
16 *206:17 0.00541973
17 gpio_analog_sel[36] gpio_dm2[36] 0
18 *206:17 *207:9 0.000182546
19 *206:17 *288:25 0.000130418
20 *206:17 *321:37 0.000130418
21 *206:17 *683:15 0.000590181
22 *206:19 *314:19 0
23 *206:19 *337:19 0.00148935
24 *206:19 *351:11 0.00028732
25 *206:19 *699:10 0.00455459
26 *206:27 *274:51 0.00613535
27 *206:33 *327:29 0.00575622
28 *206:35 *230:11 0.0072078
29 *206:35 *337:27 0.00521211
30 *206:43 *230:11 0
31 *206:43 *274:119 2.17243e-05
32 *206:43 *274:123 0.00108787
33 *206:43 *283:11 0
34 *206:43 *392:57 0.000238444
35 *206:43 *436:27 0.00983958
36 *206:43 *571:39 0.000891489
37 *206:47 *228:25 0.0128509
38 *206:47 *230:21 0
39 *206:47 *247:15 0.300516
40 *206:47 *274:135 0.000812962
41 *206:47 *286:35 0.0546977
42 *206:47 *321:67 0.0718082
43 *206:47 *375:31 0.304969
44 *206:51 *375:27 0.000432524
45 *206:51 *454:17 0
46 *206:51 *472:27 0.00994901
47 *206:51 *541:127 0
48 *206:51 *544:25 4.74263e-05
49 *206:51 *737:17 0
50 *206:51 *737:31 0.00125054
51 *206:51 *756:6 0.00196713
52 *206:57 gpio_dm0[33] 0.00711935
53 *206:57 *390:9 0.00659814
54 *206:57 *454:23 0.000141947
55 *206:57 *543:37 0
56 *206:59 *322:293 0.0294099
57 *206:59 *459:13 0.00570755
58 gpio_analog_en[33] *206:57 0.000293114
59 gpio_analog_pol[33] *206:57 0
60 *102:11 *206:17 0.000296678
61 *110:11 *206:17 0.00149405
62 *163:35 *206:59 0.0476618
63 *167:15 *206:27 0.00624942
64 *174:9 *206:25 0.000545508
65 *175:9 *206:25 0.000545508
66 *196:11 *206:35 0.00106337
67 *197:11 *206:27 4.1361e-05
68 *204:43 *206:51 8.60828e-05
69 *204:45 *206:59 0.000907006
70 *205:23 *206:27 0.000523315
71 *205:39 *206:43 0.00348707
72 *205:47 *206:43 0.000316034
*RES
1 *921:gpio_analog_sel[36] *206:17 37.2048 
2 *206:17 *206:19 55.9821 
3 *206:19 *206:25 11.0469 
4 *206:25 *206:27 76.625 
5 *206:27 *206:33 21.4965 
6 *206:33 *206:35 89.9821 
7 *206:35 *206:41 7.44353 
8 *206:41 *206:43 144.625 
9 *206:43 *206:45 3.41 
10 *206:45 *206:47 472.3 
11 *206:47 *206:49 3.41 
12 *206:49 *206:51 141.589 
13 *206:51 *206:57 25.6043 
14 *206:57 *206:59 595.125 
15 *206:59 gpio_analog_sel[36] 4.50588 
*END

*D_NET *207 0.981491
*CONN
*P gpio_analog_sel[37] O
*I *921:gpio_analog_sel[37] O *D CF_CARAVEL_SOC
*CAP
1 gpio_analog_sel[37] 0.00419382
2 *921:gpio_analog_sel[37] 0.000557369
3 *207:51 0.0141693
4 *207:49 0.0111617
5 *207:39 0.0119159
6 *207:37 0.011773
7 *207:31 0.0216569
8 *207:29 0.021439
9 *207:23 0.00936573
10 *207:21 0.00854039
11 *207:19 0.0314957
12 *207:17 0.0340596
13 *207:11 0.004339
14 *207:9 0.00233245
15 gpio_analog_sel[37] gpio_dm2[37] 0.000766048
16 gpio_analog_sel[37] gpio_holdover[37] 0.00100638
17 *207:11 *209:11 0.00103977
18 *207:19 gpio_dm2[2] 0.00105605
19 *207:19 *247:11 0.0607214
20 *207:19 *254:11 0.00154152
21 *207:19 *270:17 0.00299152
22 *207:19 *430:27 0.00916208
23 *207:19 *445:19 0
24 *207:19 *530:113 0
25 *207:19 *567:18 0
26 *207:23 *335:17 0.0581934
27 *207:23 *353:31 0.0670808
28 *207:23 *830:15 0.00460428
29 *207:23 *856:11 0.00171919
30 *207:23 *864:11 0.0140218
31 *207:29 gpio_dm1[43] 0
32 *207:31 gpio_out[42] 0.000237224
33 *207:31 *297:22 0.00617671
34 *207:31 *428:23 0.00488617
35 *207:31 *549:13 0.171961
36 *207:31 *692:35 0.00944072
37 *207:31 *693:193 0.0089341
38 *207:31 *697:115 0.00476426
39 *207:31 *848:11 0.171957
40 *207:39 *336:55 0.00878682
41 *207:39 *435:23 0.0231466
42 *207:39 *553:13 1.47872e-05
43 *207:39 *749:27 0.00331949
44 *207:49 *465:21 0.00486803
45 *207:49 *851:15 1.15313e-05
46 *207:49 *853:17 1.31525e-05
47 *207:51 *339:27 0.0492935
48 *207:51 *544:17 0.0502934
49 *98:11 *207:19 0.0143286
50 *116:19 *207:11 0.0104135
51 *119:23 *207:39 0.00744756
52 *119:23 *207:49 0.00486555
53 *119:27 *207:51 0.000488675
54 *144:11 *207:19 0.00422141
55 *167:15 *207:11 0.0104118
56 *194:33 *207:9 0
57 *205:23 *207:11 0.000123605
58 *206:17 *207:9 0.000182546
*RES
1 *921:gpio_analog_sel[37] *207:9 4.64767 
2 *207:9 *207:11 128.384 
3 *207:11 *207:17 48.5536 
4 *207:17 *207:19 1052.91 
5 *207:19 *207:21 4.5 
6 *207:21 *207:23 635.089 
7 *207:23 *207:29 21.2679 
8 *207:29 *207:31 1626.55 
9 *207:31 *207:37 24 
10 *207:37 *207:39 400.571 
11 *207:39 *207:49 19.8026 
12 *207:49 *207:51 627.911 
13 *207:51 gpio_analog_sel[37] 13.2463 
*END

*D_NET *208 0.666197
*CONN
*P gpio_analog_sel[38] O
*I *921:gpio_analog_sel[38] O *D CF_CARAVEL_SOC
*CAP
1 gpio_analog_sel[38] 0.00132895
2 *921:gpio_analog_sel[38] 0.000145152
3 *208:29 0.0183245
4 *208:27 0.0171168
5 *208:21 0.0192362
6 *208:19 0.0192324
7 *208:9 0.0493976
8 *208:7 0.0494252
9 gpio_analog_sel[38] gpio_dm2[38] 0
10 *208:7 *209:9 0
11 *208:9 *209:11 0.0135949
12 *208:9 *211:9 0.00777955
13 *208:9 *328:11 0.00312391
14 *208:9 *334:6 0.0154169
15 *208:9 *340:27 0.00461206
16 *208:9 *341:12 0.0022207
17 *208:9 *341:14 0
18 *208:19 *255:15 1.67582e-05
19 *208:19 *845:9 1.75263e-05
20 *208:21 *289:23 0.138713
21 *208:21 *571:27 0.0882081
22 *208:21 *749:27 0.0187638
23 *208:21 *838:11 0.0309739
24 *208:27 gpio_dm0[40] 7.01812e-05
25 *208:29 *435:23 0.0169911
26 *208:29 *739:130 0.0423817
27 *208:29 *841:11 0.0422542
28 gpio_analog_pol[40] *208:27 0
29 *119:23 *208:29 0.0197094
30 *123:11 *208:9 0.000918676
31 *124:9 *208:9 0.00906081
32 *126:11 *208:9 0.00143966
33 *164:23 *208:9 0.0354537
34 *167:19 *208:19 5.1283e-05
35 *194:33 *208:7 3.47462e-06
36 *194:33 *208:9 0.000104416
37 *204:9 *208:9 0.000110498
*RES
1 *921:gpio_analog_sel[38] *208:7 3.72177 
2 *208:7 *208:9 207.414 
3 *208:9 *208:19 12.0555 
4 *208:19 *208:21 1312.36 
5 *208:21 *208:27 10.6154 
6 *208:27 *208:29 125.515 
7 *208:29 gpio_analog_sel[38] 22.4189 
*END

*D_NET *209 0.724242
*CONN
*P gpio_analog_sel[39] O
*I *921:gpio_analog_sel[39] O *D CF_CARAVEL_SOC
*CAP
1 gpio_analog_sel[39] 0.0020787
2 *921:gpio_analog_sel[39] 0.000332573
3 *209:15 0.0293038
4 *209:13 0.0272251
5 *209:11 0.0458929
6 *209:9 0.0462255
7 gpio_analog_sel[39] gpio_dm2[39] 0
8 *209:9 *211:7 0
9 *209:9 *321:37 2.864e-05
10 *209:11 *214:11 0.0378054
11 *209:11 *343:11 0.00697023
12 *209:11 *344:11 0.00765171
13 *209:11 *345:11 0.00614416
14 *209:15 *213:15 0.0899036
15 *209:15 *253:15 0.171471
16 *209:15 *294:15 0.036624
17 *209:15 *474:15 0.0134408
18 *209:15 *559:19 0.027829
19 *209:15 *847:16 0.0811345
20 *109:11 *209:11 0.00165754
21 *109:21 *209:9 0.000271092
22 *109:21 *209:11 2.14912e-05
23 *116:19 *209:11 0.00145677
24 *121:11 *209:11 0.00129786
25 *164:15 *209:11 0.000895064
26 *164:23 *209:11 0.06438
27 *167:15 *209:11 0.00819467
28 *169:15 *209:15 0.000218972
29 *193:9 *209:11 0.000220203
30 *194:33 *209:11 0
31 *205:23 *209:11 0.000931713
32 *207:11 *209:11 0.00103977
33 *208:7 *209:9 0
34 *208:9 *209:11 0.0135949
*RES
1 *921:gpio_analog_sel[39] *209:9 4.25443 
2 *209:9 *209:11 206.935 
3 *209:11 *209:13 3.41 
4 *209:13 *209:15 271.126 
5 *209:15 gpio_analog_sel[39] 33.3832 
*END

*D_NET *210 0.0434492
*CONN
*P gpio_analog_sel[3] O
*I *921:gpio_analog_sel[3] O *D CF_CARAVEL_SOC
*CAP
1 gpio_analog_sel[3] 0.000857219
2 *921:gpio_analog_sel[3] 0.00813792
3 *210:11 0.00282212
4 *210:9 0.0101028
5 gpio_analog_sel[3] gpio_dm2[3] 0.00146367
6 *210:9 gpio_analog_sel[4] 0
7 *210:11 *262:11 0.0100334
8 *210:11 *782:55 0.010032
9 *199:9 *210:9 0
*RES
1 *921:gpio_analog_sel[3] *210:9 20.6496 
2 *210:9 *210:11 125.196 
3 *210:11 gpio_analog_sel[3] 5.95192 
*END

*D_NET *211 0.562844
*CONN
*P gpio_analog_sel[40] O
*I *921:gpio_analog_sel[40] O *D CF_CARAVEL_SOC
*CAP
1 gpio_analog_sel[40] 0.00254809
2 *921:gpio_analog_sel[40] 0.000147045
3 *211:13 0.0264454
4 *211:11 0.0238973
5 *211:9 0.0348286
6 *211:7 0.0349756
7 gpio_analog_sel[40] gpio_dm2[40] 0
8 *211:7 *212:9 5.22697e-05
9 *211:9 *258:11 0
10 *211:9 *258:15 0
11 *211:9 *300:17 0
12 *211:9 *327:19 0.00977986
13 *211:9 *328:11 0
14 *211:9 *340:11 0
15 *211:9 *340:27 0
16 *211:13 *212:23 0.116817
17 *211:13 *256:15 0.00020664
18 *211:13 *292:15 0.0309146
19 *211:13 *295:15 0.0287807
20 *211:13 *299:23 0.143724
21 *211:13 *815:49 0.00457011
22 *211:13 *839:107 0.00524041
23 *211:13 *839:125 0.00206824
24 *211:13 *858:11 0.00239881
25 *109:11 *211:9 0
26 *124:9 *211:9 0.0786808
27 *126:11 *211:9 0.000309756
28 *193:9 *211:9 0.00631268
29 *204:9 *211:9 0.0023663
30 *208:9 *211:9 0.00777955
31 *209:9 *211:7 0
*RES
1 *921:gpio_analog_sel[40] *211:7 3.7578 
2 *211:7 *211:9 1177.07 
3 *211:9 *211:11 3.41 
4 *211:11 *211:13 227.85 
5 *211:13 gpio_analog_sel[40] 40.4011 
*END

*D_NET *212 0.485471
*CONN
*P gpio_analog_sel[41] O
*I *921:gpio_analog_sel[41] O *D CF_CARAVEL_SOC
*CAP
1 gpio_analog_sel[41] 0.00262073
2 *921:gpio_analog_sel[41] 0.00208438
3 *212:23 0.022305
4 *212:21 0.0196843
5 *212:19 0.0265881
6 *212:17 0.0275729
7 *212:11 0.00375511
8 *212:9 0.0048547
9 gpio_analog_sel[41] gpio_dm2[41] 0
10 *212:9 *213:9 0
11 *212:9 *288:25 0.00139732
12 *212:9 *321:37 0
13 *212:11 *534:15 0
14 *212:17 gpio_vtrip_sel[4] 0.00170135
15 *212:19 *228:11 0.00870416
16 *212:19 *249:11 0.0240818
17 *212:19 *255:11 0
18 *212:19 *274:19 0.00918376
19 *212:19 *275:11 0
20 *212:19 *289:11 0.00151877
21 *212:19 *295:11 0
22 *212:19 *325:11 0.0187818
23 *212:23 *256:15 0.000276186
24 *212:23 *258:31 0.00308014
25 *212:23 *539:43 0.00113088
26 *212:23 *815:49 0.00983033
27 *212:23 *839:17 0.0556734
28 *212:23 *839:39 0.00770037
29 *212:23 *839:65 0.0191777
30 *212:23 *839:83 0.0135862
31 *212:23 *858:11 0.0248358
32 *91:11 *212:11 0.000902703
33 *107:11 *212:11 0.00717542
34 *118:11 *212:19 0.0249594
35 *118:107 *212:23 0.00123453
36 *165:21 gpio_analog_sel[41] 5.5927e-05
37 *170:19 *212:19 0.0201627
38 *185:11 *212:19 0.00203767
39 *186:11 *212:19 0.00158777
40 *194:33 *212:9 0.000360771
41 *211:7 *212:9 5.22697e-05
42 *211:13 *212:23 0.116817
*RES
1 *921:gpio_analog_sel[41] *212:9 8.68027 
2 *212:9 *212:11 88.1607 
3 *212:11 *212:17 9.6776 
4 *212:17 *212:19 1090.55 
5 *212:19 *212:21 3.41 
6 *212:21 *212:23 186.411 
7 *212:23 gpio_analog_sel[41] 41.5618 
*END

*D_NET *213 0.441355
*CONN
*P gpio_analog_sel[42] O
*I *921:gpio_analog_sel[42] O *D CF_CARAVEL_SOC
*CAP
1 gpio_analog_sel[42] 0.00206818
2 *921:gpio_analog_sel[42] 0.000783369
3 *213:15 0.0164248
4 *213:13 0.0143566
5 *213:11 0.0250277
6 *213:9 0.0258111
7 gpio_analog_sel[42] gpio_holdover[42] 0
8 gpio_analog_sel[42] *345:27 0
9 gpio_analog_sel[42] *541:15 0
10 gpio_analog_sel[42] *560:25 0.00033463
11 gpio_analog_sel[42] *740:167 0
12 *213:9 *214:9 0
13 *213:9 *288:25 0
14 *213:11 *214:11 0.0108087
15 *213:11 *227:11 0
16 *213:11 *274:51 0.000784336
17 *213:11 *294:11 0
18 *213:11 *346:11 0.0240602
19 *213:11 *831:83 0.00379437
20 *213:15 *253:15 0.000101852
21 *213:15 *474:15 0.0193095
22 *213:15 *480:15 0.0178112
23 *116:11 *213:11 0.00239294
24 *167:15 *213:11 0.096747
25 *169:15 *213:15 0.0900988
26 *194:33 *213:9 0.000360771
27 *205:23 *213:11 0.000375714
28 *209:15 *213:15 0.0899036
29 *212:9 *213:9 0
*RES
1 *921:gpio_analog_sel[42] *213:9 5.00487 
2 *213:9 *213:11 1190.73 
3 *213:11 *213:13 3.41 
4 *213:13 *213:15 142.595 
5 *213:15 gpio_analog_sel[42] 34.4189 
*END

*D_NET *214 0.350792
*CONN
*P gpio_analog_sel[43] O
*I *921:gpio_analog_sel[43] O *D CF_CARAVEL_SOC
*CAP
1 gpio_analog_sel[43] 0.0398546
2 *921:gpio_analog_sel[43] 0.00070963
3 *214:11 0.0731866
4 *214:9 0.0340417
5 gpio_analog_sel[43] gpio_dm2[43] 0
6 gpio_analog_sel[43] *252:15 0.00027891
7 gpio_analog_sel[43] *322:57 0.00114562
8 gpio_analog_sel[43] *322:101 0.000630901
9 gpio_analog_sel[43] *397:173 0.00351911
10 gpio_analog_sel[43] *408:97 0.00353331
11 gpio_analog_sel[43] *419:175 0.000243388
12 gpio_analog_sel[43] *419:191 0.000446897
13 gpio_analog_sel[43] *444:15 0.00847631
14 gpio_analog_sel[43] *444:37 0.0018259
15 gpio_analog_sel[43] *529:9 0.00899599
16 gpio_analog_sel[43] *530:91 0.000496734
17 gpio_analog_sel[43] *530:107 0.000456867
18 gpio_analog_sel[43] *532:30 0.00207208
19 gpio_analog_sel[43] *535:59 0.00061638
20 gpio_analog_sel[43] *535:91 0.00191808
21 gpio_analog_sel[43] *535:111 0.000238403
22 gpio_analog_sel[43] *536:63 0.0017438
23 gpio_analog_sel[43] *540:18 0.00150577
24 gpio_analog_sel[43] *551:121 0.00335222
25 gpio_analog_sel[43] *561:12 0.00170505
26 gpio_analog_sel[43] *562:119 0.00326999
27 gpio_analog_sel[43] *563:10 0.000779808
28 gpio_analog_sel[43] *566:13 5.97516e-05
29 gpio_analog_sel[43] *697:109 0.00213782
30 gpio_analog_sel[43] *740:79 0.00696711
31 gpio_analog_sel[43] *741:148 0.000598175
32 *214:11 *285:11 0.0605581
33 *214:11 *289:11 0.0220897
34 *214:11 *346:11 0.00783716
35 *214:11 *831:83 0.000836768
36 *116:11 *214:11 0.000716961
37 *118:27 gpio_analog_sel[43] 0.00093713
38 *194:33 *214:9 0.000207921
39 *197:11 *214:11 0.000936029
40 *205:23 *214:11 0.00325092
41 *209:11 *214:11 0.0378054
42 *213:9 *214:9 0
43 *213:11 *214:11 0.0108087
*RES
1 *921:gpio_analog_sel[43] *214:9 4.8999 
2 *214:9 *214:11 207.467 
3 *214:11 gpio_analog_sel[43] 31.8396 
*END

*D_NET *215 0.0310217
*CONN
*P gpio_analog_sel[4] O
*I *921:gpio_analog_sel[4] O *D CF_CARAVEL_SOC
*CAP
1 gpio_analog_sel[4] 0.0112079
2 *921:gpio_analog_sel[4] 0.0112079
3 *215:18 0
4 gpio_analog_sel[4] gpio_dm2[4] 0.00131451
5 gpio_analog_sel[4] *216:9 0
6 gpio_analog_sel[4] *259:11 0.00249134
7 gpio_analog_sel[4] *260:19 0.000200642
8 gpio_analog_sel[4] *312:19 0.000319936
9 gpio_analog_sel[4] *326:11 0.000144274
10 gpio_analog_sel[4] *535:121 0.000144274
11 *94:17 gpio_analog_sel[4] 0.00217676
12 *129:11 gpio_analog_sel[4] 0.00015381
13 *132:11 gpio_analog_sel[4] 0.000494439
14 *171:13 gpio_analog_sel[4] 0.00116591
15 *181:11 gpio_analog_sel[4] 0
16 *210:9 gpio_analog_sel[4] 0
*RES
1 *921:gpio_analog_sel[4] gpio_analog_sel[4] 38.9006 
2 gpio_analog_sel[4] *215:18 0.0626667 
*END

*D_NET *216 0.0784192
*CONN
*P gpio_analog_sel[5] O
*I *921:gpio_analog_sel[5] O *D CF_CARAVEL_SOC
*CAP
1 gpio_analog_sel[5] 0.00545992
2 *921:gpio_analog_sel[5] 0.00399303
3 *216:13 0.0172423
4 *216:9 0.0157754
5 gpio_analog_sel[5] gpio_dm2[5] 0
6 *216:9 *217:9 0
7 *216:13 *223:19 0.00230959
8 *216:13 *246:11 0.00269668
9 *216:13 *270:19 0.00291729
10 gpio_analog_sel[4] *216:9 0
11 *103:11 *216:13 0.00220709
12 *115:11 *216:13 0.000113898
13 *130:11 *216:13 0.0224249
14 *139:9 gpio_analog_sel[5] 0.000870032
15 *155:11 *216:13 0
16 *180:11 *216:13 0.00240918
*RES
1 *921:gpio_analog_sel[5] *216:9 12.1818 
2 *216:9 *216:13 49.5859 
3 *216:13 gpio_analog_sel[5] 11.5659 
*END

*D_NET *217 0.0991301
*CONN
*P gpio_analog_sel[6] O
*I *921:gpio_analog_sel[6] O *D CF_CARAVEL_SOC
*CAP
1 gpio_analog_sel[6] 0.00115523
2 *921:gpio_analog_sel[6] 0.00817024
3 *217:11 0.0116591
4 *217:9 0.0186741
5 gpio_analog_sel[6] gpio_dm2[6] 0.000200786
6 *217:9 *218:9 0
7 *217:11 *262:11 0.0369631
8 *217:11 *392:59 0.00853938
9 *217:11 *782:55 0.013768
10 *216:9 *217:9 0
*RES
1 *921:gpio_analog_sel[6] *217:9 20.6496 
2 *217:9 *217:11 461.554 
3 *217:11 gpio_analog_sel[6] 6.22608 
*END

*D_NET *218 0.221088
*CONN
*P gpio_analog_sel[7] O
*I *921:gpio_analog_sel[7] O *D CF_CARAVEL_SOC
*CAP
1 gpio_analog_sel[7] 0.0028836
2 *921:gpio_analog_sel[7] 0.00645863
3 *218:11 0.036249
4 *218:9 0.039824
5 gpio_analog_sel[7] gpio_dm2[7] 0
6 *218:9 *219:9 0
7 *218:11 *263:11 0.0010335
8 *218:11 *273:11 0
9 *218:11 *306:11 0.097983
10 *218:11 *327:59 0
11 *218:11 *348:11 0.0207516
12 *218:11 *789:27 0.00583481
13 *218:11 *832:59 0.00934405
14 *168:11 *218:11 0
15 *201:11 *218:11 0
16 *205:49 *218:11 0.000725863
17 *217:9 *218:9 0
*RES
1 *921:gpio_analog_sel[7] *218:9 17.3345 
2 *218:9 *218:11 1247.2 
3 *218:11 gpio_analog_sel[7] 9.64142 
*END

*D_NET *219 0.247251
*CONN
*P gpio_analog_sel[8] O
*I *921:gpio_analog_sel[8] O *D CF_CARAVEL_SOC
*CAP
1 gpio_analog_sel[8] 0.00182581
2 *921:gpio_analog_sel[8] 0.00757463
3 *219:11 0.0376533
4 *219:9 0.0434022
5 gpio_analog_sel[8] gpio_dm2[8] 0
6 gpio_analog_sel[8] *747:11 0
7 *219:9 *220:9 0
8 *219:11 gpio_inp_dis[6] 0
9 *219:11 *281:11 0
10 *219:11 *305:11 0.0348672
11 *219:11 *311:11 0.118034
12 *219:11 *375:35 0
13 *219:11 *393:27 0.00389443
14 *219:11 *782:19 0
15 *219:11 *782:29 0
16 *218:9 *219:9 0
*RES
1 *921:gpio_analog_sel[8] *219:9 19.4965 
2 *219:9 *219:11 1443.91 
3 *219:11 gpio_analog_sel[8] 7.51702 
*END

*D_NET *220 0.33358
*CONN
*P gpio_analog_sel[9] O
*I *921:gpio_analog_sel[9] O *D CF_CARAVEL_SOC
*CAP
1 gpio_analog_sel[9] 0.00179153
2 *921:gpio_analog_sel[9] 0.00660136
3 *220:11 0.0276354
4 *220:9 0.0324453
5 gpio_analog_sel[9] gpio_dm2[9] 0.00143861
6 *220:9 *479:9 0.000818488
7 *220:11 *261:11 0.034466
8 *220:11 *269:11 0.131607
9 *220:11 *327:63 0.0963794
10 *220:11 *571:39 0.000397492
11 *178:11 *220:9 0
12 *219:9 *220:9 0
*RES
1 *921:gpio_analog_sel[9] *220:9 18.3435 
2 *220:9 *220:11 1642.45 
3 *220:11 gpio_analog_sel[9] 8.23142 
*END

*D_NET *221 0.0380945
*CONN
*P gpio_dm0[0] O
*I *921:gpio_dm0[0] O *D CF_CARAVEL_SOC
*CAP
1 gpio_dm0[0] 0.0134231
2 *921:gpio_dm0[0] 0.0134231
3 gpio_dm0[0] gpio_dm1[0] 0.0036593
4 gpio_dm0[0] *223:11 0.000656064
5 gpio_dm0[0] *226:11 0.00416359
6 gpio_dm0[0] *232:9 0.000754424
7 gpio_dm0[0] *254:11 0
8 gpio_dm0[0] *442:11 0.000113602
9 gpio_dm0[0] *572:28 0
10 gpio_analog_en[0] gpio_dm0[0] 0.00190134
*RES
1 *921:gpio_dm0[0] gpio_dm0[0] 48.2419 
*END

*D_NET *222 0.41123
*CONN
*P gpio_dm0[10] O
*I *921:gpio_dm0[10] O *D CF_CARAVEL_SOC
*CAP
1 gpio_dm0[10] 0.00234113
2 *921:gpio_dm0[10] 0.00477048
3 *222:19 0.0723877
4 *222:17 0.0810199
5 *222:9 0.0157438
6 gpio_dm0[10] gpio_inp_dis[10] 0
7 *222:9 *223:9 0
8 *222:9 *264:9 0
9 *222:17 *224:15 0
10 *222:17 *232:11 0
11 *222:17 *267:13 2.05803e-05
12 *222:17 *268:9 0
13 *222:17 *298:11 0.00183832
14 *222:17 *771:31 0.000713811
15 *222:19 *241:11 0.0440552
16 *222:19 *263:11 0
17 *222:19 *267:23 0.175251
18 *222:19 *277:11 0.00124167
19 *222:19 *321:55 0.00284819
20 *222:19 *391:41 0.00296338
21 *222:19 *692:23 0
22 gpio_analog_en[10] gpio_dm0[10] 0
23 gpio_analog_pol[10] gpio_dm0[10] 0.00294877
24 *89:11 *222:17 0
25 *133:11 *222:17 0.00107156
26 *169:11 *222:17 0.00201441
*RES
1 *921:gpio_dm0[10] *222:9 15.641 
2 *222:9 *222:17 46.1324 
3 *222:17 *222:19 2459.66 
4 *222:19 gpio_dm0[10] 9.99235 
*END

*D_NET *223 0.4826
*CONN
*P gpio_dm0[11] O
*I *921:gpio_dm0[11] O *D CF_CARAVEL_SOC
*CAP
1 gpio_dm0[11] 0.0040348
2 *921:gpio_dm0[11] 0.00321944
3 *223:19 0.0781728
4 *223:17 0.0743161
5 *223:11 0.0192257
6 *223:9 0.022267
7 *223:9 *224:15 0
8 *223:11 gpio_dm2[2] 0.00380749
9 *223:11 *226:11 0
10 *223:11 *247:11 0.00443142
11 *223:11 *254:11 0.00758056
12 *223:11 *270:17 0.0140083
13 *223:11 *308:11 0.00283588
14 *223:11 *430:27 0.00478789
15 *223:11 *530:113 0.00207308
16 *223:11 *562:123 0.00536472
17 *223:17 gpio_inp_dis[2] 0.000574054
18 *223:17 *321:9 0.000576942
19 *223:19 *270:19 0.195851
20 *223:19 *321:21 0
21 *223:19 *342:11 0.000113898
22 *223:19 *567:18 0
23 *223:19 *832:49 9.99233e-05
24 gpio_analog_en[11] gpio_dm0[11] 0.00378335
25 gpio_analog_en[2] *223:19 0.00209204
26 gpio_analog_pol[11] gpio_dm0[11] 0
27 gpio_dm0[0] *223:11 0.000656064
28 *93:11 *223:19 0
29 *130:11 *223:19 0.0156325
30 *134:11 *223:19 0.00673573
31 *138:11 *223:19 0
32 *141:15 *223:19 0.00433551
33 *144:19 *223:19 0.00159593
34 *179:11 *223:19 0.00211867
35 *216:13 *223:19 0.00230959
36 *222:9 *223:9 0
*RES
1 *921:gpio_dm0[11] *223:9 11.317 
2 *223:9 *223:11 82.8234 
3 *223:11 *223:17 7.76783 
4 *223:17 *223:19 2398.34 
5 *223:19 gpio_dm0[11] 15.1091 
*END

*D_NET *224 0.490255
*CONN
*P gpio_dm0[12] O
*I *921:gpio_dm0[12] O *D CF_CARAVEL_SOC
*CAP
1 gpio_dm0[12] 0.00262867
2 *921:gpio_dm0[12] 0.00898191
3 *224:19 0.0870946
4 *224:17 0.0844659
5 *224:15 0.00898191
6 gpio_dm0[12] gpio_inp_dis[12] 0
7 *224:15 *225:15 0
8 *224:15 *232:11 0.0149568
9 *224:15 *298:9 0
10 *224:15 *303:9 0.000469703
11 *224:19 *307:11 0
12 *224:19 *321:63 0
13 *224:19 *327:39 0
14 *224:19 *375:53 0
15 *224:19 *391:43 0.0135354
16 *224:19 *435:27 0
17 *224:19 *481:11 0
18 *224:19 *771:31 0.00885913
19 gpio_analog_en[12] gpio_dm0[12] 0.000392151
20 gpio_analog_pol[12] gpio_dm0[12] 0.00309531
21 gpio_analog_pol[5] *224:19 0.000469732
22 *89:11 *224:15 0.00373033
23 *89:11 *224:19 0.00395418
24 *94:19 *224:19 0.180286
25 *104:25 *224:19 0.00179642
26 *137:11 *224:19 0.0181568
27 *166:11 *224:19 0.00268245
28 *169:11 *224:19 0.0314924
29 *174:11 *224:19 0.0142253
30 *222:17 *224:15 0
31 *223:9 *224:15 0
*RES
1 *921:gpio_dm0[12] *224:15 49.6464 
2 *224:15 *224:17 3.41 
3 *224:17 *224:19 2893.77 
4 *224:19 gpio_dm0[12] 11.3334 
*END

*D_NET *225 0.416149
*CONN
*P gpio_dm0[13] O
*I *921:gpio_dm0[13] O *D CF_CARAVEL_SOC
*CAP
1 gpio_dm0[13] 0.00256952
2 *921:gpio_dm0[13] 0.00972672
3 *225:19 0.138602
4 *225:17 0.136033
5 *225:15 0.00972672
6 gpio_dm0[13] gpio_inp_dis[13] 0.00277513
7 *225:15 *243:11 0.00575011
8 *225:15 *254:11 0.00183454
9 *225:15 *303:9 0.000112306
10 *225:15 *304:9 0.000290927
11 *225:15 *305:9 0
12 *225:19 *274:45 0.00209549
13 *225:19 *274:91 0.000751943
14 *225:19 *274:93 0.0028551
15 *225:19 *304:11 0.0112897
16 *225:19 *310:11 0
17 *225:19 *315:11 0
18 *225:19 *321:11 0.00846329
19 *225:19 *349:11 0.025202
20 *225:19 *444:11 0
21 *225:19 *484:11 0
22 *225:19 *532:36 0
23 *225:19 *787:37 0.00367536
24 gpio_analog_en[13] gpio_dm0[13] 0
25 gpio_analog_pol[13] gpio_dm0[13] 0.00487826
26 *112:11 *225:19 0.0262149
27 *128:11 *225:19 0.000466433
28 *131:11 *225:19 0
29 *135:11 *225:19 0.006151
30 *139:11 *225:19 5.67492e-05
31 *175:11 *225:19 0.0107909
32 *203:11 *225:19 0.00583739
33 *224:15 *225:15 0
*RES
1 *921:gpio_dm0[13] *225:15 47.3434 
2 *225:15 *225:17 3.41 
3 *225:17 *225:19 3290.23 
4 *225:19 gpio_dm0[13] 13.2056 
*END

*D_NET *226 0.655386
*CONN
*P gpio_dm0[14] O
*I *921:gpio_dm0[14] O *D CF_CARAVEL_SOC
*CAP
1 gpio_dm0[14] 0.00462872
2 *921:gpio_dm0[14] 0.0032138
3 *226:11 0.12726
4 *226:9 0.125845
5 gpio_dm0[14] gpio_dm1[14] 0
6 *226:9 *227:9 0
7 *226:9 *340:27 5.00194e-05
8 *226:11 *308:11 0.193328
9 *226:11 *430:27 0.000650926
10 *226:11 *442:11 0.0487941
11 *226:11 *445:19 0.00134956
12 *226:11 *572:28 0.00881065
13 *226:11 *705:39 0.00127983
14 gpio_analog_en[14] gpio_dm0[14] 0.00210585
15 gpio_analog_pol[14] gpio_dm0[14] 0
16 gpio_dm0[0] *226:11 0.00416359
17 *90:11 *226:11 0.00964994
18 *102:11 *226:11 0.017637
19 *105:27 *226:11 0
20 *106:11 *226:11 0.0400332
21 *106:19 *226:11 0.0256498
22 *110:11 *226:11 0.00589717
23 *110:19 *226:11 0.0339063
24 *140:43 *226:11 0.0011328
25 *179:11 *226:11 0
26 *223:11 *226:11 0
*RES
1 *921:gpio_dm0[14] *226:9 10.9159 
2 *226:9 *226:11 675.575 
3 *226:11 gpio_dm0[14] 25.9005 
*END

*D_NET *227 0.525112
*CONN
*P gpio_dm0[15] O
*I *921:gpio_dm0[15] O *D CF_CARAVEL_SOC
*CAP
1 gpio_dm0[15] 8.6667e-05
2 *921:gpio_dm0[15] 0.000938938
3 *227:19 0.132075
4 *227:17 0.134402
5 *227:11 0.0266385
6 *227:9 0.0251638
7 *227:9 *228:9 0
8 *227:9 *340:27 0.000255549
9 *227:11 *275:11 0.0210119
10 *227:11 *285:11 0.00909471
11 *227:11 *289:11 0.0020766
12 *227:11 *294:11 0.0252427
13 *227:11 *327:11 0.0124381
14 *227:11 *346:11 0.045388
15 *227:11 *831:83 0.00138161
16 *227:17 *328:59 0.00251621
17 *227:17 *745:11 0.00326316
18 *227:19 *274:145 0
19 gpio_analog_en[15] gpio_dm0[15] 0
20 gpio_analog_pol[15] gpio_dm0[15] 0
21 *95:19 *227:19 0
22 *98:15 *227:17 0.00119679
23 *99:15 *227:17 0.00078854
24 *101:15 *227:17 0.000850297
25 *114:23 *227:17 0.0046598
26 *116:11 *227:11 0.00608044
27 *139:19 *227:19 0
28 *141:29 *227:17 0.0013317
29 *142:15 *227:17 0.00129052
30 *197:11 *227:11 0.0338651
31 *200:11 *227:11 0.0330753
32 *213:11 *227:11 0
33 *226:9 *227:9 0
*RES
1 *921:gpio_dm0[15] *227:9 5.29313 
2 *227:9 *227:11 1335.23 
3 *227:11 *227:17 19.9831 
4 *227:17 *227:19 2680.05 
5 *227:19 gpio_dm0[15] 1.60714 
*END

*D_NET *228 0.672696
*CONN
*P gpio_dm0[16] O
*I *921:gpio_dm0[16] O *D CF_CARAVEL_SOC
*CAP
1 gpio_dm0[16] 0.13524
2 *921:gpio_dm0[16] 0.00111095
3 *228:25 0.160257
4 *228:11 0.0674668
5 *228:9 0.0435607
6 gpio_dm0[16] *286:29 2.83284e-06
7 gpio_dm0[16] *679:9 0
8 *228:9 *229:9 0.000180201
9 *228:9 *340:27 0.000201414
10 *228:11 *235:11 0.000284279
11 *228:11 *237:11 0.0360134
12 *228:11 *237:17 0.0111328
13 *228:11 *237:19 0.00657314
14 *228:11 *249:11 0.00076554
15 *228:11 *250:11 0
16 *228:11 *274:19 0.00172228
17 *228:11 *285:11 0
18 *228:11 *289:11 0.00287706
19 *228:11 *325:11 0.00205538
20 *228:11 *740:59 0.0262994
21 *228:25 *229:15 0.000109655
22 *228:25 *230:21 0.000109655
23 *228:25 *230:25 0.00828198
24 *228:25 *244:15 0.000109655
25 *228:25 *246:23 0.000109655
26 *228:25 *247:15 0.0128509
27 *228:25 *375:31 0.0128509
28 *228:25 *391:15 0.000528508
29 *228:25 *782:15 0.00826325
30 *228:25 *787:15 0.0132615
31 *228:25 *788:15 0.0125149
32 *228:25 *831:31 0.0137915
33 gpio_analog_en[16] gpio_dm0[16] 0
34 gpio_analog_pol[16] gpio_dm0[16] 0
35 *127:13 *228:11 0.0220961
36 *141:29 *228:25 0.0145298
37 *158:24 *228:25 0.000109655
38 *170:19 *228:11 0.00868998
39 *185:11 *228:11 0.00540224
40 *186:11 *228:11 0.000441941
41 *187:11 *228:11 0.000316797
42 *192:11 *228:11 0.0209193
43 *205:23 *228:11 0.000110007
44 *206:47 *228:25 0.0128509
45 *212:19 *228:11 0.00870416
46 *227:9 *228:9 0
*RES
1 *921:gpio_dm0[16] *228:9 5.87123 
2 *228:9 *228:11 234.527 
3 *228:11 *228:25 19.388 
4 *228:25 gpio_dm0[16] 2673.92 
*END

*D_NET *229 0.731842
*CONN
*P gpio_dm0[17] O
*I *921:gpio_dm0[17] O *D CF_CARAVEL_SOC
*CAP
1 gpio_dm0[17] 0.131396
2 *921:gpio_dm0[17] 0.00711664
3 *229:17 0.131396
4 *229:15 0.0153014
5 *229:13 0.0153014
6 *229:11 0.033303
7 *229:9 0.0404196
8 *229:9 *230:9 0
9 *229:11 *268:11 0.049235
10 *229:11 *281:11 0
11 *229:11 *375:35 0.013327
12 *229:11 *482:11 0.00523334
13 *229:15 *230:21 0
14 *229:15 *230:25 0.0184301
15 *229:15 *246:23 0.0030708
16 *229:15 *273:15 0.0929079
17 *229:15 *277:23 0.000539725
18 gpio_analog_en[17] gpio_dm0[17] 0
19 gpio_analog_pol[17] gpio_dm0[17] 0
20 *120:11 *229:11 0.0205431
21 *141:29 gpio_dm0[17] 0.000295675
22 *141:31 gpio_dm0[17] 0.0565672
23 *158:24 *229:15 0.08458
24 *184:11 *229:11 0.00175192
25 *198:11 *229:11 0.0108353
26 *228:9 *229:9 0.000180201
27 *228:25 *229:15 0.000109655
*RES
1 *921:gpio_dm0[17] *229:9 20.2893 
2 *229:9 *229:11 1341.3 
3 *229:11 *229:13 3.41 
4 *229:13 *229:15 148.576 
5 *229:15 *229:17 3.41 
6 *229:17 gpio_dm0[17] 2667.85 
*END

*D_NET *230 0.920287
*CONN
*P gpio_dm0[18] O
*I *921:gpio_dm0[18] O *D CF_CARAVEL_SOC
*CAP
1 gpio_dm0[18] 0.000621606
2 *921:gpio_dm0[18] 0.0066872
3 *230:27 0.141405
4 *230:25 0.193218
5 *230:21 0.0600548
6 *230:11 0.0465255
7 *230:9 0.0455928
8 gpio_dm0[18] gpio_inp_dis[18] 0
9 *230:11 *264:11 0.106721
10 *230:11 *283:11 0
11 *230:11 *337:27 0.00276468
12 *230:11 *698:15 0
13 *230:21 *244:15 0.00246186
14 *230:21 *246:23 0.00088326
15 *230:21 *247:15 0
16 *230:21 *391:15 0.00939053
17 *230:21 *391:33 0.00050493
18 *230:21 *536:145 1.99901e-06
19 *230:25 *244:15 0.0165288
20 *230:25 *246:23 0.0185606
21 *230:25 *273:15 0.0175326
22 *230:25 *275:15 0.01432
23 *230:25 *277:23 0.0285067
24 *230:25 *286:35 0.0111477
25 *230:25 *290:15 0.00774003
26 *230:25 *329:64 0.000456528
27 *230:25 *361:33 0.00409714
28 *230:25 *403:15 0.0158851
29 *230:25 *538:153 0.000162764
30 *230:25 *686:11 0.0213969
31 *230:25 *801:15 0.0101924
32 *230:25 *831:31 0.0046159
33 *230:27 gpio_inp_dis[18] 0.000221011
34 gpio_analog_en[18] gpio_dm0[18] 0
35 gpio_analog_en[18] *230:27 0.0559871
36 gpio_analog_pol[18] gpio_dm0[18] 0
37 *141:29 *230:25 4.58851e-05
38 *148:13 *230:25 0.00774003
39 *158:24 *230:25 0.027237
40 *196:11 *230:11 0.00704968
41 *206:35 *230:11 0.0072078
42 *206:43 *230:11 0
43 *206:47 *230:21 0
44 *228:25 *230:21 0.000109655
45 *228:25 *230:25 0.00828198
46 *229:9 *230:9 0
47 *229:15 *230:21 0
48 *229:15 *230:25 0.0184301
*RES
1 *921:gpio_dm0[18] *230:9 19.2803 
2 *230:9 *230:11 1332.8 
3 *230:11 *230:21 32.3967 
4 *230:21 *230:25 22.335 
5 *230:25 *230:27 466.024 
6 *230:27 gpio_dm0[18] 17.9662 
*END

*D_NET *231 0.728529
*CONN
*P gpio_dm0[19] O
*I *921:gpio_dm0[19] O *D CF_CARAVEL_SOC
*CAP
1 gpio_dm0[19] 0.0908506
2 *921:gpio_dm0[19] 0.00138808
3 *231:17 0.0908506
4 *231:15 0.0886861
5 *231:13 0.0886861
6 *231:11 0.0190603
7 *231:9 0.0204484
8 gpio_dm0[19] *759:19 0.0838343
9 *231:9 *233:9 0
10 *231:9 *340:27 0.000201414
11 *231:11 *233:11 0.113546
12 *231:11 *234:11 0.000245979
13 *231:11 *235:11 0.016017
14 *231:11 *238:11 0.000248009
15 *231:11 *278:11 0.0959601
16 *231:11 *325:19 0.017578
17 *231:15 *233:15 0
18 *231:15 *538:169 0.000927869
19 gpio_analog_en[19] gpio_dm0[19] 0
20 gpio_analog_pol[19] gpio_dm0[19] 0
21 *189:15 *231:15 0
*RES
1 *921:gpio_dm0[19] *231:9 6.41173 
2 *231:9 *231:11 1402.02 
3 *231:11 *231:13 3.41 
4 *231:13 *231:15 283.846 
5 *231:15 *231:17 3.41 
6 *231:17 gpio_dm0[19] 2595.6 
*END

*D_NET *232 0.0666494
*CONN
*P gpio_dm0[1] O
*I *921:gpio_dm0[1] O *D CF_CARAVEL_SOC
*CAP
1 gpio_dm0[1] 0.0035963
2 *921:gpio_dm0[1] 0.00385754
3 *232:11 0.0121413
4 *232:9 0.0124026
5 *232:9 *243:9 0
6 *232:11 *259:11 0.0040002
7 *232:11 *419:197 0.000245852
8 *232:11 *532:36 0.00255904
9 gpio_analog_en[1] gpio_dm0[1] 0.00253532
10 gpio_analog_pol[1] gpio_dm0[1] 0
11 gpio_dm0[0] *232:9 0.000754424
12 *89:11 *232:11 0.000944486
13 *100:11 *232:11 0.00011129
14 *177:11 *232:11 0.00854424
15 *222:17 *232:11 0
16 *224:15 *232:11 0.0149568
*RES
1 *921:gpio_dm0[1] *232:9 14.3438 
2 *232:9 *232:11 55.8705 
3 *232:11 gpio_dm0[1] 12.4881 
*END

*D_NET *233 0.738351
*CONN
*P gpio_dm0[20] O
*I *921:gpio_dm0[20] O *D CF_CARAVEL_SOC
*CAP
1 gpio_dm0[20] 0.000112372
2 *921:gpio_dm0[20] 0.00148918
3 *233:19 0.127474
4 *233:17 0.127362
5 *233:15 0.101709
6 *233:13 0.101709
7 *233:11 0.019303
8 *233:9 0.0207921
9 *233:9 *234:9 0
10 *233:9 *340:27 0.000255549
11 *233:11 *235:11 0.000122492
12 *233:11 *236:11 0.00029666
13 *233:11 *238:11 0.00162531
14 *233:11 *239:11 0.013747
15 *233:11 *244:11 0.103558
16 *233:11 *253:11 0.00129519
17 *233:11 *278:11 0.000276215
18 *233:11 *324:11 0.0036764
19 gpio_analog_en[20] gpio_dm0[20] 0
20 gpio_analog_en[20] *233:19 0
21 gpio_analog_pol[20] gpio_dm0[20] 0
22 *101:19 *233:19 0
23 *145:19 gpio_dm0[20] 0
24 *145:19 *233:19 0
25 *231:9 *233:9 0
26 *231:11 *233:11 0.113546
27 *231:15 *233:15 0
*RES
1 *921:gpio_dm0[20] *233:9 6.59033 
2 *233:9 *233:11 1402.62 
3 *233:11 *233:13 3.41 
4 *233:13 *233:15 324.275 
5 *233:15 *233:17 3.41 
6 *233:17 *233:19 2588.38 
7 *233:19 gpio_dm0[20] 1.60714 
*END

*D_NET *234 0.80563
*CONN
*P gpio_dm0[21] O
*I *921:gpio_dm0[21] O *D CF_CARAVEL_SOC
*CAP
1 gpio_dm0[21] 0.000112372
2 *921:gpio_dm0[21] 0.00126888
3 *234:19 0.110038
4 *234:17 0.109925
5 *234:15 0.113925
6 *234:13 0.113925
7 *234:11 0.023859
8 *234:9 0.0251279
9 *234:9 *235:9 0.00041874
10 *234:9 *340:27 0.000255549
11 *234:11 *235:11 0.00182205
12 *234:11 *237:11 0.0103014
13 *234:11 *237:19 0.0107674
14 *234:11 *240:11 0.140688
15 *234:11 *278:11 0.125669
16 *234:11 *325:19 0.0167374
17 *234:15 *538:233 0.000328335
18 *234:19 *670:7 0
19 gpio_analog_en[21] gpio_dm0[21] 0
20 gpio_analog_en[21] *234:19 0
21 gpio_analog_pol[21] gpio_dm0[21] 0
22 *102:27 *234:19 0
23 *140:113 *234:15 0.000215245
24 *146:25 gpio_dm0[21] 0
25 *146:25 *234:19 0
26 *170:19 *234:11 0
27 *191:15 *234:15 0
28 *231:11 *234:11 0.000245979
29 *233:9 *234:9 0
*RES
1 *921:gpio_dm0[21] *234:9 6.37413 
2 *234:9 *234:11 1754.77 
3 *234:11 *234:13 3.41 
4 *234:13 *234:15 364.344 
5 *234:15 *234:17 3.41 
6 *234:17 *234:19 2231.38 
7 *234:19 gpio_dm0[21] 1.60714 
*END

*D_NET *235 1.02335
*CONN
*P gpio_dm0[22] O
*I *921:gpio_dm0[22] O *D CF_CARAVEL_SOC
*CAP
1 gpio_dm0[22] 0.0255495
2 *921:gpio_dm0[22] 0.0010571
3 *235:17 0.0255495
4 *235:15 0.125991
5 *235:13 0.125991
6 *235:11 0.0701018
7 *235:9 0.0711589
8 *235:11 *236:11 0.000662375
9 *235:11 *237:11 0.0873107
10 *235:11 *237:17 0.00616842
11 *235:11 *237:19 0.19726
12 *235:11 *238:11 0.000113204
13 *235:11 *239:11 0.245473
14 *235:11 *240:11 0.00179714
15 *235:11 *278:11 0.0185655
16 *235:11 *282:11 0
17 *235:11 *325:19 0.00182718
18 gpio_analog_en[22] gpio_dm0[22] 0
19 gpio_analog_pol[22] gpio_dm0[22] 0
20 *140:329 *235:15 0
21 *205:23 *235:11 0.000110007
22 *228:11 *235:11 0.000284279
23 *231:11 *235:11 0.016017
24 *233:11 *235:11 0.000122492
25 *234:9 *235:9 0.00041874
26 *234:11 *235:11 0.00182205
*RES
1 *921:gpio_dm0[22] *235:9 5.98403 
2 *235:9 *235:11 608.139 
3 *235:11 *235:13 3.41 
4 *235:13 *235:15 404.665 
5 *235:15 *235:17 3.41 
6 *235:17 gpio_dm0[22] 519.777 
*END

*D_NET *236 0.859887
*CONN
*P gpio_dm0[23] O
*I *921:gpio_dm0[23] O *D CF_CARAVEL_SOC
*CAP
1 gpio_dm0[23] 0.0021993
2 *921:gpio_dm0[23] 0.0015128
3 *236:19 0.0974239
4 *236:17 0.0952246
5 *236:15 0.139514
6 *236:13 0.139514
7 *236:11 0.0802245
8 *236:9 0.0817373
9 *236:9 *237:9 0
10 *236:11 *238:11 0.000110498
11 *236:11 *239:11 0.169543
12 *236:11 *245:11 0
13 *236:11 *250:11 0
14 *236:11 *253:11 0.000994559
15 *236:11 *271:11 0.0118724
16 *236:11 *272:11 0.0128436
17 *236:11 *282:11 0
18 *236:11 *286:11 0.0100111
19 *236:11 *324:11 0.0156261
20 *236:11 *740:75 0.000577539
21 gpio_analog_pol[23] gpio_dm0[23] 0
22 *104:35 gpio_dm0[23] 0
23 *104:35 *236:19 0
24 *148:17 *236:19 0
25 *233:11 *236:11 0.00029666
26 *235:11 *236:11 0.000662375
*RES
1 *921:gpio_dm0[23] *236:9 6.48537 
2 *236:9 *236:11 350.755 
3 *236:11 *236:13 3.41 
4 *236:13 *236:15 445.239 
5 *236:15 *236:17 3.41 
6 *236:17 *236:19 1938.18 
7 *236:19 gpio_dm0[23] 42.9732 
*END

*D_NET *237 0.983978
*CONN
*P gpio_dm0[24] O
*I *921:gpio_dm0[24] O *D CF_CARAVEL_SOC
*CAP
1 gpio_dm0[24] 0.000922588
2 *921:gpio_dm0[24] 0.00111195
3 *237:23 0.150761
4 *237:21 0.149839
5 *237:19 0.0886669
6 *237:17 0.0908878
7 *237:11 0.0276058
8 *237:9 0.0264969
9 *237:9 *238:9 0.00140014
10 *237:9 *340:27 0.000255549
11 *237:11 *240:11 0.00864151
12 *237:19 *240:11 0.0407721
13 *237:23 gpio_inp_dis[24] 0
14 *237:23 *538:369 0.000518586
15 *237:23 *539:421 0.00103885
16 gpio_analog_pol[24] gpio_dm0[24] 0
17 gpio_analog_sel[24] *237:23 1.20849e-05
18 *105:31 gpio_dm0[24] 0.000136114
19 *127:13 *237:11 0.0220909
20 *149:43 gpio_dm0[24] 0
21 *192:11 *237:19 0.00729337
22 *194:35 *237:19 0
23 *228:11 *237:11 0.0360134
24 *228:11 *237:17 0.0111328
25 *228:11 *237:19 0.00657314
26 *234:11 *237:11 0.0103014
27 *234:11 *237:19 0.0107674
28 *235:11 *237:11 0.0873107
29 *235:11 *237:17 0.00616842
30 *235:11 *237:19 0.19726
31 *236:9 *237:9 0
*RES
1 *921:gpio_dm0[24] *237:9 6.26603 
2 *237:9 *237:11 179.521 
3 *237:11 *237:17 23.1303 
4 *237:17 *237:19 467.54 
5 *237:19 *237:21 3.41 
6 *237:21 *237:23 478.462 
7 *237:23 gpio_dm0[24] 21.909 
*END

*D_NET *238 1.15937
*CONN
*P gpio_dm0[25] O
*I *921:gpio_dm0[25] O *D CF_CARAVEL_SOC
*CAP
1 gpio_dm0[25] 0.00215317
2 *921:gpio_dm0[25] 0.00120132
3 *238:27 0.119023
4 *238:25 0.117656
5 *238:15 0.0413059
6 *238:13 0.0405197
7 *238:11 0.00464633
8 *238:9 0.00584765
9 *238:11 *253:11 0.0207527
10 *238:11 *325:19 0.00731414
11 *238:15 *249:15 0.278595
12 *238:15 *340:39 0.0224278
13 *238:15 *364:39 0
14 *238:15 *386:207 0.00036425
15 *238:15 *429:19 0.000631381
16 *238:15 *449:41 0.0287676
17 *238:15 *461:23 0.0146987
18 *238:15 *545:11 0.0064439
19 *238:15 *559:29 0.000203202
20 *238:15 *845:19 0.0126867
21 *238:25 *294:27 1.94879e-05
22 *238:25 *446:25 2.11419e-05
23 *238:25 *461:21 0.00265905
24 *238:25 *559:29 0.00265451
25 *238:27 *402:11 0
26 *238:27 *404:11 0
27 *238:27 *539:175 0.0128298
28 *238:27 *549:25 0.219756
29 *238:27 *693:63 0.00388654
30 *106:23 gpio_dm0[25] 0
31 *150:31 gpio_dm0[25] 0.000598674
32 *164:35 *238:15 0.164818
33 *168:15 *238:15 0.0233902
34 *231:11 *238:11 0.000248009
35 *233:11 *238:11 0.00162531
36 *235:11 *238:11 0.000113204
37 *236:11 *238:11 0.000110498
38 *237:9 *238:9 0.00140014
*RES
1 *921:gpio_dm0[25] *238:9 6.44933 
2 *238:9 *238:11 256.795 
3 *238:11 *238:13 4.5 
4 *238:13 *238:15 2679.21 
5 *238:15 *238:25 15.9678 
6 *238:25 *238:27 3327.27 
7 *238:27 gpio_dm0[25] 8.67792 
*END

*D_NET *239 1.06972
*CONN
*P gpio_dm0[26] O
*I *921:gpio_dm0[26] O *D CF_CARAVEL_SOC
*CAP
1 gpio_dm0[26] 0.00256194
2 *921:gpio_dm0[26] 0.0014238
3 *239:15 0.0972452
4 *239:13 0.0946833
5 *239:11 0.0659716
6 *239:9 0.0673954
7 gpio_dm0[26] gpio_inp_dis[26] 0
8 *239:9 *240:9 0.000309238
9 *239:9 *340:27 0.000255549
10 *239:11 *244:11 0.0139685
11 *239:11 *282:11 0
12 gpio_analog_en[26] gpio_dm0[26] 0.00042967
13 gpio_analog_en[26] *239:15 0
14 gpio_analog_pol[26] gpio_dm0[26] 0.000235023
15 *107:31 *239:15 0.296479
16 *233:11 *239:11 0.013747
17 *235:11 *239:11 0.245473
18 *236:11 *239:11 0.169543
*RES
1 *921:gpio_dm0[26] *239:9 6.5543 
2 *239:9 *239:11 503.204 
3 *239:11 *239:13 3.41 
4 *239:13 *239:15 473.813 
5 *239:15 gpio_dm0[26] 5.99955 
*END

*D_NET *240 0.705527
*CONN
*P gpio_dm0[27] O
*I *921:gpio_dm0[27] O *D CF_CARAVEL_SOC
*CAP
1 gpio_dm0[27] 0.000918671
2 *921:gpio_dm0[27] 0.00100566
3 *240:15 0.151492
4 *240:13 0.150573
5 *240:11 0.0884425
6 *240:9 0.0894482
7 gpio_dm0[27] *459:13 0.00185202
8 *240:9 *241:9 0
9 *240:11 *278:11 0.000304421
10 *240:15 gpio_holdover[27] 0.00155719
11 *240:15 gpio_out[27] 0.00101956
12 gpio_analog_en[27] gpio_dm0[27] 0.000251386
13 gpio_analog_pol[27] gpio_dm0[27] 0
14 *170:19 *240:11 0.0264538
15 *185:11 *240:11 0
16 *186:11 *240:11 0
17 *187:11 *240:11 0
18 *189:11 *240:11 0
19 *191:11 *240:11 0
20 *196:31 *240:15 0
21 *234:11 *240:11 0.140688
22 *235:11 *240:11 0.00179714
23 *237:11 *240:11 0.00864151
24 *237:19 *240:11 0.0407721
25 *239:9 *240:9 0.000309238
*RES
1 *921:gpio_dm0[27] *240:9 5.87593 
2 *240:9 *240:11 2652.12 
3 *240:11 *240:13 3.41 
4 *240:13 *240:15 478.57 
5 *240:15 gpio_dm0[27] 30.444 
*END

*D_NET *241 0.905077
*CONN
*P gpio_dm0[28] O
*I *921:gpio_dm0[28] O *D CF_CARAVEL_SOC
*CAP
1 gpio_dm0[28] 0.00509989
2 *921:gpio_dm0[28] 0.00555085
3 *241:31 0.0953598
4 *241:29 0.0902599
5 *241:27 0.00995203
6 *241:25 0.0102149
7 *241:19 0.0198942
8 *241:17 0.0259305
9 *241:11 0.0347007
10 *241:9 0.0339523
11 *241:9 *242:9 0
12 *241:11 gpio_oeb[3] 0.000129322
13 *241:11 *277:11 0.0850077
14 *241:11 *321:55 0.00284819
15 *241:11 *391:41 0.00296338
16 *241:11 *692:23 0
17 *241:17 gpio_oeb[6] 0
18 *241:25 *245:15 0
19 *241:25 *333:25 2.82126e-05
20 gpio_analog_pol[0] *241:9 0
21 gpio_analog_pol[28] gpio_dm0[28] 0.000629067
22 *109:23 *241:19 0.00041992
23 *109:27 *241:19 0.019072
24 *109:31 gpio_dm0[28] 0.00113475
25 *109:31 *241:31 0
26 *150:19 *241:19 0.00757554
27 *151:9 *241:19 0.027788
28 *152:27 *241:27 0.052105
29 *153:27 *241:27 0.0288038
30 *153:31 gpio_dm0[28] 0.000712596
31 *153:31 *241:31 0.299337
32 *165:11 *241:11 0
33 *204:21 *241:19 0.00155138
34 *222:19 *241:11 0.0440552
35 *240:9 *241:9 0
*RES
1 *921:gpio_dm0[28] *241:9 16.758 
2 *241:9 *241:11 1236.88 
3 *241:11 *241:17 19.9831 
4 *241:17 *241:19 628.518 
5 *241:19 *241:25 7.55163 
6 *241:25 *241:27 106.687 
7 *241:27 *241:29 3.41 
8 *241:29 *241:31 463.075 
9 *241:31 gpio_dm0[28] 13.8548 
*END

*D_NET *242 0.723143
*CONN
*P gpio_dm0[29] O
*I *921:gpio_dm0[29] O *D CF_CARAVEL_SOC
*CAP
1 gpio_dm0[29] 0.00285739
2 *921:gpio_dm0[29] 0.00458924
3 *242:35 0.14541
4 *242:33 0.147975
5 *242:27 0.0384827
6 *242:25 0.0340387
7 *242:15 0.00291735
8 *242:13 0.0019398
9 *242:11 0.0261806
10 *242:9 0.0307698
11 gpio_dm0[29] gpio_inp_dis[29] 0
12 *242:9 gpio_dm2[0] 0.000865996
13 *242:9 *740:73 0
14 *242:11 *274:103 0.00101384
15 *242:11 *337:11 0.00915052
16 *242:11 *531:28 0
17 *242:15 *274:125 0.00763675
18 *242:15 *326:15 0.00700429
19 *242:15 *436:23 0
20 *242:25 *247:15 0.000105325
21 *242:25 *281:19 0.000464796
22 *242:25 *326:19 0.000710457
23 *242:25 *329:58 0.00198377
24 *242:25 *391:15 0.00014707
25 *242:25 *831:31 0.000213361
26 *242:27 *326:23 0.0203666
27 *242:27 *326:31 0.00169881
28 *242:27 *333:19 0
29 *242:33 *281:25 0
30 gpio_analog_pol[29] gpio_dm0[29] 0.000245932
31 gpio_analog_sel[0] *242:9 0.000340864
32 *94:19 *242:11 0.00485322
33 *104:25 *242:11 0.00232789
34 *110:23 gpio_dm0[29] 0
35 *110:23 *242:33 0
36 *110:23 *242:35 0
37 *114:11 *242:11 0.0442367
38 *114:21 *242:11 0.000795634
39 *140:73 *242:25 6.87975e-06
40 *150:27 *242:27 0
41 *152:27 *242:27 0
42 *158:22 *242:27 0
43 *166:11 *242:11 0.00017465
44 *169:11 *242:11 0.0924056
45 *173:13 *242:11 0.0014391
46 *178:11 *242:11 0.00275163
47 *196:27 *242:27 0.0858807
48 *199:11 *242:11 0.00116167
49 *241:9 *242:9 0
*RES
1 *921:gpio_dm0[29] *242:9 15.677 
2 *242:9 *242:11 1250.69 
3 *242:11 *242:13 4.5 
4 *242:13 *242:15 74.875 
5 *242:15 *242:25 38.3635 
6 *242:25 *242:27 175.614 
7 *242:27 *242:33 19.1769 
8 *242:33 *242:35 454.067 
9 *242:35 gpio_dm0[29] 6.00582 
*END

*D_NET *243 0.105687
*CONN
*P gpio_dm0[2] O
*I *921:gpio_dm0[2] O *D CF_CARAVEL_SOC
*CAP
1 gpio_dm0[2] 0.00390047
2 *921:gpio_dm0[2] 0.00367815
3 *243:11 0.0246695
4 *243:9 0.0244471
5 gpio_dm0[2] gpio_inp_dis[2] 0.0042548
6 *243:9 *254:9 0
7 *243:11 gpio_dm1[1] 0.000230359
8 *243:11 *246:11 0.00306786
9 *243:11 *254:11 0
10 *243:11 *259:11 0
11 *243:11 *260:11 0
12 *243:11 *287:11 0.024853
13 *243:11 *342:11 0
14 *243:11 *444:11 0.0096401
15 gpio_analog_en[2] gpio_dm0[2] 0.000556594
16 gpio_analog_en[2] *243:11 4.09261e-05
17 gpio_analog_pol[2] gpio_dm0[2] 0
18 *188:11 *243:11 0.000597806
19 *225:15 *243:11 0.00575011
20 *232:9 *243:9 0
*RES
1 *921:gpio_dm0[2] *243:9 12.7583 
2 *243:9 *243:11 90.7069 
3 *243:11 gpio_dm0[2] 13.8871 
*END

*D_NET *244 0.867485
*CONN
*P gpio_dm0[30] O
*I *921:gpio_dm0[30] O *D CF_CARAVEL_SOC
*CAP
1 gpio_dm0[30] 0.00038478
2 *921:gpio_dm0[30] 0.0016301
3 *244:19 0.0195981
4 *244:17 0.0192133
5 *244:15 0.0623369
6 *244:13 0.0623369
7 *244:11 0.0198715
8 *244:9 0.0215016
9 *244:9 *245:9 0
10 *244:9 *340:27 0.000255549
11 *244:11 *253:11 0.00317552
12 *244:11 *271:11 7.3994e-05
13 *244:11 *272:11 0.0112902
14 *244:11 *324:11 0.0716432
15 *244:15 gpio_ib_mode_sel[32] 0
16 *244:15 *246:23 0.269018
17 *244:15 *247:15 0
18 *244:15 *286:35 0.0135054
19 *244:15 *286:39 0
20 *244:15 *391:15 0.0828701
21 *244:15 *536:151 0.000259182
22 *244:15 *686:11 0
23 *244:15 *801:15 0.0110174
24 *244:19 *286:41 0.0344755
25 *244:19 *325:167 0.0205255
26 *244:19 *466:11 0.00523977
27 gpio_analog_en[30] gpio_dm0[30] 9.339e-05
28 gpio_analog_pol[30] gpio_dm0[30] 6.27088e-05
29 *118:19 *244:11 0
30 *158:24 *244:15 0.000478775
31 *228:25 *244:15 0.000109655
32 *230:21 *244:15 0.00246186
33 *230:25 *244:15 0.0165288
34 *233:11 *244:11 0.103558
35 *239:11 *244:11 0.0139685
*RES
1 *921:gpio_dm0[30] *244:9 6.6624 
2 *244:9 *244:11 1273.91 
3 *244:11 *244:13 3.41 
4 *244:13 *244:15 478.57 
5 *244:15 *244:17 3.41 
6 *244:17 *244:19 804.589 
7 *244:19 gpio_dm0[30] 4.43852 
*END

*D_NET *245 0.724266
*CONN
*P gpio_dm0[31] O
*I *921:gpio_dm0[31] O *D CF_CARAVEL_SOC
*CAP
1 gpio_dm0[31] 0.000688084
2 *921:gpio_dm0[31] 0.00177886
3 *245:15 0.139807
4 *245:13 0.139119
5 *245:11 0.0455001
6 *245:9 0.0472789
7 gpio_dm0[31] *459:13 0.00221225
8 gpio_dm0[31] *553:25 0.00178697
9 *245:9 *246:9 0.000475454
10 *245:9 *340:27 0.000255549
11 *245:9 *740:73 0
12 *245:11 *250:11 0.00163575
13 *245:11 *256:11 0.000612518
14 *245:11 *257:11 0.000662776
15 *245:11 *279:11 0.132962
16 *245:11 *280:19 0.000289513
17 *245:11 *282:11 0.142956
18 *245:11 *291:11 0.0104871
19 *245:11 *296:11 0.00315218
20 *245:11 *309:11 0
21 *245:11 *317:11 0.0127943
22 *245:11 *322:19 0.000783161
23 *245:11 *339:11 0.000958939
24 *245:11 *540:38 0.000958939
25 *245:11 *551:125 0.000958939
26 *245:11 *740:67 0.00222116
27 *245:15 gpio_holdover[31] 1.46191e-05
28 *245:15 *333:27 0
29 *245:15 *729:21 0.0321197
30 *245:15 *770:17 0
31 gpio_analog_pol[31] gpio_dm0[31] 0
32 *91:11 *245:11 0
33 *113:23 gpio_dm0[31] 0.000161917
34 *118:19 *245:11 0.00163398
35 *236:11 *245:11 0
36 *241:25 *245:15 0
37 *244:9 *245:9 0
*RES
1 *921:gpio_dm0[31] *245:9 7.56323 
2 *245:9 *245:11 325.4 
3 *245:11 *245:13 3.41 
4 *245:13 *245:15 479.831 
5 *245:15 gpio_dm0[31] 34.944 
*END

*D_NET *246 0.937438
*CONN
*P gpio_dm0[32] O
*I *921:gpio_dm0[32] O *D CF_CARAVEL_SOC
*CAP
1 gpio_dm0[32] 0.000974106
2 *921:gpio_dm0[32] 0.00366067
3 *246:31 0.0149433
4 *246:29 0.0155644
5 *246:23 0.0350872
6 *246:21 0.0343941
7 *246:11 0.0318393
8 *246:9 0.0345977
9 gpio_dm0[32] *548:23 0.000148676
10 *246:9 gpio_out[0] 0
11 *246:9 *247:9 0
12 *246:11 *270:19 0.0783718
13 *246:11 *342:11 0.00154609
14 *246:11 *444:11 0
15 *246:11 *567:18 0
16 *246:23 *286:35 0.0134987
17 gpio_analog_en[32] gpio_dm0[32] 0.000522919
18 *103:11 *246:11 0.0536847
19 *114:29 *246:29 0.00335409
20 *114:31 *246:31 0.038521
21 *130:11 *246:11 0.00155667
22 *130:11 *246:21 0.000656663
23 *141:15 *246:11 0.00386777
24 *144:19 *246:11 0.00381062
25 *158:24 *246:23 0.266867
26 *158:32 gpio_dm0[32] 0.00155415
27 *180:11 *246:21 0.000436465
28 *203:15 *246:21 4.65519e-05
29 *205:53 *246:21 5.00194e-05
30 *216:13 *246:11 0.00269668
31 *228:25 *246:23 0.000109655
32 *229:15 *246:23 0.0030708
33 *230:21 *246:23 0.00088326
34 *230:25 *246:23 0.0185606
35 *243:11 *246:11 0.00306786
36 *244:15 *246:23 0.269018
37 *245:9 *246:9 0.000475454
*RES
1 *921:gpio_dm0[32] *246:9 12.3619 
2 *246:9 *246:11 1252.05 
3 *246:11 *246:21 13.0234 
4 *246:21 *246:23 422.069 
5 *246:23 *246:29 13.8982 
6 *246:29 *246:31 60.7632 
7 *246:31 gpio_dm0[32] 11.5747 
*END

*D_NET *247 0.998383
*CONN
*P gpio_dm0[33] O
*I *921:gpio_dm0[33] O *D CF_CARAVEL_SOC
*CAP
1 gpio_dm0[33] 0.00429125
2 *921:gpio_dm0[33] 0.00323872
3 *247:19 0.0069614
4 *247:17 0.00267015
5 *247:15 0.0388799
6 *247:13 0.0388799
7 *247:11 0.0211337
8 *247:9 0.0243724
9 *247:9 gpio_oeb[0] 0.00033086
10 *247:9 *248:9 0.000217844
11 *247:11 gpio_dm2[2] 0.000229941
12 *247:11 *274:65 0.000423204
13 *247:11 *288:67 0.0001326
14 *247:11 *430:27 0.0239566
15 *247:11 *442:11 0
16 *247:11 *530:113 0
17 *247:11 *562:123 0.00149537
18 *247:11 *694:10 0.0281473
19 *247:11 *705:39 0
20 *247:11 *716:15 0
21 *247:11 *727:15 0
22 *247:11 *738:15 0.000563085
23 *247:15 *286:35 0.0546977
24 *247:15 *375:31 6.06448e-05
25 *247:15 *391:15 0.00100013
26 *247:15 *391:33 0.000119691
27 *247:15 *787:15 0.000912845
28 *247:15 *788:15 0.000277558
29 *247:15 *831:31 0.295227
30 *247:19 *363:11 0.00638365
31 *247:19 *436:19 0.00976976
32 *247:19 *552:25 0
33 *247:19 *735:23 0.000126561
34 gpio_analog_en[33] gpio_dm0[33] 0.00271663
35 gpio_analog_pol[33] gpio_dm0[33] 0
36 gpio_analog_sel[33] *247:19 0.00196713
37 *90:11 *247:11 0.00131368
38 *98:11 *247:11 0.00853007
39 *144:11 *247:11 0.00549224
40 *159:13 *247:11 0.00230961
41 *170:11 *247:11 0.0258097
42 *206:47 *247:15 0.300516
43 *206:57 gpio_dm0[33] 0.00711935
44 *207:19 *247:11 0.0607214
45 *223:11 *247:11 0.00443142
46 *228:25 *247:15 0.0128509
47 *230:21 *247:15 0
48 *242:25 *247:15 0.000105325
49 *244:15 *247:15 0
50 *246:9 *247:9 0
*RES
1 *921:gpio_dm0[33] *247:9 11.2809 
2 *247:9 *247:11 1256.3 
3 *247:11 *247:13 3.41 
4 *247:13 *247:15 471.579 
5 *247:15 *247:17 3.41 
6 *247:17 *247:19 141.589 
7 *247:19 gpio_dm0[33] 16.8136 
*END

*D_NET *248 0.809681
*CONN
*P gpio_dm0[34] O
*I *921:gpio_dm0[34] O *D CF_CARAVEL_SOC
*CAP
1 gpio_dm0[34] 0.000249839
2 *921:gpio_dm0[34] 0.000968739
3 *248:49 0.0104453
4 *248:35 0.0445738
5 *248:33 0.0357756
6 *248:19 0.0429687
7 *248:17 0.0416545
8 *248:11 0.00570766
9 *248:9 0.0065934
10 gpio_dm0[34] *553:25 0.000391633
11 *248:9 *249:9 0
12 *248:9 *340:27 0.000201414
13 *248:11 *249:11 0.0134963
14 *248:11 *252:11 0.000253528
15 *248:11 *255:11 0.0245604
16 *248:11 *289:11 0.00269293
17 *248:11 *858:9 0
18 *248:17 *252:11 7.1211e-05
19 *248:17 *854:9 7.80059e-05
20 *248:19 *301:17 0.000104932
21 *248:19 *302:21 0.0126563
22 *248:19 *325:23 0.0192338
23 *248:19 *325:103 0.00687578
24 *248:19 *539:21 0.00196149
25 *248:19 *552:13 0.234379
26 *248:19 *565:13 0.00491022
27 *248:19 *737:181 0.000348491
28 *248:19 *740:87 0.00808975
29 *248:19 *784:13 0.00110476
30 *248:19 *843:11 0.0188013
31 *248:19 *861:11 0.147154
32 *248:33 *453:47 0.00060175
33 *248:33 *461:21 0.00013739
34 *248:33 *462:21 0.000200553
35 *248:33 *546:23 0.00044534
36 *248:33 *552:23 0.00178906
37 *248:33 *785:19 0.000255412
38 *248:33 *804:21 9.84683e-05
39 *248:33 *825:23 0.000277887
40 *248:33 *853:17 1.84396e-05
41 *248:33 *855:15 0
42 *248:33 *862:21 5.53357e-05
43 *248:35 *408:11 0.00282603
44 *248:35 *423:11 0.00978277
45 *248:35 *453:41 0.0895244
46 *248:35 *453:47 1.25499e-05
47 *248:35 *468:11 0
48 *248:35 *543:31 0
49 *248:35 *737:65 0
50 *248:35 *793:11 0.00528444
51 *248:35 *855:15 0
52 *248:35 *862:23 0
53 *248:49 gpio_slow_sel[35] 0
54 *248:49 *353:11 0.00415091
55 *248:49 *380:13 0.000718411
56 *248:49 *385:11 0.00190509
57 *248:49 *416:11 0.00367242
58 *248:49 *421:11 0.000519684
59 *248:49 *451:21 0.000721062
60 gpio_analog_en[34] gpio_dm0[34] 0
61 gpio_analog_pol[34] gpio_dm0[34] 0.000163345
62 gpio_analog_pol[34] *248:49 0
63 *247:9 *248:9 0.000217844
*RES
1 *921:gpio_dm0[34] *248:9 5.54693 
2 *248:9 *248:11 313.411 
3 *248:11 *248:17 6.83036 
4 *248:17 *248:19 2626.64 
5 *248:19 *248:33 33.9059 
6 *248:33 *248:35 1098.45 
7 *248:35 *248:49 47.1479 
8 *248:49 gpio_dm0[34] 8.6042 
*END

*D_NET *249 0.765054
*CONN
*P gpio_dm0[35] O
*I *921:gpio_dm0[35] O *D CF_CARAVEL_SOC
*CAP
1 gpio_dm0[35] 0.00234972
2 *921:gpio_dm0[35] 0.000902508
3 *249:27 0.0315667
4 *249:25 0.0316579
5 *249:15 0.0526495
6 *249:13 0.0502086
7 *249:11 0.00532407
8 *249:9 0.00622658
9 *249:9 *250:9 0.000165842
10 *249:11 *255:11 0.000194444
11 *249:11 *289:11 0.00151877
12 *249:11 *858:9 0
13 *249:15 *364:39 0
14 *249:15 *389:23 0.0713817
15 *249:15 *390:23 0
16 *249:15 *845:11 0.0164991
17 *249:15 *845:19 0.0484408
18 *249:15 *847:8 0.0023212
19 *249:15 *852:11 0
20 *249:25 *390:21 0.000111031
21 *249:25 *554:23 0.000896807
22 *249:25 *559:29 0.00606874
23 *249:25 *760:21 0.00125936
24 *249:25 *829:33 0.000111033
25 *249:25 *852:25 0.000113836
26 *249:25 *854:25 0.00010951
27 *249:27 *465:11 0.0819545
28 *249:27 *472:15 0
29 *249:27 *802:11 0.00286458
30 gpio_analog_en[35] gpio_dm0[35] 3.54334e-05
31 gpio_analog_pol[35] gpio_dm0[35] 0.00353571
32 *126:15 *249:15 0.0140319
33 *162:27 *249:27 0.0156151
34 *170:19 *249:11 0
35 *212:19 *249:11 0.0240818
36 *228:11 *249:11 0.00076554
37 *238:15 *249:15 0.278595
38 *248:9 *249:9 0
39 *248:11 *249:11 0.0134963
*RES
1 *921:gpio_dm0[35] *249:9 5.478 
2 *249:9 *249:11 306.277 
3 *249:11 *249:13 4.5 
4 *249:13 *249:15 2636.09 
5 *249:15 *249:25 22.7312 
6 *249:25 *249:27 1022.55 
7 *249:27 gpio_dm0[35] 9.50512 
*END

*D_NET *250 0.936852
*CONN
*P gpio_dm0[36] O
*I *921:gpio_dm0[36] O *D CF_CARAVEL_SOC
*CAP
1 gpio_dm0[36] 0.00452741
2 *921:gpio_dm0[36] 0.00182435
3 *250:35 0.0163031
4 *250:33 0.0128578
5 *250:23 0.0346659
6 *250:21 0.0336505
7 *250:11 0.020858
8 *250:9 0.0226155
9 gpio_dm0[36] gpio_inp_dis[36] 0
10 gpio_dm0[36] *822:9 0
11 gpio_dm0[36] *832:15 0.000286773
12 *250:9 *251:9 0
13 *250:9 *340:27 0.000255549
14 *250:11 *251:11 0.000454699
15 *250:11 *256:11 0.00230306
16 *250:11 *257:11 0.00230306
17 *250:11 *296:11 0.00330846
18 *250:11 *309:11 0
19 *250:11 *540:38 0.00230306
20 *250:11 *551:125 0.00221495
21 *250:11 *740:67 0.00010283
22 *250:21 *251:11 1.94945e-05
23 *250:23 *284:15 0.000468788
24 *250:23 *446:27 0.000207555
25 *250:23 *561:18 0.0317141
26 *250:23 *563:14 0.000676904
27 *250:23 *566:13 0.00224692
28 *250:23 *781:23 0.0252376
29 *250:23 *783:15 0.000369162
30 *250:23 *785:27 0
31 *250:23 *804:23 0.277828
32 *250:23 *844:13 0.275647
33 *250:33 *251:25 0.000223703
34 *250:33 *546:23 0.00332951
35 *250:33 *785:25 2.08218e-05
36 *250:33 *825:23 0.000575639
37 *250:33 *859:19 0.00248154
38 *250:33 *860:15 4.52619e-05
39 *250:35 *251:27 0.0533916
40 *250:35 *295:27 0.00930492
41 *250:35 *420:11 0.00412558
42 *250:35 *456:27 0.00301271
43 *250:35 *469:11 0.0670109
44 *250:35 *554:23 0
45 *250:35 *803:11 0.00808268
46 gpio_analog_en[36] gpio_dm0[36] 0.00116069
47 gpio_analog_pol[36] gpio_dm0[36] 0.00358607
48 *118:19 *250:11 0.00344795
49 *228:11 *250:11 0
50 *236:11 *250:11 0
51 *245:11 *250:11 0.00163575
52 *249:9 *250:9 0.000165842
*RES
1 *921:gpio_dm0[36] *250:9 7.4191 
2 *250:9 *250:11 57.3619 
3 *250:11 *250:21 11.6798 
4 *250:21 *250:23 2630.75 
5 *250:23 *250:33 18.9378 
6 *250:33 *250:35 847.696 
7 *250:35 gpio_dm0[36] 15.1608 
*END

*D_NET *251 0.748858
*CONN
*P gpio_dm0[37] O
*I *921:gpio_dm0[37] O *D CF_CARAVEL_SOC
*CAP
1 gpio_dm0[37] 0.0052422
2 *921:gpio_dm0[37] 0.0019071
3 *251:27 0.015434
4 *251:25 0.0109859
5 *251:15 0.0438917
6 *251:13 0.0430976
7 *251:11 0.00743436
8 *251:9 0.00934146
9 *251:9 *252:9 0
10 *251:9 *340:27 0.000255549
11 *251:11 *253:11 0
12 *251:11 *296:11 0.0088253
13 *251:11 *322:35 0
14 *251:11 *740:67 0.00135747
15 *251:11 *740:75 0
16 *251:11 *861:9 0
17 *251:15 *284:23 0.0152457
18 *251:15 *335:33 0.0411233
19 *251:15 *387:23 0.0444026
20 *251:15 *428:23 0.00202006
21 *251:15 *538:43 0.0228241
22 *251:15 *692:27 0
23 *251:15 *692:35 0.000150297
24 *251:15 *695:75 0.0215589
25 *251:15 *736:43 0.00949947
26 *251:15 *740:171 0.0135358
27 *251:15 *855:11 0.279664
28 *251:15 *857:11 0.0134663
29 *251:25 *387:21 6.21664e-05
30 *251:25 *549:23 0.000344341
31 *251:25 *855:15 0
32 *251:25 *857:21 0
33 *251:25 *863:21 0.000796109
34 *251:27 *295:27 0.0100627
35 *251:27 *384:11 0.000720295
36 *251:27 *420:11 0.00175709
37 *251:27 *456:27 0.028937
38 gpio_analog_en[37] gpio_dm0[37] 0.00109382
39 gpio_analog_en[38] *251:15 0.000112254
40 gpio_analog_pol[37] gpio_dm0[37] 0.000469536
41 *118:19 *251:11 0.0238704
42 *120:15 *251:15 0.0152795
43 *250:9 *251:9 0
44 *250:11 *251:11 0.000454699
45 *250:21 *251:11 1.94945e-05
46 *250:33 *251:25 0.000223703
47 *250:35 *251:27 0.0533916
*RES
1 *921:gpio_dm0[37] *251:9 7.45513 
2 *251:9 *251:11 339.366 
3 *251:11 *251:13 4.5 
4 *251:13 *251:15 2656.62 
5 *251:15 *251:25 18.0405 
6 *251:25 *251:27 657.661 
7 *251:27 gpio_dm0[37] 15.2704 
*END

*D_NET *252 0.562911
*CONN
*P gpio_dm0[38] O
*I *921:gpio_dm0[38] O *D CF_CARAVEL_SOC
*CAP
1 gpio_dm0[38] 0.000466968
2 *921:gpio_dm0[38] 0.00103364
3 *252:15 0.0607643
4 *252:13 0.0602974
5 *252:11 0.00521385
6 *252:9 0.00624749
7 *252:9 *253:9 0
8 *252:9 *340:27 0.000255549
9 *252:11 *255:11 0.000473067
10 *252:11 *289:11 0.00281799
11 *252:11 *294:11 0.0256717
12 *252:11 *295:11 0.0251461
13 *252:11 *852:9 0.00152581
14 *252:11 *853:9 1.90936e-05
15 *252:11 *854:9 0.00017924
16 *252:15 gpio_dm0[43] 0.00498642
17 *252:15 gpio_out[40] 0.00370834
18 *252:15 gpio_out[42] 0.00842454
19 *252:15 *297:22 0.00758051
20 *252:15 *300:27 0.0313181
21 *252:15 *301:17 0
22 *252:15 *345:27 0.0127185
23 *252:15 *385:15 0.0560038
24 *252:15 *538:53 0.0128259
25 *252:15 *549:13 0.00851514
26 *252:15 *560:27 0.0568387
27 *252:15 *566:13 0.00922747
28 *252:15 *692:35 0.0122439
29 *252:15 *693:193 0.00101529
30 *252:15 *697:115 0.00279641
31 *252:15 *698:27 0.0252212
32 *252:15 *829:35 0.000191998
33 *252:15 *853:11 0.0440667
34 *252:15 *859:11 0.0106655
35 *252:15 *860:11 0.025855
36 *252:15 *865:11 0.0279815
37 *252:15 *867:11 0.01001
38 gpio_analog_pol[38] gpio_dm0[38] 0
39 gpio_analog_sel[43] *252:15 0.00027891
40 *167:15 *252:11 0
41 *248:11 *252:11 0.000253528
42 *248:17 *252:11 7.1211e-05
43 *251:9 *252:9 0
*RES
1 *921:gpio_dm0[38] *252:9 5.43727 
2 *252:9 *252:11 340.732 
3 *252:11 *252:13 3.41 
4 *252:13 *252:15 359.804 
5 *252:15 gpio_dm0[38] 9.88321 
*END

*D_NET *253 0.527418
*CONN
*P gpio_dm0[39] O
*I *921:gpio_dm0[39] O *D CF_CARAVEL_SOC
*CAP
1 gpio_dm0[39] 0.00165007
2 *921:gpio_dm0[39] 0.0015885
3 *253:15 0.029489
4 *253:13 0.0278389
5 *253:11 0.00555492
6 *253:9 0.00714342
7 *253:9 *340:27 0.000201414
8 *253:11 *740:75 0.0216336
9 *253:15 *338:71 0.00112215
10 *253:15 *340:39 0.172582
11 *253:15 *386:207 0.00775587
12 *253:15 *545:11 0.0215244
13 *253:15 *554:13 0.0287891
14 *253:15 *847:16 0.000448256
15 gpio_analog_en[39] gpio_dm0[39] 0.000577215
16 gpio_analog_pol[39] gpio_dm0[39] 0
17 *118:19 *253:11 0
18 *164:33 *253:15 0.000261793
19 *164:41 gpio_dm0[39] 0.000173687
20 *168:15 *253:15 0.000954768
21 *169:15 *253:15 0.000337733
22 *209:15 *253:15 0.171471
23 *213:15 *253:15 0.000101852
24 *233:11 *253:11 0.00129519
25 *236:11 *253:11 0.000994559
26 *238:11 *253:11 0.0207527
27 *244:11 *253:11 0.00317552
28 *251:11 *253:11 0
29 *252:9 *253:9 0
*RES
1 *921:gpio_dm0[39] *253:9 6.62793 
2 *253:9 *253:11 323.125 
3 *253:11 *253:13 3.41 
4 *253:13 *253:15 276.279 
5 *253:15 gpio_dm0[39] 31.8654 
*END

*D_NET *254 0.129546
*CONN
*P gpio_dm0[3] O
*I *921:gpio_dm0[3] O *D CF_CARAVEL_SOC
*CAP
1 gpio_dm0[3] 0.00476903
2 *921:gpio_dm0[3] 0.00335916
3 *254:11 0.0266881
4 *254:9 0.0252783
5 gpio_dm0[3] gpio_dm1[3] 0
6 gpio_dm0[3] gpio_inp_dis[3] 0
7 gpio_dm0[3] *281:11 0.000101562
8 gpio_dm0[3] *375:59 6.61202e-05
9 *254:9 *259:9 0
10 *254:11 gpio_dm2[2] 0.00930215
11 *254:11 *270:17 0.00729591
12 *254:11 *342:11 0.0242203
13 *254:11 *530:113 0.000243114
14 *254:11 *567:18 0.00587795
15 gpio_analog_en[3] gpio_dm0[3] 0.00394706
16 gpio_analog_pol[3] gpio_dm0[3] 0
17 gpio_dm0[0] *254:11 0
18 *93:11 *254:11 0.000271953
19 *144:11 *254:11 0.00610337
20 *144:19 *254:11 0.00106527
21 *207:19 *254:11 0.00154152
22 *223:11 *254:11 0.00758056
23 *225:15 *254:11 0.00183454
24 *243:9 *254:9 0
25 *243:11 *254:11 0
*RES
1 *921:gpio_dm0[3] *254:9 11.7494 
2 *254:9 *254:11 124.478 
3 *254:11 gpio_dm0[3] 24.5281 
*END

*D_NET *255 0.437493
*CONN
*P gpio_dm0[40] O
*I *921:gpio_dm0[40] O *D CF_CARAVEL_SOC
*CAP
1 gpio_dm0[40] 0.00169358
2 *921:gpio_dm0[40] 0.000730499
3 *255:15 0.0252501
4 *255:13 0.0235565
5 *255:11 0.00525118
6 *255:9 0.00598168
7 *255:9 *256:9 0.000210723
8 *255:11 *289:11 0.00341663
9 *255:11 *295:11 0.0261384
10 *255:15 *289:21 2.46181e-05
11 *255:15 *297:14 0.141883
12 *255:15 *322:153 0.000243851
13 *255:15 *339:23 0.000698083
14 *255:15 *343:15 0.144154
15 *255:15 *364:39 0.0287774
16 *255:15 *390:23 0.000312475
17 *255:15 *827:19 0.00340403
18 *255:15 *828:15 3.14653e-05
19 *255:15 *852:11 0.000359457
20 gpio_analog_en[40] gpio_dm0[40] 0
21 gpio_analog_pol[40] gpio_dm0[40] 0
22 *168:15 *255:15 6.04876e-05
23 *208:19 *255:15 1.67582e-05
24 *208:27 gpio_dm0[40] 7.01812e-05
25 *212:19 *255:11 0
26 *248:11 *255:11 0.0245604
27 *249:11 *255:11 0.000194444
28 *252:11 *255:11 0.000473067
*RES
1 *921:gpio_dm0[40] *255:9 5.15527 
2 *255:9 *255:11 334.054 
3 *255:11 *255:13 3.41 
4 *255:13 *255:15 231.958 
5 *255:15 gpio_dm0[40] 28.6689 
*END

*D_NET *256 0.390737
*CONN
*P gpio_dm0[41] O
*I *921:gpio_dm0[41] O *D CF_CARAVEL_SOC
*CAP
1 gpio_dm0[41] 0.0024816
2 *921:gpio_dm0[41] 0.00194265
3 *256:15 0.0227813
4 *256:13 0.0202997
5 *256:11 0.00449273
6 *256:9 0.00643538
7 *256:9 *257:9 0
8 *256:9 *340:27 0.000255549
9 *256:11 *257:11 0.0265054
10 *256:11 *339:11 0
11 *256:11 *441:11 0.000184591
12 *256:11 *540:38 0.0254419
13 *256:15 *257:15 0.000992976
14 *256:15 *299:23 0.118249
15 *256:15 *484:15 0.025393
16 *256:15 *548:11 0.0126924
17 *256:15 *815:49 0.000164054
18 gpio_analog_en[41] gpio_dm0[41] 0
19 gpio_analog_pol[41] gpio_dm0[41] 0
20 *121:15 *256:15 0.118816
21 *211:13 *256:15 0.00020664
22 *212:23 *256:15 0.000276186
23 *245:11 *256:11 0.000612518
24 *250:11 *256:11 0.00230306
25 *255:9 *256:9 0.000210723
*RES
1 *921:gpio_dm0[41] *256:9 7.81547 
2 *256:9 *256:11 325.554 
3 *256:11 *256:13 3.41 
4 *256:13 *256:15 191.24 
5 *256:15 gpio_dm0[41] 39.7404 
*END

*D_NET *257 0.334025
*CONN
*P gpio_dm0[42] O
*I *921:gpio_dm0[42] O *D CF_CARAVEL_SOC
*CAP
1 gpio_dm0[42] 0.00191454
2 *921:gpio_dm0[42] 0.00200022
3 *257:15 0.017621
4 *257:13 0.0157065
5 *257:11 0.00446483
6 *257:9 0.00646505
7 *257:9 *258:9 0
8 *257:9 *340:27 0.000255549
9 *257:11 *296:11 0.0269888
10 *257:11 *339:11 0
11 *257:11 *540:38 0.000219804
12 *257:15 *296:23 0.0273155
13 *257:15 *339:15 0.0196006
14 *257:15 *771:27 0.00459556
15 *257:15 *842:11 0.0181692
16 gpio_analog_en[42] gpio_dm0[42] 0.00116786
17 gpio_analog_pol[42] gpio_dm0[42] 0
18 *121:15 *257:15 0.0917877
19 *169:15 *257:15 0
20 *170:23 *257:15 0.0652882
21 *245:11 *257:11 0.000662776
22 *250:11 *257:11 0.00230306
23 *256:9 *257:9 0
24 *256:11 *257:11 0.0265054
25 *256:15 *257:15 0.000992976
*RES
1 *921:gpio_dm0[42] *257:9 7.7434 
2 *257:9 *257:11 331.625 
3 *257:11 *257:13 3.41 
4 *257:13 *257:15 148.432 
5 *257:15 gpio_dm0[42] 37.5618 
*END

*D_NET *258 0.219866
*CONN
*P gpio_dm0[43] O
*I *921:gpio_dm0[43] O *D CF_CARAVEL_SOC
*CAP
1 gpio_dm0[43] 0.00190499
2 *921:gpio_dm0[43] 0.000317609
3 *258:31 0.00476829
4 *258:19 0.0116964
5 *258:17 0.00883308
6 *258:15 0.00770861
7 *258:13 0.00773483
8 *258:11 0.00275616
9 *258:9 0.00304755
10 gpio_dm0[43] *549:13 0.000609672
11 gpio_dm0[43] *697:115 0.00235656
12 gpio_dm0[43] *698:27 0.000530551
13 gpio_dm0[43] *860:11 0.000721457
14 gpio_dm0[43] *865:11 0.000669057
15 gpio_dm0[43] *867:11 0.000471169
16 *258:9 *340:27 6.60633e-06
17 *258:11 *299:11 0.00373162
18 *258:11 *340:11 5.7986e-05
19 *258:11 *340:27 0.000342774
20 *258:15 *299:11 0.0193048
21 *258:15 *300:11 4.21244e-05
22 *258:15 *300:17 0.00107286
23 *258:15 *340:27 0.00192578
24 *258:15 *341:14 0.00226299
25 *258:19 *344:15 0.0562628
26 *258:19 *430:23 0.0120825
27 *258:19 *815:49 0.0562654
28 *258:31 *815:49 0.00308014
29 *258:31 *839:39 9.96383e-05
30 *258:31 *840:11 0.000589369
31 *258:31 *846:13 0.000546563
32 gpio_analog_en[43] gpio_dm0[43] 0
33 gpio_analog_pol[43] gpio_dm0[43] 0
34 *211:9 *258:11 0
35 *211:9 *258:15 0
36 *212:23 *258:31 0.00308014
37 *252:15 gpio_dm0[43] 0.00498642
38 *257:9 *258:9 0
*RES
1 *921:gpio_dm0[43] *258:9 3.8894 
2 *258:9 *258:11 81.2321 
3 *258:11 *258:13 0.535714 
4 *258:13 *258:15 251.125 
5 *258:15 *258:17 3.41 
6 *258:17 *258:19 89.0493 
7 *258:19 *258:31 49.3555 
8 *258:31 gpio_dm0[43] 19.2133 
*END

*D_NET *259 0.189837
*CONN
*P gpio_dm0[4] O
*I *921:gpio_dm0[4] O *D CF_CARAVEL_SOC
*CAP
1 gpio_dm0[4] 0.00415899
2 *921:gpio_dm0[4] 0.00410478
3 *259:11 0.0255238
4 *259:9 0.0254696
5 gpio_dm0[4] gpio_dm1[4] 0
6 *259:9 *260:9 0
7 *259:11 *260:11 0.0098522
8 *259:11 *266:11 0.00872238
9 *259:11 *304:11 0
10 *259:11 *312:15 0.00624672
11 *259:11 *419:197 0.00166512
12 *259:11 *532:36 0.0124985
13 gpio_analog_en[4] gpio_dm0[4] 0.000374143
14 gpio_analog_pol[4] gpio_dm0[4] 0
15 gpio_analog_sel[4] *259:11 0.00249134
16 *94:17 *259:11 0.000208694
17 *128:11 *259:11 2.35536e-05
18 *129:11 *259:11 0.0219573
19 *132:11 *259:11 0.000171395
20 *177:11 *259:11 0.0611695
21 *183:9 gpio_dm0[4] 0.00119936
22 *232:11 *259:11 0.0040002
23 *243:11 *259:11 0
24 *254:9 *259:9 0
*RES
1 *921:gpio_dm0[4] *259:9 13.9114 
2 *259:9 *259:11 159.208 
3 *259:11 gpio_dm0[4] 12.933 
*END

*D_NET *260 0.199402
*CONN
*P gpio_dm0[5] O
*I *921:gpio_dm0[5] O *D CF_CARAVEL_SOC
*CAP
1 gpio_dm0[5] 0.003754
2 *921:gpio_dm0[5] 0.00396439
3 *260:19 0.020535
4 *260:17 0.0171758
5 *260:11 0.00994741
6 *260:9 0.013517
7 gpio_dm0[5] gpio_dm1[5] 0
8 gpio_dm0[5] gpio_inp_dis[5] 3.90782e-06
9 gpio_dm0[5] *281:11 0.000153811
10 gpio_dm0[5] *782:47 9.99845e-05
11 *260:9 *261:9 0
12 *260:11 gpio_dm1[1] 0.000652609
13 *260:11 *304:11 0.00385702
14 *260:17 gpio_dm1[1] 8.11163e-05
15 *260:19 *312:19 0.0371844
16 *260:19 *535:121 0.0656475
17 *260:19 *568:15 0
18 gpio_analog_en[1] *260:17 3.89807e-05
19 gpio_analog_en[3] *260:19 0.000915818
20 gpio_analog_en[5] gpio_dm0[5] 0.00258253
21 gpio_analog_pol[5] gpio_dm0[5] 0.000245905
22 gpio_analog_sel[4] *260:19 0.000200642
23 *94:17 *260:19 0.00296161
24 *100:11 *260:19 0.00458325
25 *171:13 *260:19 0.00132887
26 *177:11 *260:19 0.000118153
27 *243:11 *260:11 0
28 *259:9 *260:9 0
29 *259:11 *260:11 0.0098522
*RES
1 *921:gpio_dm0[5] *260:9 13.479 
2 *260:9 *260:11 51.8222 
3 *260:11 *260:17 7.8399 
4 *260:17 *260:19 804.589 
5 *260:19 gpio_dm0[5] 23.0148 
*END

*D_NET *261 0.260428
*CONN
*P gpio_dm0[6] O
*I *921:gpio_dm0[6] O *D CF_CARAVEL_SOC
*CAP
1 gpio_dm0[6] 0.00217117
2 *921:gpio_dm0[6] 0.00608312
3 *261:11 0.0234146
4 *261:9 0.0273266
5 gpio_dm0[6] gpio_inp_dis[6] 0
6 *261:9 *262:9 0
7 *261:11 *269:11 0.00643815
8 *261:11 *347:11 0.00222588
9 *261:11 *386:211 0.0575797
10 *261:11 *571:39 0.0413847
11 *261:11 *826:131 0.0585534
12 gpio_analog_en[6] gpio_dm0[6] 0.000784368
13 gpio_analog_pol[6] gpio_dm0[6] 0
14 *220:11 *261:11 0.034466
15 *260:9 *261:9 0
*RES
1 *921:gpio_dm0[6] *261:9 18.4155 
2 *261:9 *261:11 1300.02 
3 *261:11 gpio_dm0[6] 8.45388 
*END

*D_NET *262 0.349064
*CONN
*P gpio_dm0[7] O
*I *921:gpio_dm0[7] O *D CF_CARAVEL_SOC
*CAP
1 gpio_dm0[7] 0.00095202
2 *921:gpio_dm0[7] 0.00715542
3 *262:18 1.42307e-05
4 *262:11 0.0588771
5 *262:9 0.0650948
6 *262:9 *263:9 0
7 *262:11 *268:11 0.00105962
8 *262:11 *430:35 0.000828514
9 *262:11 *482:11 0.165368
10 *262:11 *782:55 0.00195791
11 gpio_analog_en[7] gpio_dm0[7] 0
12 gpio_analog_pol[7] gpio_dm0[7] 0.00075948
13 *210:11 *262:11 0.0100334
14 *217:11 *262:11 0.0369631
15 *261:9 *262:9 0
*RES
1 *921:gpio_dm0[7] *262:9 20.5775 
2 *262:9 *262:11 2088.09 
3 *262:11 gpio_dm0[7] 5.91823 
4 gpio_dm0[7] *262:18 0.0477833 
*END

*D_NET *263 0.358086
*CONN
*P gpio_dm0[8] O
*I *921:gpio_dm0[8] O *D CF_CARAVEL_SOC
*CAP
1 gpio_dm0[8] 0.00229626
2 *921:gpio_dm0[8] 0.00544284
3 *263:11 0.0625364
4 *263:9 0.065683
5 *263:9 *264:9 0
6 *263:11 *277:11 0
7 *263:11 *306:11 0.149336
8 *263:11 *787:27 0.00317007
9 *263:11 *793:31 0.0091445
10 *263:11 *804:27 0.00406017
11 gpio_analog_en[8] gpio_dm0[8] 0.00104872
12 gpio_analog_pol[8] gpio_dm0[8] 0.000473719
13 *165:11 *263:11 0.0520868
14 *195:11 *263:11 0.00177451
15 *218:11 *263:11 0.0010335
16 *222:19 *263:11 0
17 *262:9 *263:9 0
*RES
1 *921:gpio_dm0[8] *263:9 17.1904 
2 *263:9 *263:11 2282.98 
3 *263:11 gpio_dm0[8] 9.71035 
*END

*D_NET *264 0.431807
*CONN
*P gpio_dm0[9] O
*I *921:gpio_dm0[9] O *D CF_CARAVEL_SOC
*CAP
1 gpio_dm0[9] 0.00107095
2 *921:gpio_dm0[9] 0.0065426
3 *264:11 0.0556428
4 *264:9 0.0611144
5 gpio_dm0[9] gpio_inp_dis[9] 0
6 *264:11 gpio_holdover[7] 0
7 *264:11 *311:11 0.166997
8 *264:11 *364:43 0.0246369
9 *264:11 *815:53 0.00625254
10 gpio_analog_en[9] gpio_dm0[9] 0.00224973
11 gpio_analog_pol[9] gpio_dm0[9] 0.000578841
12 *222:9 *264:9 0
13 *230:11 *264:11 0.106721
14 *263:9 *264:9 0
*RES
1 *921:gpio_dm0[9] *264:9 19.3524 
2 *264:9 *264:11 2480.3 
3 *264:11 gpio_dm0[9] 7.32275 
*END

*D_NET *265 0.0428892
*CONN
*P gpio_dm1[0] O
*I *921:gpio_dm1[0] O *D CF_CARAVEL_SOC
*CAP
1 gpio_dm1[0] 0.0124754
2 *921:gpio_dm1[0] 0.0124754
3 gpio_dm1[0] gpio_dm1[1] 0
4 gpio_dm1[0] *309:11 0.00600787
5 gpio_dm1[0] *443:19 0
6 gpio_dm1[0] *452:11 0.00100026
7 gpio_dm1[0] *463:11 0.00100026
8 gpio_dm1[0] *474:11 0.00139106
9 gpio_dm1[0] *479:11 0.00162834
10 gpio_dm1[0] *480:11 0.00144768
11 gpio_dm1[0] *534:15 0.000298371
12 gpio_dm1[0] *571:31 0.0015052
13 gpio_analog_en[0] gpio_dm1[0] 0
14 gpio_dm0[0] gpio_dm1[0] 0.0036593
*RES
1 *921:gpio_dm1[0] gpio_dm1[0] 43.9132 
*END

*D_NET *266 0.51159
*CONN
*P gpio_dm1[10] O
*I *921:gpio_dm1[10] O *D CF_CARAVEL_SOC
*CAP
1 gpio_dm1[10] 0.00453576
2 *921:gpio_dm1[10] 0.00402716
3 *266:11 0.0393658
4 *266:9 0.0388572
5 gpio_dm1[10] *750:15 0
6 *266:9 *267:13 0
7 *266:9 *308:9 0.00103715
8 *266:11 *312:15 0.000113898
9 *266:11 *312:19 0
10 *266:11 *419:197 0.0240333
11 *266:11 *532:36 0.200191
12 *266:11 *568:15 0.00590497
13 gpio_analog_en[10] gpio_dm1[10] 0
14 gpio_analog_en[3] *266:11 0.000217105
15 *100:11 *266:11 0.00155862
16 *129:11 *266:11 0.000514488
17 *132:11 *266:11 0.150161
18 *136:11 *266:11 0.0301956
19 *171:13 *266:11 0.0021549
20 *259:11 *266:11 0.00872238
*RES
1 *921:gpio_dm1[10] *266:9 14.0195 
2 *266:9 *266:11 2451.16 
3 *266:11 gpio_dm1[10] 13.4766 
*END

*D_NET *267 0.470324
*CONN
*P gpio_dm1[11] O
*I *921:gpio_dm1[11] O *D CF_CARAVEL_SOC
*CAP
1 gpio_dm1[11] 0.00321338
2 *921:gpio_dm1[11] 0.00530619
3 *267:23 0.0538912
4 *267:21 0.051103
5 *267:15 0.0107285
6 *267:13 0.0156095
7 *267:13 *268:9 0
8 *267:13 *298:11 0.000176959
9 *267:15 *298:11 0.0127884
10 *267:23 gpio_oeb[3] 0.000129293
11 *267:23 *445:11 0
12 *267:23 *692:23 0.00693555
13 gpio_analog_en[11] gpio_dm1[11] 0
14 gpio_analog_sel[2] *267:21 0
15 *169:11 *267:15 0.00363267
16 *178:19 *267:23 0.131538
17 *222:17 *267:13 2.05803e-05
18 *222:19 *267:23 0.175251
19 *266:9 *267:13 0
*RES
1 *921:gpio_dm1[11] *267:13 16.0546 
2 *267:13 *267:15 47.4543 
3 *267:15 *267:21 7.76783 
4 *267:21 *267:23 2378.3 
5 *267:23 gpio_dm1[11] 10.4216 
*END

*D_NET *268 0.405231
*CONN
*P gpio_dm1[12] O
*I *921:gpio_dm1[12] O *D CF_CARAVEL_SOC
*CAP
1 gpio_dm1[12] 0.00128678
2 *921:gpio_dm1[12] 0.00759788
3 *268:11 0.0967196
4 *268:9 0.103031
5 *268:9 *269:9 0
6 *268:11 gpio_holdover[10] 0
7 *268:11 gpio_ib_mode_sel[8] 0
8 *268:11 gpio_oeb[9] 0
9 *268:11 gpio_out[8] 0
10 *268:11 *482:11 0.146301
11 gpio_analog_en[12] gpio_dm1[12] 0
12 gpio_analog_pol[10] *268:11 0
13 gpio_analog_pol[9] *268:11 0
14 *222:17 *268:9 0
15 *229:11 *268:11 0.049235
16 *262:11 *268:11 0.00105962
17 *267:13 *268:9 0
*RES
1 *921:gpio_dm1[12] *268:9 20.4334 
2 *268:9 *268:11 2847.62 
3 *268:11 gpio_dm1[12] 6.19788 
*END

*D_NET *269 0.449537
*CONN
*P gpio_dm1[13] O
*I *921:gpio_dm1[13] O *D CF_CARAVEL_SOC
*CAP
1 gpio_dm1[13] 0.0023457
2 *921:gpio_dm1[13] 0.00651274
3 *269:11 0.121024
4 *269:9 0.125191
5 *269:9 *270:17 0
6 *269:11 *273:11 0
7 *269:11 *327:63 0.0186794
8 *269:11 *386:211 0.0377382
9 *168:11 *269:11 0
10 *183:11 *269:11 0
11 *201:11 *269:11 0
12 *220:11 *269:11 0.131607
13 *261:11 *269:11 0.00643815
14 *268:9 *269:9 0
*RES
1 *921:gpio_dm1[13] *269:9 18.2714 
2 *269:9 *269:11 3239.23 
3 *269:11 gpio_dm1[13] 8.66695 
*END

*D_NET *270 0.581966
*CONN
*P gpio_dm1[14] O
*I *921:gpio_dm1[14] O *D CF_CARAVEL_SOC
*CAP
1 gpio_dm1[14] 0.00452734
2 *921:gpio_dm1[14] 0.00687212
3 *270:19 0.106255
4 *270:17 0.1086
5 gpio_dm1[14] gpio_slow_sel[14] 0
6 *270:17 gpio_dm2[2] 0.000746123
7 *270:17 *347:9 0.000276639
8 *270:17 *530:113 0.00161534
9 *270:19 *342:11 0.000645454
10 *270:19 *444:11 0
11 gpio_analog_en[2] *270:19 0.00189343
12 gpio_dm0[14] gpio_dm1[14] 0
13 *103:11 *270:19 0.0182765
14 *130:11 *270:19 0.014257
15 *134:11 *270:19 0.00673573
16 *138:11 *270:19 0
17 *141:15 *270:19 0.00386777
18 *144:19 *270:19 0.00363068
19 *179:11 *270:19 0.00233129
20 *207:19 *270:17 0.00299152
21 *216:13 *270:19 0.00291729
22 *223:11 *270:17 0.0140083
23 *223:19 *270:19 0.195851
24 *246:11 *270:19 0.0783718
25 *254:11 *270:17 0.00729591
26 *269:9 *270:17 0
*RES
1 *921:gpio_dm1[14] *270:17 47.9679 
2 *270:17 *270:19 3468.73 
3 *270:19 gpio_dm1[14] 14.636 
*END

*D_NET *271 0.530601
*CONN
*P gpio_dm1[15] O
*I *921:gpio_dm1[15] O *D CF_CARAVEL_SOC
*CAP
1 gpio_dm1[15] 8.6667e-05
2 *921:gpio_dm1[15] 0.00149988
3 *271:27 0.102739
4 *271:25 0.103317
5 *271:15 0.0020679
6 *271:13 0.00140295
7 *271:11 0.0158844
8 *271:9 0.0173843
9 *271:9 *272:9 0.000374664
10 *271:9 *340:11 0.000111764
11 *271:11 *272:11 0.0894539
12 *271:11 *286:11 0.0841321
13 *271:15 *274:125 0.00100591
14 *271:15 *315:15 0.00477359
15 *271:15 *337:39 0.00047119
16 *271:15 *833:31 2.38501e-05
17 *271:25 *315:25 0.00349046
18 *271:27 *277:21 0
19 *271:27 *536:153 0.0866105
20 *271:27 *537:118 0.000614204
21 *118:19 *271:11 0
22 *161:15 *271:25 0.00321063
23 *236:11 *271:11 0.0118724
24 *244:11 *271:11 7.3994e-05
*RES
1 *921:gpio_dm1[15] *271:9 6.8786 
2 *271:9 *271:11 1101.03 
3 *271:11 *271:13 4.5 
4 *271:13 *271:15 46.5357 
5 *271:15 *271:25 20.0277 
6 *271:25 *271:27 2697.05 
7 *271:27 gpio_dm1[15] 1.60714 
*END

*D_NET *272 0.595375
*CONN
*P gpio_dm1[16] O
*I *921:gpio_dm1[16] O *D CF_CARAVEL_SOC
*CAP
1 gpio_dm1[16] 0.135624
2 *921:gpio_dm1[16] 0.00123501
3 *272:17 0.135624
4 *272:15 0.0140448
5 *272:13 0.0140448
6 *272:11 0.0159388
7 *272:9 0.0171739
8 *272:9 *273:9 0
9 *272:11 *286:11 0.00078855
10 *272:11 *324:11 0.0708259
11 *272:15 *281:15 0.00228509
12 *272:15 *286:15 0.00629194
13 *114:23 *272:15 0.0112334
14 *184:15 *272:15 0.0563018
15 *236:11 *272:11 0.0128436
16 *244:11 *272:11 0.0112902
17 *271:9 *272:9 0.000374664
18 *271:11 *272:11 0.0894539
*RES
1 *921:gpio_dm1[16] *272:9 6.3804 
2 *272:9 *272:11 1120.15 
3 *272:11 *272:13 4.5 
4 *272:13 *272:15 529.536 
5 *272:15 *272:17 4.5 
6 *272:17 gpio_dm1[16] 2680.14 
*END

*D_NET *273 0.675736
*CONN
*P gpio_dm1[17] O
*I *921:gpio_dm1[17] O *D CF_CARAVEL_SOC
*CAP
1 gpio_dm1[17] 0.131365
2 *921:gpio_dm1[17] 0.00570446
3 *273:17 0.131365
4 *273:15 0.0155306
5 *273:13 0.0155306
6 *273:11 0.0317481
7 *273:9 0.0374526
8 *273:9 *452:9 0.00172767
9 *273:11 gpio_ib_mode_sel[6] 0
10 *273:11 *274:119 0.000503606
11 *273:11 *327:59 0.000441119
12 *273:11 *789:27 0
13 *273:11 *832:59 0
14 *273:15 *275:15 0
15 *273:15 *277:23 0.0774032
16 *273:15 *329:64 0
17 *273:15 *332:19 0.00138366
18 *110:17 *273:15 0.00014147
19 *152:25 *273:15 0.000399065
20 *168:11 *273:11 0.0777842
21 *183:11 *273:11 0.00330567
22 *201:11 *273:11 0.0335104
23 *205:49 *273:11 0
24 *218:11 *273:11 0
25 *229:15 *273:15 0.0929079
26 *230:25 *273:15 0.0175326
27 *269:11 *273:11 0
28 *272:9 *273:9 0
*RES
1 *921:gpio_dm1[17] *273:9 17.839 
2 *273:9 *273:11 1128.2 
3 *273:11 *273:13 3.41 
4 *273:13 *273:15 144.685 
5 *273:15 *273:17 3.41 
6 *273:17 gpio_dm1[17] 2667.24 
*END

*D_NET *274 0.627076
*CONN
*P gpio_dm1[18] O
*I *921:gpio_dm1[18] O *D CF_CARAVEL_SOC
*CAP
1 gpio_dm1[18] 0.0183983
2 *921:gpio_dm1[18] 0.00234712
3 *274:351 0.018645
4 *274:345 0.00314226
5 *274:343 0.0066127
6 *274:333 0.00615339
7 *274:327 0.00279027
8 *274:321 0.00428533
9 *274:319 0.00682102
10 *274:305 0.0053119
11 *274:303 0.00438549
12 *274:285 0.0102459
13 *274:283 0.0102774
14 *274:275 0.00419222
15 *274:265 0.00477691
16 *274:253 0.00861714
17 *274:251 0.00675185
18 *274:241 0.00369831
19 *274:239 0.00320152
20 *274:233 0.00423316
21 *274:231 0.00660291
22 *274:213 0.0227904
23 *274:211 0.0202033
24 *274:209 0.0440727
25 *274:207 0.0440727
26 *274:205 0.0258042
27 *274:203 0.0261583
28 *274:197 0.0126258
29 *274:195 0.0126167
30 *274:191 0.00288723
31 *274:177 0.00538413
32 *274:175 0.00332472
33 *274:169 0.00291927
34 *274:159 0.00589638
35 *274:145 0.0049569
36 *274:137 0.00349436
37 *274:135 0.00331595
38 *274:131 0.00295906
39 *274:125 0.00639604
40 *274:123 0.00562388
41 *274:119 0.00259728
42 *274:103 0.00283967
43 *274:93 0.00211824
44 *274:91 0.00125202
45 *274:81 0.00276748
46 *274:75 0.00473351
47 *274:69 0.00296674
48 *274:65 0.0028121
49 *274:57 0.0045817
50 *274:51 0.00451487
51 *274:49 0.00198906
52 *274:47 0.0033655
53 *274:45 0.00368809
54 *274:41 0.00112624
55 *274:31 0.00390645
56 *274:29 0.00310279
57 *274:27 0.000783754
58 *274:25 0.00158165
59 *274:19 0.00430074
60 *274:17 0.00449902
61 *274:11 0.0210424
62 *274:9 0.0223934
63 gpio_dm1[18] *538:397 0
64 *274:9 *275:9 0
65 *274:9 *340:11 0.000111764
66 *274:11 *284:11 0.00320673
67 *274:11 *292:11 0.00162425
68 *274:11 *293:11 0
69 *274:11 *309:11 0.00202762
70 *274:11 *314:15 0.00277676
71 *274:11 *316:11 0
72 *274:11 *339:11 0
73 *274:11 *534:15 0
74 *274:27 *327:19 0.000968336
75 *274:27 *328:11 0.0047663
76 *274:27 *334:6 0.00118933
77 *274:41 *321:21 0
78 *274:41 *530:113 0.000178748
79 *274:51 *831:83 0.00848695
80 *274:65 *694:10 0.000424919
81 *274:69 *321:47 3.12359e-05
82 *274:69 *445:11 0.00319565
83 *274:75 *281:11 0.00197806
84 *274:75 *305:11 0
85 *274:75 *321:43 5.33005e-05
86 *274:93 *349:11 0.00554552
87 *274:93 *787:37 0.000470786
88 *274:119 *283:11 1.63469e-05
89 *274:119 *789:27 0
90 *274:123 *283:11 0.00317674
91 *274:125 *315:15 0.000361388
92 *274:125 *326:15 4.7451e-05
93 *274:125 *692:13 0.000145807
94 *274:125 *698:13 0.000141343
95 *274:125 *833:31 0
96 *274:131 *283:25 0
97 *274:135 *277:15 0
98 *274:135 *321:67 0.00424777
99 *274:137 *277:21 0
100 *274:159 *403:19 0.000558628
101 *274:239 *399:23 0.000731216
102 *274:239 *663:11 0
103 *274:265 gpio_holdover[12] 0
104 *274:345 gpio_slow_sel[18] 0
105 *91:11 *274:11 0.000341646
106 *94:19 *274:103 0.00101556
107 *95:19 *274:137 0.00465463
108 *97:11 *274:11 0.000737444
109 *101:11 *274:41 0.000455561
110 *112:11 *274:45 0.00209549
111 *112:11 *274:91 0.000750236
112 *128:11 *274:45 0.000521763
113 *139:19 *274:145 0.00327373
114 *150:31 *274:265 0
115 *167:15 *274:51 0.00222396
116 *170:19 *274:19 0.0180653
117 *175:11 *274:93 0.000901073
118 *178:19 *274:69 0.00169088
119 *185:11 *274:19 0.00156235
120 *186:15 *274:145 0.00013351
121 *187:15 *274:145 0.00013351
122 *194:11 *274:27 0.00300824
123 *194:39 *274:265 0
124 *197:9 *274:27 0.000111764
125 *197:11 *274:51 0.00136688
126 *200:9 *274:27 0.000111764
127 *203:11 *274:91 0.000147552
128 *204:31 *274:125 0.000420952
129 *205:23 *274:51 0.000894415
130 *205:49 *274:119 6.27272e-06
131 *206:27 *274:51 0.00613535
132 *206:43 *274:119 2.17243e-05
133 *206:43 *274:123 0.00108787
134 *206:47 *274:135 0.000812962
135 *212:19 *274:19 0.00918376
136 *213:11 *274:51 0.000784336
137 *225:19 *274:45 0.00209549
138 *225:19 *274:91 0.000751943
139 *225:19 *274:93 0.0028551
140 *227:19 *274:145 0
141 *228:11 *274:19 0.00172228
142 *242:11 *274:103 0.00101384
143 *242:15 *274:125 0.00763675
144 *247:11 *274:65 0.000423204
145 *271:15 *274:125 0.00100591
146 *273:11 *274:119 0.000503606
*RES
1 *921:gpio_dm1[18] *274:9 8.6082 
2 *274:9 *274:11 431.652 
3 *274:11 *274:17 23.9107 
4 *274:17 *274:19 222.036 
5 *274:19 *274:25 21.0357 
6 *274:25 *274:27 58.4107 
7 *274:27 *274:29 4.5 
8 *274:29 *274:31 46.125 
9 *274:31 *274:41 29.8929 
10 *274:41 *274:45 30.125 
11 *274:45 *274:47 50.2321 
12 *274:47 *274:49 4.5 
13 *274:49 *274:51 134 
14 *274:51 *274:57 46.5 
15 *274:57 *274:65 43.5714 
16 *274:65 *274:69 44.3929 
17 *274:69 *274:75 49.875 
18 *274:75 *274:81 46.0893 
19 *274:81 *274:91 20.0179 
20 *274:91 *274:93 67.8214 
21 *274:93 *274:103 39.75 
22 *274:103 *274:119 44.9018 
23 *274:119 *274:123 44.2411 
24 *274:123 *274:125 111.018 
25 *274:125 *274:131 34.3214 
26 *274:131 *274:135 44.4643 
27 *274:135 *274:137 57.9554 
28 *274:137 *274:145 48.0724 
29 *274:145 *274:159 38.7143 
30 *274:159 *274:169 47.5596 
31 *274:169 *274:175 8.3804 
32 *274:175 *274:177 58.4107 
33 *274:177 *274:191 49.8002 
34 *274:191 *274:195 4.538 
35 *274:195 *274:197 249.054 
36 *274:197 *274:203 7.948 
37 *274:203 *274:205 523.482 
38 *274:205 *274:207 3.41 
39 *274:207 *274:209 141.658 
40 *274:209 *274:211 3.41 
41 *274:211 *274:213 409.946 
42 *274:213 *274:231 49.2621 
43 *274:231 *274:233 81.4821 
44 *274:233 *274:239 7.948 
45 *274:239 *274:241 59.625 
46 *274:241 *274:251 9.22953 
47 *274:251 *274:253 123.375 
48 *274:253 *274:265 49.6467 
49 *274:265 *274:275 48.5187 
50 *274:275 *274:283 41.4659 
51 *274:283 *274:285 169.518 
52 *274:285 *274:303 36.5121 
53 *274:303 *274:305 49.3036 
54 *274:305 *274:319 44.1569 
55 *274:319 *274:321 79.6607 
56 *274:321 *274:327 7.948 
57 *274:327 *274:333 47.626 
58 *274:333 *274:343 40.4441 
59 *274:343 *274:345 59.0179 
60 *274:345 *274:351 7.58767 
61 *274:351 gpio_dm1[18] 374.67 
*END

*D_NET *275 0.788981
*CONN
*P gpio_dm1[19] O
*I *921:gpio_dm1[19] O *D CF_CARAVEL_SOC
*CAP
1 gpio_dm1[19] 0.134689
2 *921:gpio_dm1[19] 0.000934141
3 *275:17 0.134689
4 *275:15 0.0470234
5 *275:13 0.0470234
6 *275:11 0.0270097
7 *275:9 0.0279439
8 *275:9 *277:9 0.00019176
9 *275:9 *340:11 0.000111764
10 *275:11 *285:11 0.00681022
11 *275:11 *289:11 0.00047516
12 *275:11 *294:11 0.00630744
13 *275:11 *295:11 0.00665596
14 *275:11 *327:11 0.0124381
15 *275:15 *277:23 0
16 *275:15 *290:15 0
17 *275:15 *329:64 0.00804178
18 *275:15 *332:19 5.9092e-05
19 *275:15 *403:15 0.169544
20 *275:15 *538:153 0.000414323
21 *275:15 *802:15 0.0470344
22 *118:11 *275:11 0
23 *186:11 *275:11 0
24 *187:11 *275:11 0
25 *189:11 *275:11 7.3994e-05
26 *190:11 *275:11 0.0382463
27 *194:35 *275:11 0.00342578
28 *200:11 *275:11 0.0345064
29 *212:19 *275:11 0
30 *227:11 *275:11 0.0210119
31 *230:25 *275:15 0.01432
32 *273:15 *275:15 0
33 *274:9 *275:9 0
*RES
1 *921:gpio_dm1[19] *275:9 5.43727 
2 *275:9 *275:11 1120.3 
3 *275:11 *275:13 3.41 
4 *275:13 *275:15 281.323 
5 *275:15 *275:17 3.41 
6 *275:17 gpio_dm1[19] 2662.99 
*END

*D_NET *276 0.0363673
*CONN
*P gpio_dm1[1] O
*I *921:gpio_dm1[1] O *D CF_CARAVEL_SOC
*CAP
1 gpio_dm1[1] 0.0103378
2 *921:gpio_dm1[1] 0.0103378
3 gpio_dm1[1] *277:9 0
4 gpio_dm1[1] *287:9 0
5 gpio_dm1[1] *287:11 0.00798598
6 gpio_dm1[1] *304:11 0.00674169
7 gpio_analog_en[1] gpio_dm1[1] 0
8 gpio_dm1[0] gpio_dm1[1] 0
9 *243:11 gpio_dm1[1] 0.000230359
10 *260:11 gpio_dm1[1] 0.000652609
11 *260:17 gpio_dm1[1] 8.11163e-05
*RES
1 *921:gpio_dm1[1] gpio_dm1[1] 43.7612 
*END

*D_NET *277 0.899509
*CONN
*P gpio_dm1[20] O
*I *921:gpio_dm1[20] O *D CF_CARAVEL_SOC
*CAP
1 gpio_dm1[20] 0.000112372
2 *921:gpio_dm1[20] 0.00575881
3 *277:27 0.131441
4 *277:25 0.131329
5 *277:23 0.029575
6 *277:21 0.0299105
7 *277:15 0.00823333
8 *277:13 0.00789778
9 *277:11 0.0211139
10 *277:9 0.0268728
11 *277:9 *278:9 0
12 *277:11 *692:15 0.0482091
13 *277:15 *391:15 0.00152049
14 *277:23 *286:35 0.00744637
15 *277:23 *329:64 0.000365265
16 *277:23 *403:15 0.00555539
17 *277:23 *686:11 0.16833
18 *277:23 *801:15 0.0680551
19 gpio_dm1[1] *277:9 0
20 *158:24 *277:23 0.00142681
21 *165:11 *277:11 0.0132139
22 *195:11 *277:11 0.00025109
23 *222:19 *277:11 0.00124167
24 *229:15 *277:23 0.000539725
25 *230:25 *277:23 0.0285067
26 *241:11 *277:11 0.0850077
27 *263:11 *277:11 0
28 *271:27 *277:21 0
29 *273:15 *277:23 0.0774032
30 *274:135 *277:15 0
31 *274:137 *277:21 0
32 *275:9 *277:9 0.00019176
33 *275:15 *277:23 0
*RES
1 *921:gpio_dm1[20] *277:9 16.8301 
2 *277:9 *277:11 1108.62 
3 *277:11 *277:13 4.5 
4 *277:13 *277:15 136.482 
5 *277:15 *277:21 13.6511 
6 *277:21 *277:23 309.573 
7 *277:23 *277:25 3.41 
8 *277:25 *277:27 2665.48 
9 *277:27 gpio_dm1[20] 1.60714 
*END

*D_NET *278 0.751343
*CONN
*P gpio_dm1[21] O
*I *921:gpio_dm1[21] O *D CF_CARAVEL_SOC
*CAP
1 gpio_dm1[21] 0.000112372
2 *921:gpio_dm1[21] 0.00123652
3 *278:19 0.107956
4 *278:17 0.107844
5 *278:15 0.111944
6 *278:13 0.111944
7 *278:11 0.0272937
8 *278:9 0.0285303
9 *278:11 *324:11 0
10 *278:15 *538:245 0.00462049
11 *278:15 *676:11 0.00510021
12 *278:15 *758:13 0
13 *278:19 *671:7 0.00398611
14 *231:11 *278:11 0.0959601
15 *233:11 *278:11 0.000276215
16 *234:11 *278:11 0.125669
17 *235:11 *278:11 0.0185655
18 *240:11 *278:11 0.000304421
19 *277:9 *278:9 0
*RES
1 *921:gpio_dm1[21] *278:9 6.02007 
2 *278:9 *278:11 1550.16 
3 *278:11 *278:13 3.41 
4 *278:13 *278:15 362.975 
5 *278:15 *278:17 3.41 
6 *278:17 *278:19 2224.7 
7 *278:19 gpio_dm1[21] 1.60714 
*END

*D_NET *279 0.80542
*CONN
*P gpio_dm1[22] O
*I *921:gpio_dm1[22] O *D CF_CARAVEL_SOC
*CAP
1 gpio_dm1[22] 0.108964
2 *921:gpio_dm1[22] 0.00207186
3 *279:17 0.108964
4 *279:15 0.126692
5 *279:13 0.126692
6 *279:11 0.050389
7 *279:9 0.0524609
8 gpio_dm1[22] *710:7 0
9 *279:9 *280:9 0
10 *279:11 gpio_dm2[1] 0
11 *279:11 *280:11 0.0108534
12 *279:11 *280:19 0.0518792
13 *279:11 *293:11 0.000539138
14 *279:11 *309:11 0
15 *279:11 *314:15 0
16 *279:11 *316:11 0.00767186
17 *279:11 *319:11 0.0101115
18 *279:11 *322:19 0.000948096
19 *279:11 *339:11 0.00213383
20 *279:11 *351:11 0
21 *279:11 *352:11 0
22 *279:11 *540:38 0.000122492
23 *279:11 *551:125 0.00236254
24 *279:15 *280:23 0
25 *279:15 *675:11 0
26 *279:15 *758:13 0
27 *91:11 *279:11 0
28 *117:11 *279:11 0.00348489
29 *140:65 *279:11 0.0006039
30 *140:113 *279:15 0.000550468
31 *153:25 *279:11 0.00496386
32 *245:11 *279:11 0.132962
*RES
1 *921:gpio_dm1[22] *279:9 7.60083 
2 *279:9 *279:11 272.985 
3 *279:11 *279:13 3.41 
4 *279:13 *279:15 404.521 
5 *279:15 *279:17 3.41 
6 *279:17 gpio_dm1[22] 2213.71 
*END

*D_NET *280 0.788182
*CONN
*P gpio_dm1[23] O
*I *921:gpio_dm1[23] O *D CF_CARAVEL_SOC
*CAP
1 gpio_dm1[23] 0.0021993
2 *921:gpio_dm1[23] 0.00194103
3 *280:27 0.108666
4 *280:25 0.106467
5 *280:23 0.13829
6 *280:21 0.13829
7 *280:19 0.0207529
8 *280:17 0.0207864
9 *280:11 0.0136666
10 *280:9 0.0155741
11 *280:9 *281:9 0.000441073
12 *280:9 *340:11 0.000111764
13 *280:11 *291:11 0.00369475
14 *280:11 *296:11 0.0031409
15 *280:11 *316:11 0.0622554
16 *280:11 *317:11 0.000332627
17 *280:11 *319:11 0.0612617
18 *280:11 *540:38 0.000106515
19 *280:11 *551:125 0.00811632
20 *280:17 *831:69 7.59402e-06
21 *280:19 *316:11 0.00225882
22 *280:19 *483:11 0.00800733
23 *280:19 *701:17 0.000321403
24 *280:19 *788:27 0.00152053
25 *280:23 *538:249 0.00692978
26 *280:23 *799:15 0
27 *280:27 *322:385 0
28 *280:27 *322:393 0
29 *280:27 *679:17 0
30 *91:11 *280:19 0
31 *169:9 *280:17 2.01997e-05
32 *245:11 *280:19 0.000289513
33 *279:9 *280:9 0
34 *279:11 *280:11 0.0108534
35 *279:11 *280:19 0.0518792
36 *279:15 *280:23 0
*RES
1 *921:gpio_dm1[23] *280:9 7.81547 
2 *280:9 *280:11 943.625 
3 *280:11 *280:17 6.90303 
4 *280:17 *280:19 107.539 
5 *280:19 *280:21 3.41 
6 *280:21 *280:23 444.951 
7 *280:23 *280:25 3.41 
8 *280:25 *280:27 2165.86 
9 *280:27 gpio_dm1[23] 42.9732 
*END

*D_NET *281 1.15398
*CONN
*P gpio_dm1[24] O
*I *921:gpio_dm1[24] O *D CF_CARAVEL_SOC
*CAP
1 gpio_dm1[24] 2.58952e-05
2 *921:gpio_dm1[24] 0.00632828
3 *281:31 0.0560637
4 *281:29 0.0560378
5 *281:27 0.0570015
6 *281:25 0.0572297
7 *281:19 0.0339854
8 *281:17 0.0337571
9 *281:15 0.0041404
10 *281:13 0.0041404
11 *281:11 0.0356349
12 *281:9 0.0419631
13 *281:9 gpio_inp_dis[1] 0.00372689
14 *281:11 gpio_inp_dis[2] 0.000202273
15 *281:11 gpio_inp_dis[5] 0.000127681
16 *281:11 gpio_inp_dis[6] 4.93125e-05
17 *281:11 *305:11 0
18 *281:11 *375:35 1.42165e-05
19 *281:11 *375:59 0
20 *281:11 *782:19 0.00482858
21 *281:11 *782:29 0.000673077
22 *281:11 *782:47 0
23 *281:15 *286:15 0.000573255
24 *281:19 *326:19 0.00405196
25 *281:19 *326:23 0.0431322
26 *281:19 *329:58 0.000424115
27 *281:19 *330:13 0
28 *281:27 *326:31 0.0128337
29 *281:31 gpio_slow_sel[24] 0
30 *281:31 *322:475 0.000713562
31 *281:31 *402:15 0.00367484
32 *281:31 *666:11 0.232677
33 *281:31 *798:23 0.2967
34 gpio_analog_en[4] *281:11 0.0001538
35 gpio_analog_pol[3] *281:11 0.000179918
36 gpio_dm0[3] *281:11 0.000101562
37 gpio_dm0[5] *281:11 0.000153811
38 *110:23 *281:25 0.000547685
39 *120:11 *281:11 0.0396954
40 *150:27 *281:19 0.0171864
41 *150:27 *281:27 0
42 *184:11 *281:11 0.0383798
43 *184:15 *281:15 0.00427093
44 *195:31 *281:27 0.0262999
45 *196:27 *281:27 0.0311299
46 *219:11 *281:11 0
47 *229:11 *281:11 0
48 *242:25 *281:19 0.000464796
49 *242:33 *281:25 0
50 *272:15 *281:15 0.00228509
51 *274:75 *281:11 0.00197806
52 *280:9 *281:9 0.000441073
*RES
1 *921:gpio_dm1[24] *281:9 20.001 
2 *281:9 *281:11 1081.6 
3 *281:11 *281:13 4.5 
4 *281:13 *281:15 99.9286 
5 *281:15 *281:17 4.5 
6 *281:17 *281:19 1011.47 
7 *281:19 *281:25 7.69577 
8 *281:25 *281:27 269.47 
9 *281:27 *281:29 3.41 
10 *281:29 *281:31 474.727 
11 *281:31 gpio_dm1[24] 0.08695 
*END

*D_NET *282 0.802954
*CONN
*P gpio_dm1[25] O
*I *921:gpio_dm1[25] O *D CF_CARAVEL_SOC
*CAP
1 gpio_dm1[25] 3.47603e-05
2 *921:gpio_dm1[25] 0.00168859
3 *282:15 0.151245
4 *282:13 0.151211
5 *282:11 0.127361
6 *282:9 0.12905
7 *282:9 *283:9 0.000468091
8 *282:9 *340:11 0.000111764
9 *282:11 *290:11 0.0121391
10 *282:11 *318:11 0.0630511
11 *282:11 *323:11 0.0219915
12 *282:15 gpio_slow_sel[25] 0
13 *91:11 *282:11 0
14 *106:23 *282:15 0
15 *118:19 *282:11 0.00164652
16 *235:11 *282:11 0
17 *236:11 *282:11 0
18 *239:11 *282:11 0
19 *245:11 *282:11 0.142956
*RES
1 *921:gpio_dm1[25] *282:9 7.4191 
2 *282:9 *282:11 502.245 
3 *282:11 *282:13 3.41 
4 *282:13 *282:15 480.06 
5 *282:15 gpio_dm1[25] 0.116717 
*END

*D_NET *283 0.667329
*CONN
*P gpio_dm1[26] O
*I *921:gpio_dm1[26] O *D CF_CARAVEL_SOC
*CAP
1 gpio_dm1[26] 0.0029825
2 *921:gpio_dm1[26] 0.00647004
3 *283:31 0.149053
4 *283:29 0.14607
5 *283:27 0.0692192
6 *283:25 0.0696637
7 *283:15 0.00586408
8 *283:13 0.00541956
9 *283:11 0.0400115
10 *283:9 0.0464815
11 *283:9 *284:9 0.000426072
12 *283:11 *327:59 0.00126013
13 *283:11 *347:11 0
14 *283:11 *391:51 0.00345043
15 *283:11 *392:57 0.000428118
16 *283:11 *436:27 0
17 *283:11 *571:39 0
18 *283:11 *698:15 0.0502626
19 *283:11 *782:39 0
20 *283:11 *826:131 0
21 *283:15 *705:35 0.00653877
22 *283:15 *832:39 0.000329806
23 *283:25 *782:15 0.000277895
24 *283:27 *328:61 0.00629568
25 *283:27 *332:21 0.0263955
26 *283:27 *440:35 0.0236881
27 gpio_analog_en[26] gpio_dm1[26] 0
28 gpio_analog_en[26] *283:31 0.00075194
29 gpio_analog_sel[1] *283:9 0.000158874
30 *104:31 *283:15 0
31 *107:27 *283:27 0
32 *107:31 *283:31 0
33 *114:23 *283:25 0.000158831
34 *196:11 *283:11 0.000221853
35 *205:39 *283:11 0.00085606
36 *205:47 *283:11 0.000932184
37 *206:43 *283:11 0
38 *230:11 *283:11 0
39 *274:119 *283:11 1.63469e-05
40 *274:123 *283:11 0.00317674
41 *274:131 *283:25 0
42 *282:9 *283:9 0.000468091
*RES
1 *921:gpio_dm1[26] *283:9 18.92 
2 *283:9 *283:11 1067.63 
3 *283:11 *283:13 4.5 
4 *283:13 *283:15 109.375 
5 *283:15 *283:25 17.2009 
6 *283:25 *283:27 279.058 
7 *283:27 *283:29 3.41 
8 *283:29 *283:31 467.039 
9 *283:31 gpio_dm1[26] 6.26902 
*END

*D_NET *284 1.18682
*CONN
*P gpio_dm1[27] O
*I *921:gpio_dm1[27] O *D CF_CARAVEL_SOC
*CAP
1 gpio_dm1[27] 0.00355444
2 *921:gpio_dm1[27] 0.00208551
3 *284:67 0.0248837
4 *284:65 0.0215984
5 *284:59 0.0388212
6 *284:57 0.0400389
7 *284:51 0.0455076
8 *284:49 0.0460884
9 *284:39 0.00547275
10 *284:37 0.00350149
11 *284:31 0.00652655
12 *284:29 0.00645288
13 *284:23 0.0218063
14 *284:21 0.0221862
15 *284:15 0.00914802
16 *284:13 0.00874531
17 *284:11 0.0155753
18 *284:9 0.0176608
19 *284:11 *292:11 0.0383393
20 *284:11 *309:11 0.00130398
21 *284:11 *480:11 0
22 *284:11 *534:15 0
23 *284:11 *571:31 0
24 *284:15 *300:19 0.0578004
25 *284:15 *325:23 0.000368471
26 *284:15 *345:15 0.0156554
27 *284:15 *560:19 0.0296359
28 *284:15 *564:13 0.011473
29 *284:15 *804:23 6.80313e-05
30 *284:15 *844:13 7.42939e-05
31 *284:15 *861:11 0
32 *284:21 gpio_vtrip_sel[43] 0.000590672
33 *284:23 *387:23 0.0856777
34 *284:23 *428:23 0.000168246
35 *284:23 *538:43 0.0129798
36 *284:23 *692:35 0.0309767
37 *284:23 *736:43 0.00126355
38 *284:23 *740:171 0.0247147
39 *284:23 *742:120 0.000191294
40 *284:23 *857:11 0.164456
41 *284:31 *428:23 0.0353115
42 *284:31 *736:43 0.0189291
43 *284:31 *857:11 0.00726602
44 *284:31 *863:11 0.00784351
45 *284:39 *428:23 0.004949
46 *284:39 *549:13 0.024031
47 *284:39 *824:23 0.000205673
48 *284:39 *848:11 0.011048
49 *284:39 *857:11 0.000604922
50 *284:39 *863:11 0.00569622
51 *284:49 *384:11 2.35153e-05
52 *284:49 *387:21 0.000260185
53 *284:49 *549:23 0.00442161
54 *284:49 *736:43 4.63851e-05
55 *284:51 *289:35 0.000440383
56 *284:51 *325:159 0
57 *284:51 *335:57 0
58 *284:51 *410:11 0
59 *284:51 *460:11 0.110895
60 *284:51 *767:17 0.00023506
61 *284:57 gpio_oeb[33] 0
62 *284:57 *381:9 0.000274867
63 *284:59 *409:11 0.0930627
64 *284:59 *546:25 0
65 *284:59 *832:27 0
66 *284:65 gpio_vtrip_sel[29] 8.3117e-05
67 *284:65 *726:21 0
68 *284:67 *369:19 0.000169534
69 *284:67 *369:23 0.00245014
70 *284:67 *546:25 0.00762238
71 *284:67 *813:19 0.0162157
72 gpio_analog_en[27] gpio_dm1[27] 0
73 *250:23 *284:15 0.000468788
74 *251:15 *284:23 0.0152457
75 *274:11 *284:11 0.00320673
76 *283:9 *284:9 0.000426072
*RES
1 *921:gpio_dm1[27] *284:9 8.32307 
2 *284:9 *284:11 496.92 
3 *284:11 *284:13 4.5 
4 *284:13 *284:15 573.482 
5 *284:15 *284:21 17.0179 
6 *284:21 *284:23 1555.91 
7 *284:23 *284:29 8.18679 
8 *284:29 *284:31 55.7545 
9 *284:31 *284:37 9.0975 
10 *284:37 *284:39 227.661 
11 *284:39 *284:49 20.4665 
12 *284:49 *284:51 1387.45 
13 *284:51 *284:57 9.6776 
14 *284:57 *284:59 1161.59 
15 *284:59 *284:65 7.47957 
16 *284:65 *284:67 74.4073 
17 *284:67 gpio_dm1[27] 10.8666 
*END

*D_NET *285 0.747064
*CONN
*P gpio_dm1[28] O
*I *921:gpio_dm1[28] O *D CF_CARAVEL_SOC
*CAP
1 gpio_dm1[28] 6.83541e-05
2 *921:gpio_dm1[28] 0.000937311
3 *285:15 0.151273
4 *285:13 0.151205
5 *285:11 0.0756754
6 *285:9 0.0766127
7 *285:9 *286:9 0
8 *285:9 *340:11 0.000111764
9 *285:11 *289:11 0.000792781
10 *285:11 *294:11 0.000197779
11 *285:11 *295:11 0.000330308
12 *285:11 *327:11 0.001743
13 *285:11 *740:59 0.0185783
14 *285:11 *831:83 0.000609136
15 *285:15 *538:305 0
16 *285:15 *539:305 0.000731224
17 *109:27 *285:11 0
18 *109:31 *285:15 0
19 *149:33 *285:11 6.4068e-05
20 *149:35 *285:11 0.00460398
21 *153:25 *285:11 0.00134137
22 *156:11 *285:11 0
23 *190:11 *285:11 0.00130946
24 *192:11 *285:11 0.00591929
25 *193:31 *285:11 0.0040416
26 *194:35 *285:11 0.126232
27 *197:11 *285:11 0.0217437
28 *200:11 *285:11 0.0196678
29 *205:23 *285:11 0.00681145
30 *214:11 *285:11 0.0605581
31 *227:11 *285:11 0.00909471
32 *228:11 *285:11 0
33 *275:11 *285:11 0.00681022
*RES
1 *921:gpio_dm1[28] *285:9 5.2571 
2 *285:9 *285:11 398.056 
3 *285:11 *285:13 3.41 
4 *285:13 *285:15 477.898 
5 *285:15 gpio_dm1[28] 0.229517 
*END

*D_NET *286 1.07649
*CONN
*P gpio_dm1[29] O
*I *921:gpio_dm1[29] O *D CF_CARAVEL_SOC
*CAP
1 gpio_dm1[29] 0.000383884
2 *921:gpio_dm1[29] 0.00154028
3 *286:41 0.0223374
4 *286:39 0.0250712
5 *286:35 0.106485
6 *286:29 0.104012
7 *286:15 0.0261684
8 *286:13 0.0255234
9 *286:11 0.0339165
10 *286:9 0.0354568
11 *286:9 *288:9 0.000550555
12 *286:9 *340:11 0.000111764
13 *286:11 *290:11 0
14 *286:11 *318:11 0
15 *286:11 *324:11 4.09301e-05
16 *286:15 *321:67 0
17 *286:15 *782:15 0.0122438
18 *286:29 *391:15 7.61206e-05
19 *286:29 *679:9 0
20 *286:29 *831:31 0.000263686
21 *286:35 *361:33 0
22 *286:35 *375:31 0.0547209
23 *286:35 *686:11 0.0165394
24 *286:35 *689:11 0.00161929
25 *286:35 *691:11 0.00209208
26 *286:35 *705:21 0.0325251
27 *286:35 *745:11 0.0181604
28 *286:35 *782:15 0.0353055
29 *286:35 *787:15 0.0564696
30 *286:35 *788:15 0.0535841
31 *286:35 *801:15 0.0161905
32 *286:39 gpio_ib_mode_sel[32] 4.99298e-05
33 *286:39 *782:15 0.000579086
34 *286:41 *325:167 0
35 *286:41 *466:11 0.000167352
36 gpio_dm0[16] *286:29 2.83284e-06
37 *110:23 gpio_dm1[29] 0
38 *118:19 *286:11 0
39 *141:29 *286:35 0.00636679
40 *158:24 *286:35 0.0134987
41 *184:15 *286:15 0
42 *193:61 *286:35 0.00209309
43 *193:63 *286:41 0.081075
44 *206:47 *286:35 0.0546977
45 *230:25 *286:35 0.0111477
46 *236:11 *286:11 0.0100111
47 *244:15 *286:35 0.0135054
48 *244:15 *286:39 0
49 *244:19 *286:41 0.0344755
50 *246:23 *286:35 0.0134987
51 *247:15 *286:35 0.0546977
52 *271:11 *286:11 0.0841321
53 *272:11 *286:11 0.00078855
54 *272:15 *286:15 0.00629194
55 *277:23 *286:35 0.00744637
56 *281:15 *286:15 0.000573255
57 *285:9 *286:9 0
*RES
1 *921:gpio_dm1[29] *286:9 6.95067 
2 *286:9 *286:11 1056.1 
3 *286:11 *286:13 4.5 
4 *286:13 *286:15 539.804 
5 *286:15 *286:29 17.3403 
6 *286:29 *286:35 46.721 
7 *286:35 *286:39 9.97903 
8 *286:39 *286:41 1011.62 
9 *286:41 gpio_dm1[29] 4.31318 
*END

*D_NET *287 0.0759889
*CONN
*P gpio_dm1[2] O
*I *921:gpio_dm1[2] O *D CF_CARAVEL_SOC
*CAP
1 gpio_dm1[2] 0.00516337
2 *921:gpio_dm1[2] 0.00399015
3 *287:11 0.00961946
4 *287:9 0.00844623
5 gpio_dm1[2] gpio_slow_sel[2] 0
6 *287:9 *298:9 0
7 *287:11 *304:11 0.00121689
8 *287:11 *484:11 0.000232063
9 gpio_dm1[1] *287:9 0
10 gpio_dm1[1] *287:11 0.00798598
11 *188:11 *287:11 0.0144818
12 *243:11 *287:11 0.024853
*RES
1 *921:gpio_dm1[2] *287:9 12.9024 
2 *287:9 *287:11 50.9699 
3 *287:11 gpio_dm1[2] 14.2866 
*END

*D_NET *288 0.610931
*CONN
*P gpio_dm1[30] O
*I *921:gpio_dm1[30] O *D CF_CARAVEL_SOC
*CAP
1 gpio_dm1[30] 0.00304333
2 *921:gpio_dm1[30] 0.0046229
3 *288:71 0.154709
4 *288:69 0.151666
5 *288:67 0.0186323
6 *288:65 0.0187429
7 *288:59 0.00193587
8 *288:57 0.00253765
9 *288:53 0.00171904
10 *288:45 0.00431964
11 *288:27 0.00551803
12 *288:25 0.00719126
13 *288:11 0.0217068
14 *288:9 0.0213435
15 *288:9 gpio_out[1] 0
16 *288:9 *289:9 0.000181169
17 *288:11 *307:11 0
18 *288:11 *326:11 0.0410863
19 *288:11 *535:121 0.00875243
20 *288:25 *321:37 0
21 *288:25 *327:19 2.09826e-05
22 *288:25 *337:17 0
23 *288:27 *328:51 0.000482979
24 *288:27 *329:10 0.00181834
25 *288:27 *329:50 0.000438788
26 *288:27 *330:13 0.0137631
27 *288:27 *787:51 0.0130251
28 *288:45 *787:49 0.000446869
29 *288:45 *788:53 0.000972952
30 *288:53 *683:15 0.00124538
31 *288:53 *831:73 0.000713637
32 *288:57 *530:113 0.00173022
33 *288:57 *831:75 5.59239e-05
34 *288:59 *530:113 0.00335075
35 *288:67 *391:33 0.000998472
36 gpio_analog_en[30] gpio_dm1[30] 0
37 *90:11 *288:67 0.0276375
38 *94:17 *288:11 0.00170263
39 *98:11 *288:67 0.00014833
40 *101:11 *288:57 0.00169161
41 *101:11 *288:59 0.0085078
42 *101:11 *288:67 0.000137113
43 *102:11 *288:53 0.000309406
44 *104:11 *288:11 0.00122734
45 *112:31 *288:71 0
46 *113:11 *288:11 0.0212452
47 *116:27 *288:45 0.000216733
48 *133:11 *288:11 0.00467772
49 *150:11 *288:53 0.00223058
50 *157:13 *288:45 2.79435e-05
51 *159:13 *288:59 0.00151015
52 *161:15 *288:65 8.86297e-05
53 *165:9 *288:53 0
54 *179:11 *288:57 0.000417938
55 *179:11 *288:67 0.0282812
56 *181:11 *288:11 0.00163685
57 *183:17 *288:65 2.00441e-05
58 *204:9 *288:25 1.94879e-05
59 *204:17 *288:45 0.000214676
60 *206:17 *288:25 0.000130418
61 *212:9 *288:25 0.00139732
62 *213:9 *288:25 0
63 *247:11 *288:67 0.0001326
64 *286:9 *288:9 0.000550555
*RES
1 *921:gpio_dm1[30] *288:9 14.6681 
2 *288:9 *288:11 693.482 
3 *288:11 *288:25 30.9193 
4 *288:25 *288:27 168 
5 *288:27 *288:45 28.6161 
6 *288:45 *288:53 35.7548 
7 *288:53 *288:57 38.4286 
8 *288:57 *288:59 104.429 
9 *288:59 *288:65 7.11923 
10 *288:65 *288:67 147.17 
11 *288:67 *288:69 3.41 
12 *288:69 *288:71 479.002 
13 *288:71 gpio_dm1[30] 6.09982 
*END

*D_NET *289 1.14765
*CONN
*P gpio_dm1[31] O
*I *921:gpio_dm1[31] O *D CF_CARAVEL_SOC
*CAP
1 gpio_dm1[31] 0.00207333
2 *921:gpio_dm1[31] 0.000944314
3 *289:35 0.047638
4 *289:33 0.0466515
5 *289:23 0.039538
6 *289:21 0.038602
7 *289:11 0.0284
8 *289:9 0.0291936
9 *289:9 *340:11 0.000111764
10 *289:11 *294:11 0.00388189
11 *289:11 *295:11 0.00510528
12 *289:21 *852:9 7.69776e-06
13 *289:23 *336:63 0.00395132
14 *289:23 *455:25 0.000984491
15 *289:23 *462:23 0.000371179
16 *289:23 *464:23 0.0981142
17 *289:23 *465:23 0.0992905
18 *289:23 *481:23 0.00728624
19 *289:23 *547:13 0.0248159
20 *289:23 *571:27 0.000333999
21 *289:23 *749:27 0.0110171
22 *289:23 *837:11 0.00804883
23 *289:23 *838:11 0.0378544
24 *289:33 *336:63 0.000602076
25 *289:33 *446:25 8.83294e-05
26 *289:33 *462:21 0.000101149
27 *289:33 *464:21 0.0010929
28 *289:33 *465:21 0.000670386
29 *289:33 *553:23 0.000291766
30 *289:35 *404:11 0
31 *289:35 *460:11 0.000299897
32 *289:35 *550:23 0.173427
33 *289:35 *691:15 0.00762788
34 *289:35 *812:11 0.112119
35 *113:23 gpio_dm1[31] 0
36 *119:15 *289:23 0.137442
37 *119:27 *289:33 3.89679e-05
38 *208:21 *289:23 0.138713
39 *212:19 *289:11 0.00151877
40 *214:11 *289:11 0.0220897
41 *227:11 *289:11 0.0020766
42 *228:11 *289:11 0.00287706
43 *248:11 *289:11 0.00269293
44 *249:11 *289:11 0.00151877
45 *252:11 *289:11 0.00281799
46 *255:11 *289:11 0.00341663
47 *255:15 *289:21 2.46181e-05
48 *275:11 *289:11 0.00047516
49 *284:51 *289:35 0.000440383
50 *285:11 *289:11 0.000792781
51 *288:9 *289:9 0.000181169
*RES
1 *921:gpio_dm1[31] *289:9 5.40123 
2 *289:9 *289:11 88.4697 
3 *289:11 *289:21 11.824 
4 *289:21 *289:23 2671 
5 *289:23 *289:33 17.8154 
6 *289:33 *289:35 2185.84 
7 *289:35 gpio_dm1[31] 7.59692 
*END

*D_NET *290 0.73033
*CONN
*P gpio_dm1[32] O
*I *921:gpio_dm1[32] O *D CF_CARAVEL_SOC
*CAP
1 gpio_dm1[32] 0.000842401
2 *921:gpio_dm1[32] 0.00198839
3 *290:15 0.100533
4 *290:13 0.099691
5 *290:11 0.0151509
6 *290:9 0.0171393
7 gpio_dm1[32] *459:13 0.00314476
8 gpio_dm1[32] *553:25 0.00314618
9 *290:9 *291:9 0
10 *290:9 *340:11 0.000111764
11 *290:9 *740:65 0
12 *290:11 *291:11 0.0834248
13 *290:11 *296:11 0.000219804
14 *290:11 *317:11 0.00135268
15 *290:11 *318:11 0.000885057
16 *290:11 *323:11 0.0729343
17 *290:15 gpio_vtrip_sel[32] 0.000885928
18 *290:15 *361:33 0.0155427
19 *290:15 *369:17 6.73724e-05
20 *290:15 *406:19 0
21 *290:15 *440:23 0
22 *290:15 *538:153 0.000290185
23 *290:15 *730:19 0
24 *290:15 *754:21 0
25 *290:15 *802:15 0
26 *290:15 *805:15 0
27 *118:19 *290:11 0.00625559
28 *148:13 *290:15 0.286844
29 *230:25 *290:15 0.00774003
30 *275:15 *290:15 0
31 *282:11 *290:11 0.0121391
32 *286:11 *290:11 0
*RES
1 *921:gpio_dm1[32] *290:9 7.5272 
2 *290:9 *290:11 1062.62 
3 *290:11 *290:13 3.41 
4 *290:13 *290:15 479.795 
5 *290:15 gpio_dm1[32] 46.6583 
*END

*D_NET *291 0.925239
*CONN
*P gpio_dm1[33] O
*I *921:gpio_dm1[33] O *D CF_CARAVEL_SOC
*CAP
1 gpio_dm1[33] 0.000485632
2 *921:gpio_dm1[33] 0.00177425
3 *291:27 0.00276807
4 *291:25 0.00798163
5 *291:15 0.0399711
6 *291:13 0.0342719
7 *291:11 0.014257
8 *291:9 0.0160313
9 gpio_dm1[33] gpio_slow_sel[33] 6.93055e-05
10 *291:9 *292:9 0.000678133
11 *291:9 *340:11 0.000111764
12 *291:11 *296:11 0.00164232
13 *291:11 *317:11 0.0723962
14 *291:15 *437:31 0.000898084
15 *291:15 *688:11 0.00379041
16 *291:15 *716:11 0.00116833
17 *291:15 *744:11 0.0551497
18 *291:25 *687:17 0.000506244
19 *291:25 *688:11 0.000569173
20 *291:27 *459:13 0.000236953
21 *291:27 *466:11 0.000102209
22 *115:15 *291:15 0.278257
23 *117:39 *291:25 0.0024576
24 *163:23 *291:15 0.276586
25 *163:33 *291:25 0.00113618
26 *163:35 *291:27 0.00950679
27 *204:45 *291:27 0.00482909
28 *245:11 *291:11 0.0104871
29 *280:11 *291:11 0.00369475
30 *290:9 *291:9 0
31 *290:11 *291:11 0.0834248
*RES
1 *921:gpio_dm1[33] *291:9 7.59927 
2 *291:9 *291:11 1025.13 
3 *291:11 *291:13 4.5 
4 *291:13 *291:15 2649.23 
5 *291:15 *291:25 28.4704 
6 *291:25 *291:27 120.946 
7 *291:27 gpio_dm1[33] 4.55602 
*END

*D_NET *292 0.923315
*CONN
*P gpio_dm1[34] O
*I *921:gpio_dm1[34] O *D CF_CARAVEL_SOC
*CAP
1 gpio_dm1[34] 0.00612213
2 *921:gpio_dm1[34] 0.00164234
3 *292:27 0.0361725
4 *292:25 0.0307914
5 *292:15 0.0428403
6 *292:13 0.0420992
7 *292:11 0.0160376
8 *292:9 0.01768
9 *292:9 *293:9 0.000547549
10 *292:11 *293:11 0
11 *292:11 *309:11 0.00172922
12 *292:11 *339:11 0
13 *292:15 *295:15 0.277532
14 *292:15 *299:23 0.000355534
15 *292:15 *386:55 0.000401963
16 *292:15 *430:23 0
17 *292:15 *431:15 0.00148661
18 *292:15 *452:15 0.000926198
19 *292:15 *466:15 0.017049
20 *292:15 *469:15 0.000308382
21 *292:15 *539:43 0.00527283
22 *292:15 *548:11 4.8029e-05
23 *292:15 *550:11 0.000342288
24 *292:15 *839:125 0.00156469
25 *292:15 *839:143 0.000924235
26 *292:15 *839:157 0.00181307
27 *292:15 *858:11 0.142658
28 *292:25 *459:23 0.000914483
29 *292:25 *468:27 2.07485e-05
30 *292:25 *468:29 0.000712662
31 *292:25 *470:15 0.000793756
32 *292:25 *543:21 8.89112e-05
33 *292:25 *771:25 0.000225062
34 *292:25 *865:15 6.39334e-05
35 *292:27 gpio_slow_sel[35] 0.0042909
36 *292:27 *353:11 0
37 *292:27 *386:21 0
38 *292:27 *416:11 0.0606952
39 *292:27 *423:11 0.0263855
40 *292:27 *438:17 0.00571694
41 *292:27 *555:17 0.0145785
42 *292:27 *556:43 0.00772472
43 *292:27 *755:11 0.00440059
44 *292:27 *793:11 0.0514964
45 *292:27 *815:11 0
46 *292:27 *827:11 0.0155634
47 gpio_analog_en[34] gpio_dm1[34] 0.00278345
48 *118:107 *292:15 0.0066508
49 *118:197 *292:15 0.00230855
50 *211:13 *292:15 0.0309146
51 *274:11 *292:11 0.00162425
52 *284:11 *292:11 0.0383393
53 *291:9 *292:9 0.000678133
*RES
1 *921:gpio_dm1[34] *292:9 8.03793 
2 *292:9 *292:11 506.027 
3 *292:11 *292:13 4.5 
4 *292:13 *292:15 2648.82 
5 *292:15 *292:25 17.0784 
6 *292:25 *292:27 213.646 
7 *292:27 gpio_dm1[34] 17.2335 
*END

*D_NET *293 0.765781
*CONN
*P gpio_dm1[35] O
*I *921:gpio_dm1[35] O *D CF_CARAVEL_SOC
*CAP
1 gpio_dm1[35] 0.00775961
2 *921:gpio_dm1[35] 0.00205591
3 *293:27 0.0383116
4 *293:25 0.0321619
5 *293:15 0.0647174
6 *293:13 0.0631074
7 *293:11 0.0158076
8 *293:9 0.0178636
9 gpio_dm1[35] gpio_ib_mode_sel[35] 0
10 gpio_dm1[35] *414:11 0
11 gpio_dm1[35] *420:11 0.00351266
12 gpio_dm1[35] *456:27 0.000364647
13 gpio_dm1[35] *821:21 0.000176067
14 *293:9 *294:9 0
15 *293:9 *340:11 0.000111764
16 *293:11 *339:11 0.0409696
17 *293:15 *322:123 0.000687698
18 *293:15 *322:163 0.00288917
19 *293:15 *322:167 8.10737e-06
20 *293:15 *325:145 0.000317776
21 *293:15 *325:149 0.00163631
22 *293:15 *346:15 0.0111498
23 *293:15 *397:79 0
24 *293:15 *444:71 0.00335156
25 *293:15 *463:15 0.269723
26 *293:15 *467:15 0.00112957
27 *293:15 *471:27 0.00546253
28 *293:15 *472:55 0.00294117
29 *293:15 *531:16 0.0139881
30 *293:15 *538:25 0.000411104
31 *293:15 *539:55 0.0183092
32 *293:15 *541:97 0.00200999
33 *293:15 *556:11 0
34 *293:15 *557:11 0
35 *293:15 *557:19 0.000849176
36 *293:15 *559:11 0
37 *293:15 *560:11 0
38 *293:15 *568:11 0
39 *293:15 *570:14 7.68631e-05
40 *293:15 *571:19 0.00568854
41 *293:15 *693:131 0.00276408
42 *293:15 *693:173 0.000493485
43 *293:15 *826:45 0.000168948
44 *293:15 *840:19 0.0281438
45 *293:25 *364:37 8.89112e-05
46 *293:25 *430:21 0.000195283
47 *293:25 *469:15 0.0011133
48 *293:25 *548:21 0.000926748
49 *293:25 *557:29 0.000377314
50 *293:25 *771:25 0.000736153
51 *293:25 *793:25 0.000529476
52 *293:25 *842:21 0
53 *293:25 *846:37 0.00176936
54 *293:25 *860:15 0.000381111
55 *293:27 *295:27 0.0071741
56 *293:27 *384:11 0.00462112
57 *293:27 *415:11 0
58 *293:27 *420:11 0.00143523
59 *293:27 *552:25 0
60 *293:27 *737:81 0
61 *293:27 *757:11 0
62 *293:27 *760:11 0.071773
63 *293:27 *821:21 0.00241307
64 gpio_analog_en[35] gpio_dm1[35] 0
65 *118:87 *293:15 0.00187715
66 *118:179 *293:15 0.00424297
67 *118:185 *293:15 0.00044821
68 *118:187 *293:15 0.00547114
69 *274:11 *293:11 0
70 *279:11 *293:11 0.000539138
71 *292:9 *293:9 0.000547549
72 *292:11 *293:11 0
*RES
1 *921:gpio_dm1[35] *293:9 8.1758 
2 *293:9 *293:11 502.688 
3 *293:11 *293:13 4.5 
4 *293:13 *293:15 2635.27 
5 *293:15 *293:25 23.059 
6 *293:25 *293:27 979.446 
7 *293:27 gpio_dm1[35] 29.6637 
*END

*D_NET *294 0.943847
*CONN
*P gpio_dm1[36] O
*I *921:gpio_dm1[36] O *D CF_CARAVEL_SOC
*CAP
1 gpio_dm1[36] 0.00462281
2 *921:gpio_dm1[36] 0.000973768
3 *294:27 0.0182031
4 *294:25 0.0189253
5 *294:21 0.00566014
6 *294:15 0.0329522
7 *294:13 0.0326371
8 *294:11 0.00830576
9 *294:9 0.00927952
10 gpio_dm1[36] *822:9 0.000304147
11 gpio_dm1[36] *823:9 0.000169289
12 *294:9 *295:9 0
13 *294:11 *295:11 0.00575018
14 *294:11 *346:11 0.00900452
15 *294:15 *338:71 0.0215638
16 *294:15 *386:207 0.0109741
17 *294:15 *474:15 0.000231785
18 *294:15 *480:15 0.258864
19 *294:15 *559:19 0.229628
20 *294:15 *847:16 0.000171275
21 *294:21 *338:77 0
22 *294:25 *339:23 0.0240313
23 *294:25 *390:23 0.00365489
24 *294:25 *461:21 3.90458e-05
25 *294:25 *472:11 0.0122073
26 *294:25 *558:23 0.00100405
27 *294:25 *760:23 0.00393272
28 *294:27 *446:19 0.0667863
29 *294:27 *446:25 0.00020708
30 *294:27 *544:17 0
31 *294:27 *779:11 0.0144872
32 gpio_analog_en[36] gpio_dm1[36] 0
33 *119:27 *294:27 0.0513308
34 *209:15 *294:15 0.036624
35 *213:11 *294:11 0
36 *227:11 *294:11 0.0252427
37 *238:25 *294:27 1.94879e-05
38 *252:11 *294:11 0.0256717
39 *275:11 *294:11 0.00630744
40 *285:11 *294:11 0.000197779
41 *289:11 *294:11 0.00388189
42 *293:9 *294:9 0
*RES
1 *921:gpio_dm1[36] *294:9 5.25867 
2 *294:9 *294:11 521.205 
3 *294:11 *294:13 4.5 
4 *294:13 *294:15 2452.91 
5 *294:15 *294:21 12.1332 
6 *294:21 *294:25 41.7965 
7 *294:25 *294:27 839.196 
8 *294:27 gpio_dm1[36] 13.0552 
*END

*D_NET *295 0.934403
*CONN
*P gpio_dm1[37] O
*I *921:gpio_dm1[37] O *D CF_CARAVEL_SOC
*CAP
1 gpio_dm1[37] 0.00586422
2 *921:gpio_dm1[37] 0.00105227
3 *295:27 0.0394389
4 *295:25 0.0350323
5 *295:15 0.0355345
6 *295:13 0.0340768
7 *295:11 0.0110352
8 *295:9 0.0120875
9 *295:9 *296:9 0
10 *295:9 *340:11 0.000111764
11 *295:15 *299:23 0.00040736
12 *295:15 *431:15 0.00172354
13 *295:15 *452:15 0.271337
14 *295:15 *469:15 0.0233618
15 *295:15 *548:11 0.00160428
16 *295:15 *839:125 0.00136018
17 *295:15 *839:143 0.000803433
18 *295:25 *389:21 1.17103e-05
19 *295:25 *390:21 0.00144556
20 *295:25 *428:11 0.000121594
21 *295:25 *432:11 3.22265e-05
22 *295:25 *470:15 0.00354716
23 *295:25 *760:21 6.13346e-05
24 *295:25 *847:36 0.000145424
25 *295:25 *851:15 9.12946e-05
26 *295:25 *852:25 6.60981e-06
27 *295:25 *853:21 0
28 *295:27 *921:porb_l 0
29 *295:27 *384:11 0.0123214
30 *295:27 *386:21 0
31 *295:27 *414:11 0
32 *295:27 *419:11 0
33 *295:27 *420:11 0.00988329
34 *295:27 *436:17 0
35 *295:27 *456:27 0.0104102
36 *295:27 *469:11 0.00812416
37 *295:27 *760:11 0.0113897
38 *295:27 *815:11 0
39 gpio_analog_en[37] gpio_dm1[37] 0
40 *211:13 *295:15 0.0287807
41 *212:19 *295:11 0
42 *250:35 *295:27 0.00930492
43 *251:27 *295:27 0.0100627
44 *252:11 *295:11 0.0251461
45 *255:11 *295:11 0.0261384
46 *275:11 *295:11 0.00665596
47 *285:11 *295:11 0.000330308
48 *289:11 *295:11 0.00510528
49 *292:15 *295:15 0.277532
50 *293:27 *295:27 0.0071741
51 *294:9 *295:9 0
52 *294:11 *295:11 0.00575018
*RES
1 *921:gpio_dm1[37] *295:9 5.50933 
2 *295:9 *295:11 518.473 
3 *295:11 *295:13 4.5 
4 *295:13 *295:15 2626.23 
5 *295:15 *295:25 21.6231 
6 *295:25 *295:27 112.333 
7 *295:27 gpio_dm1[37] 15.3284 
*END

*D_NET *296 0.550424
*CONN
*P gpio_dm1[38] O
*I *921:gpio_dm1[38] O *D CF_CARAVEL_SOC
*CAP
1 gpio_dm1[38] 0.00214404
2 *921:gpio_dm1[38] 0.00196744
3 *296:23 0.037976
4 *296:21 0.0358582
5 *296:15 0.0110434
6 *296:13 0.0110172
7 *296:11 0.00909286
8 *296:9 0.0110603
9 gpio_dm1[38] *325:101 0
10 gpio_dm1[38] *335:31 0.000587636
11 *296:11 *540:38 0.00402426
12 *296:11 *740:67 0.0178595
13 *296:15 *339:15 0.00120778
14 *296:15 *771:27 0.0234046
15 *296:15 *842:11 0.0609882
16 *296:21 *545:9 4.43299e-05
17 *296:23 *432:15 0.113024
18 *296:23 *456:31 0.00341261
19 *296:23 *470:15 0.0582935
20 *296:23 *543:11 0.00875848
21 *296:23 *842:11 0.00586385
22 *296:23 *847:16 0
23 gpio_analog_pol[43] *296:21 2.83284e-06
24 *118:19 *296:11 0
25 *121:15 *296:23 0.0123483
26 *165:23 *296:23 0.0280832
27 *169:15 *296:23 0.00401029
28 *170:23 *296:15 0.0137575
29 *245:11 *296:11 0.00315218
30 *250:11 *296:11 0.00330846
31 *251:11 *296:11 0.0088253
32 *257:11 *296:11 0.0269888
33 *257:15 *296:23 0.0273155
34 *280:11 *296:11 0.0031409
35 *290:11 *296:11 0.000219804
36 *291:11 *296:11 0.00164232
37 *295:9 *296:9 0
*RES
1 *921:gpio_dm1[38] *296:9 7.45827 
2 *296:9 *296:11 527.277 
3 *296:11 *296:13 4.5 
4 *296:13 *296:15 599.357 
5 *296:15 *296:21 8.49036 
6 *296:21 *296:23 258.478 
7 *296:23 gpio_dm1[38] 36.9904 
*END

*D_NET *297 0.552354
*CONN
*P gpio_dm1[39] O
*I *921:gpio_dm1[39] O *D CF_CARAVEL_SOC
*CAP
1 gpio_dm1[39] 0.0002667
2 *921:gpio_dm1[39] 0.000355833
3 *297:22 0.00752587
4 *297:20 0.00839088
5 *297:14 0.0283798
6 *297:12 0.0272481
7 *297:10 0.0182779
8 *297:8 0.0186337
9 *297:8 *302:13 0.000356569
10 *297:8 *341:12 0.000892557
11 *297:10 *340:35 0.00698108
12 *297:10 *341:12 0.000413205
13 *297:10 *341:14 0.0436547
14 *297:10 *839:15 0.000431699
15 *297:14 *482:15 0.0304657
16 *297:14 *483:23 0.0226834
17 *297:14 *555:13 0.0170722
18 *297:14 *558:13 0.0232112
19 *297:14 *828:15 0.027137
20 *297:14 *837:11 0.0603142
21 *297:14 *838:11 0.000393274
22 *297:20 gpio_ib_mode_sel[40] 0
23 *297:20 gpio_vtrip_sel[40] 0.000690638
24 *297:22 gpio_out[40] 0.00196551
25 *297:22 *549:13 0.00458458
26 *297:22 *692:35 0.0315825
27 *297:22 *693:193 0.00506976
28 *297:22 *848:11 0.00572031
29 *297:22 *867:11 0.00398676
30 *167:19 *297:14 2.85982e-05
31 *207:31 *297:22 0.00617671
32 *252:15 *297:22 0.00758051
33 *255:15 *297:14 0.141883
*RES
1 *921:gpio_dm1[39] *297:8 5.40593 
2 *297:8 *297:10 93.6898 
3 *297:10 *297:12 3.41 
4 *297:12 *297:14 224.282 
5 *297:14 *297:20 26.9807 
6 *297:20 *297:22 49.9892 
7 *297:22 gpio_dm1[39] 7.4725 
*END

*D_NET *298 0.099172
*CONN
*P gpio_dm1[3] O
*I *921:gpio_dm1[3] O *D CF_CARAVEL_SOC
*CAP
1 gpio_dm1[3] 0.00397578
2 *921:gpio_dm1[3] 0.00503514
3 *298:11 0.0137849
4 *298:9 0.0148442
5 gpio_dm1[3] gpio_slow_sel[3] 0
6 *298:9 *303:9 0
7 *298:11 *303:11 0.0415836
8 gpio_dm0[3] gpio_dm1[3] 0
9 *133:11 *298:11 0.000253672
10 *169:11 *298:11 0.00295992
11 *199:11 *298:11 0.00193102
12 *222:17 *298:11 0.00183832
13 *224:15 *298:9 0
14 *267:13 *298:11 0.000176959
15 *267:15 *298:11 0.0127884
16 *287:9 *298:9 0
*RES
1 *921:gpio_dm1[3] *298:9 15.3527 
2 *298:9 *298:11 85.8063 
3 *298:11 gpio_dm1[3] 11.5543 
*END

*D_NET *299 0.510809
*CONN
*P gpio_dm1[40] O
*I *921:gpio_dm1[40] O *D CF_CARAVEL_SOC
*CAP
1 gpio_dm1[40] 0.00249963
2 *921:gpio_dm1[40] 0.000332617
3 *299:23 0.0264003
4 *299:21 0.0244899
5 *299:11 0.00702332
6 *299:9 0.00676678
7 gpio_dm1[40] gpio_out[40] 0
8 gpio_dm1[40] *921:gpio_in[43] 0
9 *299:9 *300:11 0.000104104
10 *299:9 *341:12 0.000255549
11 *299:11 *300:11 0.0422162
12 *299:11 *340:11 0.0163129
13 *299:11 *340:27 0.000994786
14 *299:11 *341:12 0.00039003
15 *299:11 *341:14 0.00548439
16 *299:21 *301:13 0.00139333
17 *299:21 *302:13 0.00139245
18 *299:21 *535:117 0.000136958
19 *299:23 *431:15 0.00463616
20 *299:23 *452:15 0.0314819
21 *299:23 *479:15 0.0291954
22 *299:23 *484:15 0.00483787
23 *299:23 *548:11 0.00521677
24 *299:23 *839:125 0.000893766
25 *121:15 *299:23 0.0125817
26 *211:13 *299:23 0.143724
27 *256:15 *299:23 0.118249
28 *258:11 *299:11 0.00373162
29 *258:15 *299:11 0.0193048
30 *292:15 *299:23 0.000355534
31 *295:15 *299:23 0.00040736
*RES
1 *921:gpio_dm1[40] *299:9 3.99593 
2 *299:9 *299:11 515.438 
3 *299:11 *299:21 32.2582 
4 *299:21 *299:23 231.453 
5 *299:23 gpio_dm1[40] 40.2046 
*END

*D_NET *300 0.371007
*CONN
*P gpio_dm1[41] O
*I *921:gpio_dm1[41] O *D CF_CARAVEL_SOC
*CAP
1 gpio_dm1[41] 0.000480001
2 *921:gpio_dm1[41] 0.000291614
3 *300:27 0.00567344
4 *300:25 0.00549335
5 *300:19 0.0122237
6 *300:17 0.0136858
7 *300:11 0.00813097
8 *300:9 0.0066606
9 *300:9 *301:11 0
10 *300:9 *341:12 0.000255549
11 *300:11 *301:13 0.0427146
12 *300:11 *340:11 0.000222118
13 *300:11 *340:27 0.00246933
14 *300:11 *341:12 0.000429409
15 *300:11 *341:14 0.00623917
16 *300:17 *301:13 0.00067422
17 *300:17 *842:9 0.00179168
18 *300:17 *843:9 0.000270146
19 *300:17 *845:9 0
20 *300:19 *301:17 0.000101601
21 *300:19 *335:25 0.0292707
22 *300:19 *560:19 0.0142642
23 *300:19 *561:18 0.0034615
24 *300:19 *564:13 0.0106397
25 *300:19 *695:67 0.0117818
26 *300:19 *844:13 0.0234397
27 *300:25 gpio_vtrip_sel[42] 4.80728e-05
28 *300:27 *345:27 0.00116552
29 *300:27 *478:9 4.5231e-05
30 *300:27 *560:27 0.0299517
31 *300:27 *786:23 0.000370306
32 *300:27 *859:11 0.00620718
33 *124:9 *300:17 0
34 *211:9 *300:17 0
35 *252:15 *300:27 0.0313181
36 *258:15 *300:11 4.21244e-05
37 *258:15 *300:17 0.00107286
38 *284:15 *300:19 0.0578004
39 *299:9 *300:11 0.000104104
40 *299:11 *300:11 0.0422162
*RES
1 *921:gpio_dm1[41] *300:9 3.99593 
2 *300:9 *300:11 521.661 
3 *300:11 *300:17 47.5089 
4 *300:17 *300:19 793.214 
5 *300:19 *300:25 12.4368 
6 *300:25 *300:27 49.5568 
7 *300:27 gpio_dm1[41] 10.5975 
*END

*D_NET *301 0.334922
*CONN
*P gpio_dm1[42] O
*I *921:gpio_dm1[42] O *D CF_CARAVEL_SOC
*CAP
1 gpio_dm1[42] 0.000781321
2 *921:gpio_dm1[42] 0.000307333
3 *301:17 0.017198
4 *301:15 0.0164167
5 *301:13 0.00905954
6 *301:11 0.00936687
7 *301:11 *302:11 0
8 *301:11 *341:12 0.000201414
9 *301:13 *302:13 0.0245067
10 *301:13 *302:19 0.000298374
11 *301:13 *322:11 8.33728e-05
12 *301:13 *340:11 0.000121336
13 *301:13 *340:27 0.00276226
14 *301:13 *341:12 0.00046497
15 *301:13 *341:14 0.00675597
16 *301:13 *841:9 0.000242893
17 *301:13 *842:9 0.00175934
18 *301:17 *302:21 0.00253074
19 *301:17 *345:15 0.0129735
20 *301:17 *541:19 0.000404681
21 *301:17 *546:13 0.000155767
22 *301:17 *552:13 0.000135407
23 *301:17 *560:19 0.0118743
24 *301:17 *564:13 0.0839507
25 *301:17 *565:13 0.0858451
26 *301:17 *566:13 0.00151347
27 *301:17 *843:11 0.000222972
28 *248:19 *301:17 0.000104932
29 *252:15 *301:17 0
30 *299:21 *301:13 0.00139333
31 *300:9 *301:11 0
32 *300:11 *301:13 0.0427146
33 *300:17 *301:13 0.00067422
34 *300:19 *301:17 0.000101601
*RES
1 *921:gpio_dm1[42] *301:11 4.42511 
2 *301:11 *301:13 569.018 
3 *301:13 *301:15 3.41 
4 *301:15 *301:17 145.766 
5 *301:17 gpio_dm1[42] 14.7761 
*END

*D_NET *302 0.236681
*CONN
*P gpio_dm1[43] O
*I *921:gpio_dm1[43] O *D CF_CARAVEL_SOC
*CAP
1 gpio_dm1[43] 0.000794254
2 *921:gpio_dm1[43] 0.000206517
3 *302:21 0.0162921
4 *302:19 0.0161873
5 *302:13 0.0192173
6 *302:11 0.0187343
7 *302:13 *322:11 0
8 *302:13 *340:35 0
9 *302:13 *341:12 0.0010893
10 *302:13 *341:14 0.0148761
11 *302:13 *840:9 0.000237873
12 *302:19 *840:9 0.00142674
13 *302:19 *841:9 0.00041504
14 *302:21 *325:23 0.000101601
15 *302:21 *345:15 0.000530943
16 *302:21 *565:13 0.0601911
17 *302:21 *843:11 0.0215674
18 *302:21 *854:11 0.0106304
19 *302:21 *861:11 0.0124416
20 *207:29 gpio_dm1[43] 0
21 *248:19 *302:21 0.0126563
22 *297:8 *302:13 0.000356569
23 *299:21 *302:13 0.00139245
24 *301:11 *302:11 0
25 *301:13 *302:13 0.0245067
26 *301:13 *302:19 0.000298374
27 *301:17 *302:21 0.00253074
*RES
1 *921:gpio_dm1[43] *302:11 5.03348 
2 *302:11 *302:13 554.911 
3 *302:13 *302:19 23.035 
4 *302:19 *302:21 102.742 
5 *302:21 gpio_dm1[43] 15.1868 
*END

*D_NET *303 0.160625
*CONN
*P gpio_dm1[4] O
*I *921:gpio_dm1[4] O *D CF_CARAVEL_SOC
*CAP
1 gpio_dm1[4] 0.00329127
2 *921:gpio_dm1[4] 0.0048883
3 *303:11 0.0134521
4 *303:9 0.0150492
5 *303:9 *304:9 0
6 *303:11 *771:31 0.00380151
7 gpio_analog_en[4] gpio_dm1[4] 0.0030038
8 gpio_dm0[4] gpio_dm1[4] 0
9 *133:11 *303:11 0.0590213
10 *166:11 *303:11 0.015952
11 *199:11 *303:11 0
12 *224:15 *303:9 0.000469703
13 *225:15 *303:9 0.000112306
14 *298:9 *303:9 0
15 *298:11 *303:11 0.0415836
*RES
1 *921:gpio_dm1[4] *303:9 15.3151 
2 *303:9 *303:11 120.643 
3 *303:11 gpio_dm1[4] 11.4682 
*END

*D_NET *304 0.206355
*CONN
*P gpio_dm1[5] O
*I *921:gpio_dm1[5] O *D CF_CARAVEL_SOC
*CAP
1 gpio_dm1[5] 0.00449154
2 *921:gpio_dm1[5] 0.00403435
3 *304:11 0.0256083
4 *304:9 0.0251511
5 gpio_dm1[5] gpio_slow_sel[5] 0.00254806
6 *304:9 *305:9 0
7 *304:11 *310:11 0.00285672
8 *304:11 *312:15 0.00864211
9 *304:11 *349:11 0.00855328
10 *304:11 *484:11 0.00309421
11 gpio_dm0[5] gpio_dm1[5] 0
12 gpio_dm1[1] *304:11 0.00674169
13 *128:11 *304:11 0.0386479
14 *131:11 *304:11 0.00302855
15 *155:11 *304:11 0.0102572
16 *175:11 *304:11 0.000902502
17 *180:11 *304:11 0.00096608
18 *188:11 *304:11 0.0441771
19 *225:15 *304:9 0.000290927
20 *225:19 *304:11 0.0112897
21 *259:11 *304:11 0
22 *260:11 *304:11 0.00385702
23 *287:11 *304:11 0.00121689
24 *303:9 *304:9 0
*RES
1 *921:gpio_dm1[5] *304:9 13.1907 
2 *304:9 *304:11 154.414 
3 *304:11 gpio_dm1[5] 13.9043 
*END

*D_NET *305 0.190854
*CONN
*P gpio_dm1[6] O
*I *921:gpio_dm1[6] O *D CF_CARAVEL_SOC
*CAP
1 gpio_dm1[6] 0.00185641
2 *921:gpio_dm1[6] 0.0070837
3 *305:11 0.0244997
4 *305:9 0.029727
5 gpio_dm1[6] gpio_slow_sel[6] 0
6 *305:9 *306:9 0
7 *305:11 gpio_inp_dis[2] 0
8 *305:11 *311:11 0.0154902
9 *305:11 *375:59 0.0410724
10 *305:11 *782:47 0.0105687
11 *305:11 *815:53 0.0256887
12 *120:11 *305:11 0
13 *219:11 *305:11 0.0348672
14 *225:15 *305:9 0
15 *274:75 *305:11 0
16 *281:11 *305:11 0
17 *304:9 *305:9 0
*RES
1 *921:gpio_dm1[6] *305:9 19.5686 
2 *305:9 *305:11 1077.8 
3 *305:11 gpio_dm1[6] 7.35095 
*END

*D_NET *306 0.357255
*CONN
*P gpio_dm1[7] O
*I *921:gpio_dm1[7] O *D CF_CARAVEL_SOC
*CAP
1 gpio_dm1[7] 0.00291897
2 *921:gpio_dm1[7] 0.0059311
3 *306:11 0.0352977
4 *306:9 0.0383098
5 *306:9 *307:9 0
6 *306:11 *348:11 0.018695
7 *306:11 *408:101 0.000182832
8 *306:11 *804:27 0.00860139
9 gpio_analog_en[7] gpio_dm1[7] 0
10 *168:11 *306:11 0
11 *218:11 *306:11 0.097983
12 *263:11 *306:11 0.149336
13 *305:9 *306:9 0
*RES
1 *921:gpio_dm1[7] *306:9 17.2625 
2 *306:9 *306:11 1864.05 
3 *306:11 gpio_dm1[7] 9.65082 
*END

*D_NET *307 0.315509
*CONN
*P gpio_dm1[8] O
*I *921:gpio_dm1[8] O *D CF_CARAVEL_SOC
*CAP
1 gpio_dm1[8] 0.00391569
2 *921:gpio_dm1[8] 0.00486673
3 *307:11 0.0747415
4 *307:9 0.0756925
5 gpio_dm1[8] *791:27 0
6 *307:11 *321:63 0.00823261
7 *307:11 *327:39 0.000479497
8 *307:11 *481:11 0.0856873
9 *307:11 *535:121 0
10 gpio_analog_en[8] gpio_dm1[8] 0
11 *89:11 *307:11 0.00662247
12 *104:11 *307:11 0.0149566
13 *113:11 *307:11 0
14 *133:11 *307:11 0.00429084
15 *181:11 *307:11 0.0259287
16 *202:11 *307:11 0.0100947
17 *224:19 *307:11 0
18 *288:11 *307:11 0
19 *306:9 *307:9 0
*RES
1 *921:gpio_dm1[8] *307:9 15.0284 
2 *307:9 *307:11 2060.16 
3 *307:11 gpio_dm1[8] 12.029 
*END

*D_NET *308 0.496071
*CONN
*P gpio_dm1[9] O
*I *921:gpio_dm1[9] O *D CF_CARAVEL_SOC
*CAP
1 gpio_dm1[9] 0.00539657
2 *921:gpio_dm1[9] 0.00293603
3 *308:11 0.0495815
4 *308:9 0.0471209
5 *308:9 *340:11 0.000111764
6 *308:11 gpio_dm2[2] 0
7 *308:11 *430:27 0.000229941
8 *308:11 *445:19 0.00596032
9 *308:11 *562:123 0.000229941
10 *308:11 *705:39 0.013493
11 *308:11 *716:15 0.0141047
12 *308:11 *727:15 0.00181937
13 *90:11 *308:11 0.156269
14 *144:11 *308:11 0.00161691
15 *223:11 *308:11 0.00283588
16 *226:11 *308:11 0.193328
17 *266:9 *308:9 0.00103715
*RES
1 *921:gpio_dm1[9] *308:9 11.1666 
2 *308:9 *308:11 395.925 
3 *308:11 gpio_dm1[9] 15.8783 
*END

*D_NET *309 0.0795169
*CONN
*P gpio_dm2[0] O
*I *921:gpio_dm2[0] O *D CF_CARAVEL_SOC
*CAP
1 gpio_dm2[0] 0.00496372
2 *921:gpio_dm2[0] 0.00246058
3 *309:11 0.0209451
4 *309:9 0.018442
5 gpio_dm2[0] gpio_holdover[0] 0.00210368
6 gpio_dm2[0] gpio_out[0] 0
7 *309:9 gpio_dm2[1] 0
8 *309:9 *340:11 0.000111764
9 *309:11 gpio_dm2[1] 0.00675663
10 *309:11 *443:19 0
11 *309:11 *452:11 0.00017465
12 *309:11 *463:11 0.000663646
13 *309:11 *474:11 0.000683412
14 *309:11 *479:11 0.00117217
15 *309:11 *480:11 0.00137118
16 *309:11 *534:15 0.00433554
17 *309:11 *571:31 0.000683412
18 gpio_analog_sel[0] gpio_dm2[0] 0.00271472
19 gpio_dm1[0] *309:11 0.00600787
20 *242:9 gpio_dm2[0] 0.000865996
21 *245:11 *309:11 0
22 *250:11 *309:11 0
23 *274:11 *309:11 0.00202762
24 *279:11 *309:11 0
25 *284:11 *309:11 0.00130398
26 *292:11 *309:11 0.00172922
*RES
1 *921:gpio_dm2[0] *309:9 8.86043 
2 *309:9 *309:11 49.3719 
3 *309:11 gpio_dm2[0] 18.2581 
*END

*D_NET *310 0.454772
*CONN
*P gpio_dm2[10] O
*I *921:gpio_dm2[10] O *D CF_CARAVEL_SOC
*CAP
1 gpio_dm2[10] 0.0034279
2 *921:gpio_dm2[10] 0.00393846
3 *310:11 0.0411259
4 *310:9 0.0416364
5 gpio_dm2[10] gpio_holdover[10] 0.000392882
6 gpio_dm2[10] *354:15 0.00423913
7 gpio_dm2[10] *706:11 0
8 *310:9 *311:9 0
9 *310:9 *352:9 0.000707477
10 *310:11 *349:11 0.00932037
11 *310:11 *444:11 0.0113262
12 *310:11 *484:11 0.165096
13 *131:11 *310:11 0.133857
14 *135:11 *310:11 0.0307938
15 *155:11 *310:11 0.00605369
16 *225:19 *310:11 0
17 *304:11 *310:11 0.00285672
*RES
1 *921:gpio_dm2[10] *310:9 13.0105 
2 *310:9 *310:11 2268.41 
3 *310:11 gpio_dm2[10] 13.7868 
*END

*D_NET *311 0.426214
*CONN
*P gpio_dm2[11] O
*I *921:gpio_dm2[11] O *D CF_CARAVEL_SOC
*CAP
1 gpio_dm2[11] 0.0016575
2 *921:gpio_dm2[11] 0.00732464
3 *311:11 0.0522346
4 *311:9 0.0579017
5 gpio_dm2[11] gpio_holdover[11] 0.000262871
6 gpio_dm2[11] *355:15 6.40983e-05
7 *311:9 *312:15 0
8 *311:11 gpio_holdover[10] 0
9 *311:11 gpio_ib_mode_sel[8] 0
10 *311:11 gpio_oeb[9] 0
11 *311:11 gpio_out[8] 0
12 *311:11 *815:53 0.00624737
13 gpio_analog_pol[10] *311:11 0
14 gpio_analog_pol[9] *311:11 0
15 gpio_analog_sel[11] gpio_dm2[11] 0
16 *219:11 *311:11 0.118034
17 *264:11 *311:11 0.166997
18 *305:11 *311:11 0.0154902
19 *310:9 *311:9 0
*RES
1 *921:gpio_dm2[11] *311:9 19.4245 
2 *311:9 *311:11 2463.91 
3 *311:11 gpio_dm2[11] 7.46688 
*END

*D_NET *312 0.440086
*CONN
*P gpio_dm2[12] O
*I *921:gpio_dm2[12] O *D CF_CARAVEL_SOC
*CAP
1 gpio_dm2[12] 0.00316338
2 *921:gpio_dm2[12] 0.00864436
3 *312:19 0.0689214
4 *312:17 0.065758
5 *312:15 0.00864436
6 gpio_dm2[12] gpio_holdover[12] 0
7 *312:15 *313:9 0
8 *312:15 *315:11 0.00254506
9 *312:15 *321:11 0.00249708
10 *312:19 *337:35 0.00172258
11 *312:19 *375:43 0.0124933
12 *312:19 *532:36 0
13 *312:19 *535:121 0.000239879
14 *312:19 *568:15 0.0137544
15 *312:19 *782:31 0.00649622
16 gpio_analog_en[3] *312:19 0.000754179
17 gpio_analog_sel[12] gpio_dm2[12] 0.00339189
18 gpio_analog_sel[4] *312:19 0.000319936
19 *94:17 *312:19 0.00331292
20 *113:19 *312:19 0.000370852
21 *128:11 *312:15 0.000229645
22 *129:9 *312:15 4.90966e-05
23 *132:11 *312:19 0
24 *136:11 *312:19 0.0061434
25 *161:13 *312:19 0.0024352
26 *171:13 *312:19 0.00132887
27 *176:11 *312:19 0.00942279
28 *182:19 *312:19 0.164703
29 *202:25 *312:19 0.000556996
30 *259:11 *312:15 0.00624672
31 *260:19 *312:19 0.0371844
32 *266:11 *312:15 0.000113898
33 *266:11 *312:19 0
34 *304:11 *312:15 0.00864211
35 *311:9 *312:15 0
*RES
1 *921:gpio_dm2[12] *312:15 49.8438 
2 *312:15 *312:17 3.41 
3 *312:17 *312:19 2477.27 
4 *312:19 gpio_dm2[12] 12.6995 
*END

*D_NET *313 0.561904
*CONN
*P gpio_dm2[13] O
*I *921:gpio_dm2[13] O *D CF_CARAVEL_SOC
*CAP
1 gpio_dm2[13] 0.00244479
2 *921:gpio_dm2[13] 0.00566893
3 *313:18 1.65018e-05
4 *313:11 0.0587074
5 *313:9 0.061948
6 gpio_dm2[13] gpio_holdover[13] 0.000971411
7 gpio_dm2[13] gpio_out[13] 0
8 gpio_dm2[13] *357:23 0.00224197
9 *313:9 *463:9 0
10 *313:11 *445:11 0.218522
11 *313:11 *531:28 0.199246
12 *313:11 *692:23 0.0121375
13 *94:19 *313:11 0
14 *312:15 *313:9 0
*RES
1 *921:gpio_dm2[13] *313:9 16.1815 
2 *313:9 *313:11 3055.27 
3 *313:11 gpio_dm2[13] 10.3143 
4 gpio_dm2[13] *313:18 0.0509167 
*END

*D_NET *314 0.573739
*CONN
*P gpio_dm2[14] O
*I *921:gpio_dm2[14] O *D CF_CARAVEL_SOC
*CAP
1 gpio_dm2[14] 0.00470414
2 *921:gpio_dm2[14] 0.0119625
3 *314:19 0.0997964
4 *314:17 0.0950923
5 *314:15 0.0119625
6 gpio_dm2[14] *358:23 0.0002641
7 *314:15 *315:9 0.000605982
8 *314:15 *340:11 0.000111764
9 *314:15 *352:11 0.00218618
10 *314:15 *474:9 0.000162201
11 *314:19 *337:19 0.0120701
12 *314:19 *350:11 0.00574755
13 *314:19 *474:11 1.65923e-05
14 *314:19 *479:11 0
15 *314:19 *480:11 0
16 *314:19 *534:15 0
17 *314:19 *571:31 0
18 *314:19 *699:10 0
19 *314:19 *700:10 0.00610255
20 *314:19 *744:15 0
21 gpio_analog_sel[14] gpio_dm2[14] 0.00376321
22 *91:9 *314:15 0.000161457
23 *91:11 *314:15 4.26762e-05
24 *92:9 *314:15 0
25 *96:11 *314:19 0.262872
26 *105:27 *314:19 0.0523008
27 *125:11 *314:19 0.00103676
28 *206:19 *314:19 0
29 *274:11 *314:15 0.00277676
30 *279:11 *314:15 0
*RES
1 *921:gpio_dm2[14] *314:15 48.133 
2 *314:15 *314:17 3.41 
3 *314:17 *314:19 3241.05 
4 *314:19 gpio_dm2[14] 27.8346 
*END

*D_NET *315 0.437315
*CONN
*P gpio_dm2[15] O
*I *921:gpio_dm2[15] O *D CF_CARAVEL_SOC
*CAP
1 gpio_dm2[15] 8.269e-05
2 *921:gpio_dm2[15] 0.00431741
3 *315:27 0.13668
4 *315:25 0.138302
5 *315:15 0.00428609
6 *315:13 0.00258098
7 *315:11 0.0176471
8 *315:9 0.0219645
9 gpio_dm2[15] gpio_holdover[15] 0
10 *315:9 *463:9 0
11 *315:11 *321:11 0.022758
12 *315:11 *532:36 0.0287044
13 *315:15 *789:23 0.000508093
14 *315:15 *833:31 0.00901063
15 *315:25 *436:23 0.00265886
16 *315:25 *694:6 0.00332062
17 gpio_analog_sel[15] gpio_dm2[15] 0
18 *112:11 *315:11 0.00382752
19 *129:11 *315:11 0.00673788
20 *139:11 *315:11 0.00468529
21 *161:15 *315:25 0.00161902
22 *162:11 *315:11 0.011939
23 *182:11 *315:11 0.00305328
24 *183:19 *315:27 0
25 *203:11 *315:11 0.000855372
26 *225:19 *315:11 0
27 *271:15 *315:15 0.00477359
28 *271:25 *315:25 0.00349046
29 *274:125 *315:15 0.000361388
30 *312:15 *315:11 0.00254506
31 *314:15 *315:9 0.000605982
*RES
1 *921:gpio_dm2[15] *315:9 13.7312 
2 *315:9 *315:11 889.438 
3 *315:11 *315:13 4.5 
4 *315:13 *315:15 87.6071 
5 *315:15 *315:25 25.839 
6 *315:25 *315:27 2696.45 
7 *315:27 gpio_dm2[15] 1.60714 
*END

*D_NET *316 0.497902
*CONN
*P gpio_dm2[16] O
*I *921:gpio_dm2[16] O *D CF_CARAVEL_SOC
*CAP
1 gpio_dm2[16] 0.129685
2 *921:gpio_dm2[16] 0.00214248
3 *316:17 0.129685
4 *316:15 0.0260971
5 *316:13 0.0260971
6 *316:11 0.0191188
7 *316:9 0.0212612
8 gpio_dm2[16] gpio_holdover[16] 0
9 gpio_dm2[16] *537:238 0.00185557
10 *316:9 *317:9 0
11 *316:11 *319:11 0.00637697
12 *316:11 *339:11 0.00261457
13 *316:11 *483:11 0
14 *316:11 *551:125 0.00154821
15 *316:11 *701:17 0.00236757
16 *316:11 *788:27 0.0066139
17 *316:15 *681:15 0.00015539
18 *316:15 *685:15 0.000237036
19 gpio_analog_sel[16] gpio_dm2[16] 0
20 *97:11 *316:11 0
21 *99:11 *316:11 0
22 *117:11 *316:11 0.0348519
23 *140:65 *316:11 0.00250412
24 *140:83 *316:15 0
25 *143:15 *316:15 0
26 *153:25 *316:11 0.000221011
27 *202:27 *316:15 0.0122829
28 *274:11 *316:11 0
29 *279:11 *316:11 0.00767186
30 *280:11 *316:11 0.0622554
31 *280:19 *316:11 0.00225882
*RES
1 *921:gpio_dm2[16] *316:9 7.781 
2 *316:9 *316:11 939.982 
3 *316:11 *316:13 3.41 
4 *316:13 *316:15 98.8504 
5 *316:15 *316:17 3.41 
6 *316:17 gpio_dm2[16] 2644.78 
*END

*D_NET *317 0.599044
*CONN
*P gpio_dm2[17] O
*I *921:gpio_dm2[17] O *D CF_CARAVEL_SOC
*CAP
1 gpio_dm2[17] 0.125537
2 *921:gpio_dm2[17] 0.00201972
3 *317:17 0.125537
4 *317:15 0.0443055
5 *317:13 0.0443055
6 *317:11 0.015469
7 *317:9 0.0174887
8 gpio_dm2[17] gpio_holdover[17] 0
9 gpio_dm2[17] *361:35 0.0556559
10 *317:9 *318:9 0
11 *317:11 *319:11 0.0784029
12 *317:11 *323:11 0.00344776
13 *317:11 *483:11 0
14 *317:15 *538:177 0
15 gpio_analog_sel[17] gpio_dm2[17] 0
16 *245:11 *317:11 0.0127943
17 *280:11 *317:11 0.000332627
18 *290:11 *317:11 0.00135268
19 *291:11 *317:11 0.0723962
20 *316:9 *317:9 0
*RES
1 *921:gpio_dm2[17] *317:9 7.5648 
2 *317:9 *317:11 1027.41 
3 *317:11 *317:13 3.41 
4 *317:13 *317:15 138.919 
5 *317:15 *317:17 3.41 
6 *317:17 gpio_dm2[17] 2552.49 
*END

*D_NET *318 0.624138
*CONN
*P gpio_dm2[18] O
*I *921:gpio_dm2[18] O *D CF_CARAVEL_SOC
*CAP
1 gpio_dm2[18] 0.00463496
2 *921:gpio_dm2[18] 0.00162898
3 *318:17 0.00463496
4 *318:15 0.0645139
5 *318:13 0.0645139
6 *318:11 0.141456
7 *318:9 0.143085
8 gpio_dm2[18] gpio_holdover[18] 0
9 *318:9 *319:9 0.000650478
10 *318:9 *340:11 0.000111764
11 *318:11 *323:11 0.133946
12 *318:11 *324:11 0
13 gpio_analog_sel[18] gpio_dm2[18] 0
14 *140:367 *318:15 0.00102628
15 *282:11 *318:11 0.0630511
16 *286:11 *318:11 0
17 *290:11 *318:11 0.000885057
18 *317:9 *318:9 0
*RES
1 *921:gpio_dm2[18] *318:9 7.38307 
2 *318:9 *318:11 3479.66 
3 *318:11 *318:13 3.41 
4 *318:13 *318:15 208.32 
5 *318:15 *318:17 3.41 
6 *318:17 gpio_dm2[18] 94.7768 
*END

*D_NET *319 0.628949
*CONN
*P gpio_dm2[19] O
*I *921:gpio_dm2[19] O *D CF_CARAVEL_SOC
*CAP
1 gpio_dm2[19] 0.128334
2 *921:gpio_dm2[19] 0.00160412
3 *319:17 0.128334
4 *319:15 0.090574
5 *319:13 0.090574
6 *319:11 0.014198
7 *319:9 0.0158021
8 *319:9 *321:9 0
9 *319:11 *483:11 0
10 *319:15 *538:169 0
11 gpio_analog_sel[19] gpio_dm2[19] 0
12 *140:65 *319:11 0.00250583
13 *140:93 *319:15 0.0002192
14 *187:15 *319:15 0
15 *279:11 *319:11 0.0101115
16 *280:11 *319:11 0.0612617
17 *316:11 *319:11 0.00637697
18 *317:11 *319:11 0.0784029
19 *318:9 *319:9 0.000650478
*RES
1 *921:gpio_dm2[19] *319:9 7.31727 
2 *319:9 *319:11 964.268 
3 *319:11 *319:13 3.41 
4 *319:13 *319:15 288.458 
5 *319:15 *319:17 3.41 
6 *319:17 gpio_dm2[19] 2608.35 
*END

*D_NET *320 0.0398955
*CONN
*P gpio_dm2[1] O
*I *921:gpio_dm2[1] O *D CF_CARAVEL_SOC
*CAP
1 gpio_dm2[1] 0.0113003
2 *921:gpio_dm2[1] 0.0113003
3 gpio_dm2[1] gpio_holdover[1] 0.00110734
4 gpio_dm2[1] gpio_out[1] 0
5 gpio_dm2[1] *443:19 0
6 gpio_dm2[1] *463:11 0.00103065
7 gpio_dm2[1] *474:11 0.00143332
8 gpio_dm2[1] *479:11 0.00167781
9 gpio_dm2[1] *480:11 0.0014919
10 gpio_dm2[1] *571:31 0.00155093
11 gpio_analog_sel[1] gpio_dm2[1] 0.00224643
12 *279:11 gpio_dm2[1] 0
13 *309:9 gpio_dm2[1] 0
14 *309:11 gpio_dm2[1] 0.00675663
*RES
1 *921:gpio_dm2[1] gpio_dm2[1] 42.03 
*END

*D_NET *321 0.712439
*CONN
*P gpio_dm2[20] O
*I *921:gpio_dm2[20] O *D CF_CARAVEL_SOC
*CAP
1 gpio_dm2[20] 0.000112372
2 *921:gpio_dm2[20] 0.00389885
3 *321:71 0.131925
4 *321:69 0.131813
5 *321:67 0.100399
6 *321:65 0.100399
7 *321:63 0.00333852
8 *321:61 0.00393648
9 *321:55 0.00131209
10 *321:47 0.0017888
11 *321:45 0.00107468
12 *321:43 0.00501637
13 *321:41 0.00536461
14 *321:37 0.00882654
15 *321:21 0.00984292
16 *321:11 0.0101493
17 *321:9 0.0126835
18 gpio_dm2[20] gpio_holdover[20] 0
19 *321:9 gpio_inp_dis[2] 0.00124029
20 *321:37 *334:30 0.00258168
21 *321:41 *333:11 0.00220468
22 *321:41 *334:30 0.000408885
23 *321:47 *445:11 0.00227906
24 *321:71 gpio_holdover[20] 0
25 *321:71 *722:9 0
26 gpio_analog_en[2] *321:9 0.000798314
27 gpio_analog_sel[20] gpio_dm2[20] 0
28 gpio_analog_sel[20] *321:71 0
29 *93:11 *321:21 0.00193693
30 *109:21 *321:37 0.00558831
31 *109:23 *321:37 0.000109708
32 *112:11 *321:11 0.0192133
33 *116:27 *321:41 0.00219751
34 *128:11 *321:11 0.00337928
35 *130:11 *321:21 0.000474114
36 *137:11 *321:63 0.00123603
37 *142:11 *321:37 0.000750594
38 *143:11 *321:37 0.000519366
39 *148:9 *321:37 5.28985e-05
40 *152:9 *321:37 0
41 *178:19 *321:47 0.00432049
42 *182:11 *321:11 0.000972456
43 *189:19 *321:71 0
44 *193:9 *321:37 0.000342774
45 *203:11 *321:11 0.000155438
46 *205:23 *321:37 0.00527217
47 *206:17 *321:37 0.000130418
48 *206:47 *321:67 0.0718082
49 *209:9 *321:37 2.864e-05
50 *212:9 *321:37 0
51 *222:19 *321:55 0.00284819
52 *223:17 *321:9 0.000576942
53 *223:19 *321:21 0
54 *224:19 *321:63 0
55 *225:19 *321:11 0.00846329
56 *241:11 *321:55 0.00284819
57 *274:41 *321:21 0
58 *274:69 *321:47 3.12359e-05
59 *274:75 *321:43 5.33005e-05
60 *274:135 *321:67 0.00424777
61 *286:15 *321:67 0
62 *288:25 *321:37 0
63 *307:11 *321:63 0.00823261
64 *312:15 *321:11 0.00249708
65 *315:11 *321:11 0.022758
66 *319:9 *321:9 0
*RES
1 *921:gpio_dm2[20] *321:9 13.5871 
2 *321:9 *321:11 498.134 
3 *321:11 *321:21 45.6332 
4 *321:21 *321:37 45.6022 
5 *321:37 *321:41 31.4911 
6 *321:41 *321:43 74.0536 
7 *321:43 *321:45 4.5 
8 *321:45 *321:47 54.1607 
9 *321:47 *321:55 46.4107 
10 *321:55 *321:61 18.1607 
11 *321:61 *321:63 101.821 
12 *321:63 *321:65 4.5 
13 *321:65 *321:67 1918.16 
14 *321:67 *321:69 4.5 
15 *321:69 *321:71 2674.44 
16 *321:71 gpio_dm2[20] 1.60714 
*END

*D_NET *322 1.3908
*CONN
*P gpio_dm2[21] O
*I *921:gpio_dm2[21] O *D CF_CARAVEL_SOC
*CAP
1 gpio_dm2[21] 0.00073421
2 *921:gpio_dm2[21] 0.000260536
3 *322:481 0.0149681
4 *322:479 0.0142339
5 *322:477 0.00457876
6 *322:475 0.00676915
7 *322:461 0.00751603
8 *322:459 0.0079782
9 *322:451 0.00404748
10 *322:445 0.00483096
11 *322:443 0.00598797
12 *322:429 0.00919247
13 *322:427 0.00735471
14 *322:417 0.00762146
15 *322:415 0.00758518
16 *322:409 0.00278197
17 *322:407 0.00353761
18 *322:393 0.00993254
19 *322:391 0.00872565
20 *322:385 0.00539503
21 *322:383 0.00587909
22 *322:377 0.0182004
23 *322:375 0.0178761
24 *322:371 0.00247274
25 *322:359 0.00412995
26 *322:349 0.00981228
27 *322:347 0.00811219
28 *322:341 0.00493095
29 *322:339 0.00495243
30 *322:333 0.0240833
31 *322:331 0.025286
32 *322:317 0.0129411
33 *322:315 0.0113734
34 *322:313 0.00201722
35 *322:311 0.00201722
36 *322:309 0.00147986
37 *322:307 0.00395893
38 *322:303 0.0028455
39 *322:299 0.00250648
40 *322:293 0.00849952
41 *322:291 0.00635947
42 *322:289 0.00328049
43 *322:287 0.00328049
44 *322:285 0.00594942
45 *322:283 0.00621204
46 *322:277 0.0116407
47 *322:275 0.011378
48 *322:273 0.00314759
49 *322:271 0.00334599
50 *322:265 0.00344122
51 *322:259 0.00372112
52 *322:255 0.00715726
53 *322:235 0.00844569
54 *322:221 0.00765091
55 *322:215 0.00721851
56 *322:207 0.00367976
57 *322:191 0.00529613
58 *322:189 0.00410089
59 *322:175 0.00656452
60 *322:173 0.00556598
61 *322:167 0.00692526
62 *322:165 0.00681355
63 *322:163 0.00101529
64 *322:161 0.00413592
65 *322:153 0.0047832
66 *322:141 0.00337862
67 *322:131 0.00404928
68 *322:129 0.00245387
69 *322:123 0.00360596
70 *322:113 0.00703037
71 *322:101 0.00626137
72 *322:89 0.00584298
73 *322:81 0.00441054
74 *322:77 0.00304788
75 *322:65 0.00233786
76 *322:61 0.000930531
77 *322:57 0.00303413
78 *322:39 0.00650828
79 *322:37 0.00387076
80 *322:35 0.00677956
81 *322:33 0.00788313
82 *322:27 0.00210045
83 *322:25 0.00168878
84 *322:19 0.00378865
85 *322:17 0.00466129
86 *322:11 0.00499229
87 *322:9 0.00368828
88 gpio_dm2[21] gpio_holdover[21] 0
89 *322:9 *341:12 0.000255549
90 *322:11 *340:11 0.00924772
91 *322:11 *341:12 0.00403385
92 *322:19 *339:11 0.0194911
93 *322:19 *551:125 0.0194928
94 *322:27 *335:13 0.00623686
95 *322:27 *338:11 0.00623686
96 *322:27 *443:19 0.00117933
97 *322:35 *740:75 0.0175422
98 *322:39 *697:109 0.000305826
99 *322:39 *826:127 0.0206622
100 *322:57 *397:173 0.0063319
101 *322:57 *530:93 0.00439455
102 *322:57 *535:113 0.00236936
103 *322:57 *537:52 2.24813e-05
104 *322:57 *551:121 0.00693127
105 *322:57 *696:89 0.00199118
106 *322:61 *826:125 0.00012129
107 *322:65 *533:102 0.00451061
108 *322:65 *536:63 0.000458508
109 *322:77 *444:21 0.000248691
110 *322:77 *474:15 0.00106865
111 *322:77 *771:27 0
112 *322:81 *386:205 0.00203898
113 *322:89 *386:201 0
114 *322:89 *533:84 0.0005596
115 *322:89 *533:92 0.00333894
116 *322:89 *535:91 0.000152361
117 *322:89 *536:49 0.0095856
118 *322:89 *537:40 0.00967592
119 *322:89 *540:32 9.15842e-06
120 *322:101 *397:135 0.00152253
121 *322:101 *533:70 0.00140417
122 *322:101 *533:84 0.00167528
123 *322:101 *535:59 0.00742121
124 *322:101 *535:91 6.52967e-05
125 *322:101 *536:35 0.00228572
126 *322:101 *537:24 9.99644e-06
127 *322:101 *551:95 0.00151414
128 *322:101 *740:123 0.00141195
129 *322:101 *741:148 7.90634e-05
130 *322:101 *826:109 9.13864e-05
131 *322:113 *325:37 0
132 *322:113 *336:29 0
133 *322:113 *533:68 0.00859561
134 *322:113 *535:59 0.000682916
135 *322:123 *338:35 0.000129601
136 *322:123 *419:117 0.000267313
137 *322:123 *444:55 0.00166478
138 *322:123 *531:16 0.00258268
139 *322:123 *535:35 0
140 *322:123 *537:12 0.00452476
141 *322:123 *538:37 1.93639e-05
142 *322:123 *540:18 0.00166319
143 *322:123 *840:19 0.00014047
144 *322:129 *336:45 0
145 *322:131 *386:155 0.000315646
146 *322:131 *386:159 0
147 *322:131 *419:117 0.00163609
148 *322:131 *539:11 0.00792447
149 *322:141 *536:17 0.000148457
150 *322:141 *539:17 0
151 *322:141 *696:133 4.25619e-05
152 *322:141 *740:167 0
153 *322:141 *760:29 2.72284e-05
154 *322:141 *847:14 0
155 *322:153 *364:39 0.00178502
156 *322:153 *531:14 1.90936e-05
157 *322:153 *571:25 0
158 *322:153 *852:11 0.00178163
159 *322:161 *529:9 0.0168224
160 *322:161 *539:41 4.11173e-05
161 *322:161 *540:18 0.00189369
162 *322:161 *570:14 0.00322918
163 *322:161 *571:19 0.00323244
164 *322:161 *840:19 0.00873596
165 *322:163 *397:79 0.00113592
166 *322:163 *570:14 0.000464205
167 *322:163 *571:19 0.000712417
168 *322:163 *840:19 0.00110981
169 *322:167 *921:gpio_in[41] 0.00406015
170 *322:167 *397:79 0.0276012
171 *322:167 *472:55 0.000674004
172 *322:167 *529:9 0.00363985
173 *322:167 *539:55 0.0495296
174 *322:167 *571:17 0.00047119
175 *322:167 *840:19 0.000904347
176 *322:173 *444:61 4.22135e-06
177 *322:173 *539:61 0.000234269
178 *322:173 *826:45 1.03196e-05
179 *322:175 gpio_out[39] 0.00356356
180 *322:175 *338:63 0.000707748
181 *322:175 *472:55 6.59103e-06
182 *322:175 *539:63 0.031887
183 *322:175 *541:35 0.00913066
184 *322:189 *539:73 9.5664e-05
185 *322:189 *826:31 0.0016339
186 *322:191 *325:87 0
187 *322:191 *419:31 0.0174003
188 *322:191 *539:75 0.0207254
189 *322:207 *325:97 0.00655528
190 *322:207 *397:71 0.000447202
191 *322:207 *444:71 0.000106699
192 *322:207 *541:53 1.03196e-05
193 *322:207 *737:181 0.00295433
194 *322:207 *739:108 0.000103071
195 *322:207 *739:116 1.90143e-05
196 *322:207 *826:27 0.000128347
197 *322:215 *921:gpio_in[19] 8.79856e-06
198 *322:215 *539:101 0.0017925
199 *322:215 *543:11 0
200 *322:215 *693:173 0.000406625
201 *322:215 *739:108 0.000254454
202 *322:221 *325:115 0.000407112
203 *322:221 *539:107 0.0155131
204 *322:221 *541:65 0.0007291
205 *322:221 *541:73 4.88644e-05
206 *322:221 *693:163 0.000139694
207 *322:221 *739:92 7.05113e-05
208 *322:221 *815:47 6.94448e-05
209 *322:221 *826:27 0.00146551
210 *322:235 *921:gpio_in[11] 0.000102649
211 *322:235 *397:39 0
212 *322:235 *397:55 0.00237749
213 *322:235 *419:23 0.000376948
214 *322:235 *556:29 0.000804699
215 *322:235 *737:143 3.0102e-05
216 *322:235 *739:84 0.000135663
217 *322:235 *826:27 0.000246875
218 *322:235 *873:15 0
219 *322:255 *325:137 4.0895e-05
220 *322:255 *386:35 0.000275605
221 *322:255 *386:55 2.99833e-06
222 *322:255 *472:11 0.00028148
223 *322:255 *539:141 0.000562822
224 *322:255 *541:89 0
225 *322:255 *737:143 0
226 *322:255 *739:76 0.0153943
227 *322:255 *826:27 0.00157346
228 *322:259 *364:39 0.00322725
229 *322:259 *390:23 0.00176134
230 *322:259 *472:11 0.000703806
231 *322:265 *539:153 0.00808478
232 *322:265 *693:109 0.00738475
233 *322:265 *737:99 0.000200287
234 *322:273 *539:155 0.0129685
235 *322:273 *541:107 0.00791726
236 *322:273 *693:95 0.000131992
237 *322:273 *815:21 0.00294037
238 *322:277 *338:83 0.0225885
239 *322:277 *440:19 0.00772917
240 *322:285 *411:11 0.0299755
241 *322:285 *544:17 0.0299772
242 *322:293 *459:13 0.00768427
243 *322:299 *541:115 0
244 *322:303 *396:11 0.00169991
245 *322:303 *472:25 0.000114863
246 *322:303 *802:11 0.00170149
247 *322:307 *693:37 0.00119241
248 *322:309 *361:11 0.00220048
249 *322:309 *370:11 0.0096145
250 *322:309 *755:11 0.00961298
251 *322:313 *436:23 0
252 *322:313 *539:187 0.00435612
253 *322:313 *693:27 0.000357752
254 *322:313 *731:14 0.00011307
255 *322:313 *808:25 0
256 *322:317 *539:207 0
257 *322:317 *705:21 0
258 *322:317 *808:21 0
259 *322:333 *680:17 0.00483419
260 *322:341 *677:15 0.0121095
261 *322:349 *676:15 0.00721765
262 *322:359 *720:13 0
263 *322:359 *792:15 0
264 *322:371 gpio_holdover[9] 0
265 *322:371 *720:13 0
266 *322:371 *722:17 0
267 *322:371 *836:15 0.00142141
268 *322:377 *544:33 0.0161659
269 *322:391 *326:35 0.000724863
270 *322:391 *400:23 0
271 *322:407 *764:23 0.00194992
272 *322:409 *456:11 0.00563214
273 *322:481 *539:435 0.0248935
274 gpio_analog_sel[21] gpio_dm2[21] 0
275 gpio_analog_sel[43] *322:57 0.00114562
276 gpio_analog_sel[43] *322:101 0.000630901
277 *104:35 *322:385 0
278 *118:19 *322:35 0
279 *118:37 *322:57 0
280 *118:37 *322:61 0.000257677
281 *118:39 *322:65 0.00450868
282 *118:65 *322:101 0
283 *118:73 *322:113 2.24813e-05
284 *118:87 *322:123 0.00131991
285 *118:177 *322:207 0.0117083
286 *118:179 *322:207 0.000134026
287 *118:211 *322:277 0.049954
288 *125:15 *322:39 0.00605075
289 *169:15 *322:77 0.000325149
290 *190:19 gpio_dm2[21] 0
291 *192:19 *322:371 0.000588758
292 *193:61 *322:317 0
293 *197:15 *322:375 0.000298084
294 *204:45 *322:293 0.0150258
295 *206:59 *322:293 0.0294099
296 *245:11 *322:19 0.000783161
297 *251:11 *322:35 0
298 *255:15 *322:153 0.000243851
299 *279:11 *322:19 0.000948096
300 *280:27 *322:385 0
301 *280:27 *322:393 0
302 *281:31 *322:475 0.000713562
303 *293:15 *322:123 0.000687698
304 *293:15 *322:163 0.00288917
305 *293:15 *322:167 8.10737e-06
306 *301:13 *322:11 8.33728e-05
307 *302:13 *322:11 0
*RES
1 *921:gpio_dm2[21] *322:9 3.99593 
2 *322:9 *322:11 112.902 
3 *322:11 *322:17 32.9464 
4 *322:17 *322:19 239.036 
5 *322:19 *322:25 19.3929 
6 *322:25 *322:27 76.625 
7 *322:27 *322:33 25.9643 
8 *322:33 *322:35 215.054 
9 *322:35 *322:37 4.5 
10 *322:37 *322:39 194.804 
11 *322:39 *322:57 43.4815 
12 *322:57 *322:61 12.9732 
13 *322:61 *322:65 46.9286 
14 *322:65 *322:77 45.0893 
15 *322:77 *322:81 30.4011 
16 *322:81 *322:89 40.4437 
17 *322:89 *322:101 46.941 
18 *322:101 *322:113 45.862 
19 *322:113 *322:123 48.5004 
20 *322:123 *322:129 10.6154 
21 *322:129 *322:131 74.4643 
22 *322:131 *322:141 35.3929 
23 *322:141 *322:153 44.6332 
24 *322:153 *322:161 34.5534 
25 *322:161 *322:163 49.8214 
26 *322:163 *322:165 0.732143 
27 *322:165 *322:167 465.054 
28 *322:167 *322:173 11.5261 
29 *322:173 *322:175 49.2685 
30 *322:175 *322:189 47.3832 
31 *322:189 *322:191 194.393 
32 *322:191 *322:207 42.1445 
33 *322:207 *322:215 38.9911 
34 *322:215 *322:221 49.5585 
35 *322:221 *322:235 34.1188 
36 *322:235 *322:255 44.3943 
37 *322:255 *322:259 35.0179 
38 *322:259 *322:265 48.7817 
39 *322:265 *322:271 11.2225 
40 *322:271 *322:273 126.214 
41 *322:273 *322:275 4.5 
42 *322:275 *322:277 623.054 
43 *322:277 *322:283 13.2321 
44 *322:283 *322:285 374.429 
45 *322:285 *322:287 4.5 
46 *322:287 *322:289 51.4643 
47 *322:289 *322:291 4.5 
48 *322:291 *322:293 367.143 
49 *322:293 *322:299 41.5714 
50 *322:299 *322:303 25.875 
51 *322:303 *322:307 46.5179 
52 *322:307 *322:309 117.607 
53 *322:309 *322:311 4.5 
54 *322:311 *322:313 48.5893 
55 *322:313 *322:315 4.5 
56 *322:315 *322:317 221.58 
57 *322:317 *322:331 26.8884 
58 *322:331 *322:333 504.661 
59 *322:333 *322:339 7.948 
60 *322:339 *322:341 148.268 
61 *322:341 *322:347 7.87593 
62 *322:347 *322:349 222.339 
63 *322:349 *322:359 39.4703 
64 *322:359 *322:371 49.7247 
65 *322:371 *322:375 5.04247 
66 *322:375 *322:377 498.589 
67 *322:377 *322:383 9.029 
68 *322:383 *322:385 105.161 
69 *322:385 *322:391 7.948 
70 *322:391 *322:393 173.161 
71 *322:393 *322:407 39.6996 
72 *322:407 *322:409 68.7321 
73 *322:409 *322:415 9.029 
74 *322:415 *322:417 140.982 
75 *322:417 *322:427 9.22953 
76 *322:427 *322:429 135.518 
77 *322:429 *322:443 48.0663 
78 *322:443 *322:445 70.5536 
79 *322:445 *322:451 10.11 
80 *322:451 *322:459 49.2254 
81 *322:459 *322:461 106.982 
82 *322:461 *322:475 43.2091 
83 *322:475 *322:477 92.4107 
84 *322:477 *322:479 3.41 
85 *322:479 *322:481 56.6914 
86 *322:481 gpio_dm2[21] 17.8921 
*END

*D_NET *323 0.747907
*CONN
*P gpio_dm2[22] O
*I *921:gpio_dm2[22] O *D CF_CARAVEL_SOC
*CAP
1 gpio_dm2[22] 0.0940414
2 *921:gpio_dm2[22] 0.00182873
3 *323:17 0.0940414
4 *323:15 0.128086
5 *323:13 0.128086
6 *323:11 0.0336138
7 *323:9 0.0354425
8 *323:9 *324:9 0
9 *323:9 *340:11 0.000223528
10 *323:15 *684:21 0
11 gpio_analog_sel[22] gpio_dm2[22] 0
12 *140:189 *323:15 0.000223428
13 *282:11 *323:11 0.0219915
14 *290:11 *323:11 0.0729343
15 *317:11 *323:11 0.00344776
16 *318:11 *323:11 0.133946
*RES
1 *921:gpio_dm2[22] *323:9 7.45513 
2 *323:9 *323:11 1643.05 
3 *323:11 *323:13 3.41 
4 *323:13 *323:15 409.097 
5 *323:15 *323:17 3.41 
6 *323:17 gpio_dm2[22] 1911.96 
*END

*D_NET *324 0.762806
*CONN
*P gpio_dm2[23] O
*I *921:gpio_dm2[23] O *D CF_CARAVEL_SOC
*CAP
1 gpio_dm2[23] 0.00220201
2 *921:gpio_dm2[23] 0.00126372
3 *324:19 0.112285
4 *324:17 0.110083
5 *324:15 0.131009
6 *324:13 0.131009
7 *324:11 0.0300173
8 *324:9 0.031281
9 gpio_dm2[23] gpio_holdover[23] 0
10 *324:9 *325:9 0.00122144
11 *324:15 *405:15 0
12 *324:15 *679:13 0
13 *324:15 *806:15 0.0506212
14 *324:15 *807:15 0
15 gpio_analog_sel[23] gpio_dm2[23] 0
16 *102:23 *324:15 0
17 *192:19 *324:19 0
18 *233:11 *324:11 0.0036764
19 *236:11 *324:11 0.0156261
20 *244:11 *324:11 0.0716432
21 *272:11 *324:11 0.0708259
22 *278:11 *324:11 0
23 *286:11 *324:11 4.09301e-05
24 *318:11 *324:11 0
25 *323:9 *324:9 0
*RES
1 *921:gpio_dm2[23] *324:9 6.5214 
2 *324:9 *324:11 1269.66 
3 *324:11 *324:13 3.41 
4 *324:13 *324:15 448.662 
5 *324:15 *324:17 3.41 
6 *324:17 *324:19 2239.93 
7 *324:19 gpio_dm2[23] 42.9732 
*END

*D_NET *325 1.30097
*CONN
*P gpio_dm2[24] O
*I *921:gpio_dm2[24] O *D CF_CARAVEL_SOC
*CAP
1 gpio_dm2[24] 0.000510456
2 *921:gpio_dm2[24] 0.000857887
3 *325:167 0.117301
4 *325:165 0.1178
5 *325:159 0.0253197
6 *325:157 0.0316837
7 *325:149 0.00897998
8 *325:145 0.00240205
9 *325:137 0.00300212
10 *325:129 0.00612374
11 *325:115 0.00659148
12 *325:103 0.00349542
13 *325:101 0.00344448
14 *325:97 0.00391162
15 *325:87 0.0165174
16 *325:85 0.0153669
17 *325:79 0.00377944
18 *325:71 0.0140739
19 *325:69 0.0111063
20 *325:63 0.0014974
21 *325:61 0.00373133
22 *325:51 0.00397728
23 *325:39 0.00182725
24 *325:37 0.00363988
25 *325:27 0.00573663
26 *325:25 0.0028549
27 *325:23 0.00798111
28 *325:21 0.00798111
29 *325:19 0.0120395
30 *325:17 0.0122379
31 *325:11 0.00391576
32 *325:9 0.00457519
33 gpio_dm2[24] gpio_holdover[24] 0.000178386
34 *325:9 *340:11 0.000223528
35 *325:19 *858:9 0.002009
36 *325:23 *345:15 0.0553601
37 *325:23 *552:13 0.0126094
38 *325:23 *565:13 0.0106807
39 *325:23 *740:87 0.00809314
40 *325:23 *861:11 0.000127482
41 *325:27 *335:23 0
42 *325:27 *336:21 0.00047547
43 *325:27 *547:11 0.000791352
44 *325:37 *336:29 0.0081932
45 *325:39 *444:53 0.00143244
46 *325:39 *532:16 0.00675373
47 *325:51 *336:31 0.00206767
48 *325:51 *386:173 0.000764048
49 *325:51 *397:127 1.5381e-05
50 *325:51 *408:45 0
51 *325:51 *444:53 8.6229e-06
52 *325:51 *533:54 0.00081255
53 *325:51 *535:35 3.69406e-05
54 *325:51 *696:101 0
55 *325:51 *741:164 0
56 *325:61 *338:29 0
57 *325:61 *386:173 0.00720084
58 *325:61 *408:45 0
59 *325:61 *541:13 0.00102974
60 *325:61 *740:165 0.00407945
61 *325:63 *338:35 0.00700439
62 *325:63 *532:16 2.41665e-05
63 *325:63 *537:12 0.000403482
64 *325:69 *539:17 0.000941031
65 *325:71 *548:11 0.0699413
66 *325:71 *842:11 0.0167028
67 *325:79 gpio_out[39] 0.000800373
68 *325:79 *338:63 0.000725612
69 *325:79 *386:99 0.00610681
70 *325:79 *541:35 0.0161388
71 *325:79 *839:143 9.87903e-05
72 *325:87 *386:99 0.00763538
73 *325:87 *419:31 0
74 *325:87 *541:43 0.0236124
75 *325:97 *386:89 0.00275931
76 *325:97 *539:93 0.00115332
77 *325:97 *693:187 0
78 *325:97 *737:181 0.000402919
79 *325:101 *434:21 0
80 *325:103 *737:181 0.000369157
81 *325:103 *784:13 0.000866579
82 *325:103 *861:11 0.0068724
83 *325:115 *921:gpio_in[12] 6.49544e-05
84 *325:115 *386:77 0.000362251
85 *325:115 *541:65 0
86 *325:115 *693:163 0
87 *325:115 *739:108 0.00135583
88 *325:115 *815:47 1.10612e-05
89 *325:129 *386:77 0.000443445
90 *325:129 *451:25 0.000467444
91 *325:129 *539:119 0.000103244
92 *325:129 *693:139 0
93 *325:129 *737:151 0.0148637
94 *325:129 *739:92 0.0155556
95 *325:129 *793:27 0.000433493
96 *325:129 *815:39 0.000239792
97 *325:129 *826:27 0.00139985
98 *325:129 *839:209 0.00232542
99 *325:129 *866:17 0.0023166
100 *325:137 *921:gpio_in[10] 2.41929e-05
101 *325:137 *386:55 0.0157342
102 *325:137 *539:119 0.000479367
103 *325:137 *539:141 0.000182924
104 *325:137 *541:81 0.0006146
105 *325:137 *693:131 9.22222e-06
106 *325:137 *739:76 0.0160383
107 *325:137 *826:27 0.00198674
108 *325:145 *539:141 0.000368206
109 *325:145 *541:89 0.000619335
110 *325:145 *541:97 0.00197746
111 *325:145 *556:29 0
112 *325:145 *693:113 0.000902401
113 *325:149 *693:113 7.20217e-06
114 *325:149 *840:19 0.000724313
115 *325:157 *386:35 0.000240077
116 *325:157 *419:19 0.0176796
117 *325:157 *550:21 0
118 *325:157 *556:41 0.0170756
119 *325:157 *826:27 0.00353544
120 *325:159 *335:57 0.109265
121 *325:159 *554:25 0.121369
122 *325:159 *873:57 0.00616846
123 *325:167 *378:11 0
124 *325:167 *466:11 0.0037974
125 *325:167 *547:25 0
126 gpio_analog_sel[24] gpio_dm2[24] 0
127 gpio_analog_sel[28] *325:167 0.00228353
128 gpio_dm1[38] *325:101 0
129 *118:73 *325:37 0.000727413
130 *118:87 *325:51 0
131 *118:97 *325:61 0.000678929
132 *118:99 *325:63 0.00696353
133 *118:163 *325:87 2.28598e-05
134 *118:177 *325:97 4.95831e-05
135 *118:187 *325:145 0.00022729
136 *118:209 *325:157 0
137 *121:15 *325:71 0.015924
138 *125:15 *325:39 0.00675757
139 *149:43 *325:167 0.00154922
140 *165:15 *325:71 0.0250258
141 *170:19 *325:11 0.0104582
142 *170:19 *325:19 0
143 *193:63 *325:167 0
144 *204:43 *325:165 0.000213823
145 *212:19 *325:11 0.0187818
146 *228:11 *325:11 0.00205538
147 *231:11 *325:19 0.017578
148 *234:11 *325:19 0.0167374
149 *235:11 *325:19 0.00182718
150 *238:11 *325:19 0.00731414
151 *244:19 *325:167 0.0205255
152 *248:19 *325:23 0.0192338
153 *248:19 *325:103 0.00687578
154 *284:15 *325:23 0.000368471
155 *284:51 *325:159 0
156 *286:41 *325:167 0
157 *293:15 *325:145 0.000317776
158 *293:15 *325:149 0.00163631
159 *302:21 *325:23 0.000101601
160 *322:113 *325:37 0
161 *322:191 *325:87 0
162 *322:207 *325:97 0.00655528
163 *322:221 *325:115 0.000407112
164 *322:255 *325:137 4.0895e-05
165 *324:9 *325:9 0.00122144
*RES
1 *921:gpio_dm2[24] *325:9 5.94173 
2 *325:9 *325:11 230.991 
3 *325:11 *325:17 12 
4 *325:17 *325:19 463.071 
5 *325:19 *325:21 4.5 
6 *325:21 *325:23 534.054 
7 *325:23 *325:25 4.5 
8 *325:25 *325:27 50.9732 
9 *325:27 *325:37 39.3052 
10 *325:37 *325:39 63.375 
11 *325:39 *325:51 49.4196 
12 *325:51 *325:61 40.5871 
13 *325:61 *325:63 65.8393 
14 *325:63 *325:69 21.875 
15 *325:69 *325:71 661.375 
16 *325:71 *325:79 48.3474 
17 *325:79 *325:85 10.3118 
18 *325:85 *325:87 376.339 
19 *325:87 *325:97 22.788 
20 *325:97 *325:101 43.6339 
21 *325:101 *325:103 65.0179 
22 *325:103 *325:115 49.9383 
23 *325:115 *325:129 44.4736 
24 *325:129 *325:137 43.2466 
25 *325:137 *325:145 37.1518 
26 *325:145 *325:149 46.5179 
27 *325:149 *325:157 48.6523 
28 *325:157 *325:159 1514.34 
29 *325:159 *325:165 8.88487 
30 *325:165 *325:167 2531.3 
31 *325:167 gpio_dm2[24] 4.75812 
*END

*D_NET *326 0.71393
*CONN
*P gpio_dm2[25] O
*I *921:gpio_dm2[25] O *D CF_CARAVEL_SOC
*CAP
1 gpio_dm2[25] 0.00252834
2 *921:gpio_dm2[25] 0.00467125
3 *326:35 0.149551
4 *326:33 0.147023
5 *326:31 0.0240276
6 *326:29 0.0241426
7 *326:23 0.0311751
8 *326:21 0.0310864
9 *326:19 0.0026465
10 *326:17 0.00262029
11 *326:15 0.00298421
12 *326:13 0.00298421
13 *326:11 0.0113521
14 *326:9 0.0160233
15 gpio_dm2[25] gpio_holdover[25] 0.000655681
16 *326:9 gpio_dm2[2] 0
17 *326:9 gpio_out[2] 0.00116012
18 *326:9 *327:9 0
19 *326:11 *535:121 0.0687649
20 *326:15 *436:23 0
21 *326:35 gpio_holdover[25] 1.27219e-05
22 *326:35 gpio_out[25] 0
23 *326:35 *664:11 0
24 gpio_analog_en[3] *326:11 0.000660664
25 gpio_analog_sel[4] *326:11 0.000144274
26 *94:17 *326:11 0.00332183
27 *100:11 *326:11 0.00103275
28 *104:27 *326:11 0.0128304
29 *113:11 *326:11 0.00833606
30 *117:35 *326:19 0.000107658
31 *140:73 *326:19 0.000666316
32 *144:17 *326:9 0
33 *150:27 *326:31 0.00823937
34 *161:13 *326:11 0.0024352
35 *176:11 *326:11 0.00124078
36 *177:11 *326:11 0.000118153
37 *181:11 *326:11 0.0015588
38 *194:39 gpio_dm2[25] 0
39 *194:39 *326:35 0
40 *196:27 *326:31 0.0174053
41 *204:31 *326:15 0.000766001
42 *242:15 *326:15 0.00700429
43 *242:25 *326:19 0.000710457
44 *242:27 *326:23 0.0203666
45 *242:27 *326:31 0.00169881
46 *274:125 *326:15 4.7451e-05
47 *281:19 *326:19 0.00405196
48 *281:19 *326:23 0.0431322
49 *281:27 *326:31 0.0128337
50 *288:11 *326:11 0.0410863
51 *322:391 *326:35 0.000724863
*RES
1 *921:gpio_dm2[25] *326:9 14.596 
2 *326:9 *326:11 842.991 
3 *326:11 *326:13 4.5 
4 *326:13 *326:15 69.5357 
5 *326:15 *326:17 4.5 
6 *326:17 *326:19 70.5982 
7 *326:19 *326:21 0.535714 
8 *326:21 *326:23 936.75 
9 *326:23 *326:29 7.11923 
10 *326:29 *326:31 135.238 
11 *326:31 *326:33 3.41 
12 *326:33 *326:35 469.778 
13 *326:35 gpio_dm2[25] 6.09042 
*END

*D_NET *327 0.913858
*CONN
*P gpio_dm2[26] O
*I *921:gpio_dm2[26] O *D CF_CARAVEL_SOC
*CAP
1 gpio_dm2[26] 9.91485e-05
2 *921:gpio_dm2[26] 0.000861827
3 *327:67 0.100052
4 *327:65 0.0999524
5 *327:63 0.0384524
6 *327:61 0.0384524
7 *327:59 0.002992
8 *327:39 0.00529131
9 *327:37 0.00281875
10 *327:31 0.00140303
11 *327:29 0.00471427
12 *327:25 0.00450151
13 *327:19 0.00941934
14 *327:17 0.00920332
15 *327:11 0.00244827
16 *327:9 0.00285529
17 *327:19 *328:11 0.00788966
18 *327:19 *334:6 0.00130938
19 *327:19 *787:61 0.000705891
20 *327:25 *334:6 0.000125685
21 *327:31 *375:43 0.00271652
22 *327:39 *391:43 2.83284e-06
23 *327:39 *481:11 0.00500259
24 *327:59 *337:33 4.46809e-05
25 *327:59 *789:27 0
26 *327:63 *571:39 0.0793024
27 *327:67 gpio_holdover[26] 0.000642483
28 *327:67 *723:21 0
29 gpio_analog_sel[26] *327:67 0.000637718
30 *93:9 *327:17 0.000122348
31 *94:9 *327:17 0.000253896
32 *116:27 *327:19 0.00457397
33 *116:27 *327:25 0.00330212
34 *132:11 *327:31 0.00482594
35 *137:11 *327:39 0.00107541
36 *140:17 *327:25 0.00187818
37 *148:9 *327:29 3.4734e-05
38 *149:25 *327:29 4.46867e-05
39 *161:13 *327:37 4.11022e-05
40 *176:11 *327:31 0.00100564
41 *194:11 *327:19 0.00424945
42 *194:33 *327:19 0.000512548
43 *195:35 *327:67 0.30309
44 *204:9 *327:19 0.00549703
45 *204:9 *327:25 0.00018053
46 *205:39 *327:59 0.000889342
47 *206:33 *327:29 0.00575622
48 *211:9 *327:19 0.00977986
49 *218:11 *327:59 0
50 *220:11 *327:63 0.0963794
51 *224:19 *327:39 0
52 *227:11 *327:11 0.0124381
53 *269:11 *327:63 0.0186794
54 *273:11 *327:59 0.000441119
55 *274:27 *327:19 0.000968336
56 *275:11 *327:11 0.0124381
57 *283:11 *327:59 0.00126013
58 *285:11 *327:11 0.001743
59 *288:25 *327:19 2.09826e-05
60 *307:11 *327:39 0.000479497
61 *326:9 *327:9 0
*RES
1 *921:gpio_dm2[26] *327:9 5.15213 
2 *327:9 *327:11 152.518 
3 *327:11 *327:17 8.1642 
4 *327:17 *327:19 434.643 
5 *327:19 *327:25 44.3386 
6 *327:25 *327:29 14.0508 
7 *327:29 *327:31 59.0179 
8 *327:31 *327:37 7.87593 
9 *327:37 *327:39 71.7679 
10 *327:39 *327:59 47.6559 
11 *327:59 *327:61 3.41 
12 *327:61 *327:63 1639.41 
13 *327:63 *327:65 3.41 
14 *327:65 *327:67 491.482 
15 *327:67 gpio_dm2[26] 0.332917 
*END

*D_NET *328 0.845265
*CONN
*P gpio_dm2[27] O
*I *921:gpio_dm2[27] O *D CF_CARAVEL_SOC
*CAP
1 gpio_dm2[27] 3.27316e-05
2 *921:gpio_dm2[27] 0.000251443
3 *328:65 0.0933872
4 *328:63 0.0933544
5 *328:61 0.0320132
6 *328:59 0.0325952
7 *328:53 0.00493337
8 *328:51 0.00713459
9 *328:31 0.00331325
10 *328:11 0.0110209
11 *328:9 0.0107424
12 *328:9 *341:12 0.000255549
13 *328:11 *329:10 0.00122866
14 *328:11 *330:13 0
15 *328:11 *332:13 0.000253852
16 *328:11 *333:11 0.0484592
17 *328:11 *334:6 0.00418847
18 *328:11 *340:11 0.0039312
19 *328:11 *341:12 0.000377056
20 *328:11 *787:61 0.00126175
21 *328:31 *329:50 0.000233057
22 *328:31 *330:13 0.00192667
23 *328:31 *332:13 0.00192331
24 *328:31 *333:11 2.05695e-05
25 *328:31 *334:30 5.00194e-05
26 *328:51 *329:50 0
27 *328:51 *329:54 0.000247463
28 *328:51 *332:13 0.000883598
29 *328:51 *333:11 0.000812642
30 *328:51 *334:30 0.00321994
31 *328:51 *334:34 0.00126308
32 *328:51 *392:45 1.9922e-05
33 *328:51 *787:51 0.000259053
34 *328:53 *329:58 0.0105943
35 *328:53 *330:13 0
36 *328:53 *392:45 0.000139789
37 *328:53 *831:43 0
38 *328:59 *745:11 0.00252103
39 *328:61 *332:21 0.0671864
40 *328:65 gpio_holdover[27] 0
41 gpio_analog_sel[27] *328:65 0.00178437
42 *99:15 *328:59 0.000355636
43 *101:15 *328:59 0.000329806
44 *107:27 *328:61 0.0187728
45 *112:27 *328:61 0.0387459
46 *116:27 *328:11 0.0105568
47 *116:27 *328:31 1.94945e-05
48 *116:39 *328:51 0
49 *117:33 *328:51 0.000365949
50 *141:29 *328:59 0.00032473
51 *157:29 *328:51 0.000219452
52 *158:22 *328:51 0.00289156
53 *158:22 *328:53 0.00175714
54 *194:11 *328:11 0.00072132
55 *194:33 *328:11 0.000506662
56 *196:31 *328:65 0.302803
57 *205:31 *328:51 0
58 *208:9 *328:11 0.00312391
59 *211:9 *328:11 0
60 *227:17 *328:59 0.00251621
61 *274:27 *328:11 0.0047663
62 *283:27 *328:61 0.00629568
63 *288:27 *328:51 0.000482979
64 *327:19 *328:11 0.00788966
*RES
1 *921:gpio_dm2[27] *328:9 3.99593 
2 *328:9 *328:11 611.062 
3 *328:11 *328:31 47.9841 
4 *328:31 *328:51 26.9918 
5 *328:51 *328:53 131.268 
6 *328:53 *328:59 10.7946 
7 *328:59 *328:61 241.771 
8 *328:61 *328:63 3.41 
9 *328:63 *328:65 471.844 
10 *328:65 gpio_dm2[27] 0.102617 
*END

*D_NET *329 0.559786
*CONN
*P gpio_dm2[28] O
*I *921:gpio_dm2[28] O *D CF_CARAVEL_SOC
*CAP
1 gpio_dm2[28] 0.00131701
2 *921:gpio_dm2[28] 0.000592593
3 *329:70 0.145413
4 *329:68 0.144096
5 *329:66 0.0595034
6 *329:64 0.0617271
7 *329:58 0.00737458
8 *329:56 0.00521813
9 *329:54 0.00193525
10 *329:50 0.00570627
11 *329:10 0.0236592
12 *329:8 0.0204135
13 gpio_dm2[28] gpio_holdover[28] 0.000805434
14 gpio_dm2[28] *548:23 0.000152462
15 gpio_dm2[28] *811:11 0.000151039
16 *329:8 *330:13 0.000215648
17 *329:8 *341:12 0.00157747
18 *329:10 *330:13 0.00587859
19 *329:10 *334:6 0.0178794
20 *329:10 *341:12 0.00238205
21 *329:10 *787:51 0.00549445
22 *329:50 *330:13 0.000233057
23 *329:50 *332:13 0.000324112
24 *329:50 *333:11 0.000726755
25 *329:50 *334:6 0.00122371
26 *329:50 *334:30 0.00261806
27 *329:50 *787:51 0.000998077
28 *329:50 *788:53 8.77988e-05
29 *329:54 *330:13 0
30 *329:58 *330:13 0
31 *329:58 *392:45 0.000139238
32 *329:64 *332:19 0.000629125
33 *329:70 gpio_holdover[28] 0.00535305
34 *329:70 *725:19 0
35 gpio_analog_sel[28] gpio_dm2[28] 0
36 *109:23 *329:50 0.00445906
37 *116:27 *329:50 0.000560862
38 *116:53 *329:58 0.00207682
39 *117:33 *329:54 0.000278276
40 *117:35 *329:58 0
41 *140:73 *329:58 0
42 *147:11 *329:50 5.51691e-06
43 *148:9 *329:50 3.96418e-07
44 *152:9 *329:50 0.000284346
45 *153:25 *329:50 0.000360771
46 *156:9 *329:50 0.000207921
47 *157:29 *329:54 0.000583304
48 *157:29 *329:58 0
49 *158:22 *329:54 0.00119678
50 *158:22 *329:58 0.000113748
51 *230:25 *329:64 0.000456528
52 *242:25 *329:58 0.00198377
53 *273:15 *329:64 0
54 *275:15 *329:64 0.00804178
55 *277:23 *329:64 0.000365265
56 *281:19 *329:58 0.000424115
57 *288:27 *329:10 0.00181834
58 *288:27 *329:50 0.000438788
59 *328:11 *329:10 0.00122866
60 *328:31 *329:50 0.000233057
61 *328:51 *329:50 0
62 *328:51 *329:54 0.000247463
63 *328:53 *329:58 0.0105943
*RES
1 *921:gpio_dm2[28] *329:8 6.79087 
2 *329:8 *329:10 98.4493 
3 *329:10 *329:50 48.274 
4 *329:50 *329:54 49.2589 
5 *329:54 *329:56 1.35714 
6 *329:56 *329:58 156.911 
7 *329:58 *329:64 19.3706 
8 *329:64 *329:66 203.952 
9 *329:66 *329:68 3.41 
10 *329:68 *329:70 460.445 
11 *329:70 gpio_dm2[28] 11.9726 
*END

*D_NET *330 0.581668
*CONN
*P gpio_dm2[29] O
*I *921:gpio_dm2[29] O *D CF_CARAVEL_SOC
*CAP
1 gpio_dm2[29] 0.000101015
2 *921:gpio_dm2[29] 0.000204835
3 *330:33 0.0277396
4 *330:31 0.0276386
5 *330:29 0.0478376
6 *330:27 0.0478376
7 *330:25 0.108152
8 *330:23 0.108571
9 *330:13 0.0228211
10 *330:11 0.022606
11 *330:11 *332:11 0
12 *330:13 *332:13 0.0323442
13 *330:13 *334:30 0.000470706
14 *330:13 *334:34 0.000107318
15 *330:13 *341:12 0.000675252
16 *330:13 *392:45 0
17 *330:13 *787:51 0.00568574
18 *330:13 *831:43 0.0057943
19 *330:23 *333:19 0.00209014
20 *330:23 *334:36 2.1479e-05
21 *330:33 gpio_holdover[29] 0.000299019
22 gpio_analog_sel[29] *330:33 0.000302444
23 *117:33 *330:13 0.00227943
24 *145:15 *330:25 0
25 *148:13 *330:23 0
26 *150:19 *330:13 0
27 *150:25 *330:25 4.35374e-05
28 *153:27 *330:13 0.0019743
29 *153:27 *330:23 0.0020858
30 *157:29 *330:13 0.000188362
31 *158:22 *330:13 0.000584624
32 *163:19 *330:13 0.0100644
33 *186:15 *330:25 0
34 *198:31 *330:33 0.0811302
35 *281:19 *330:13 0
36 *288:27 *330:13 0.0137631
37 *328:11 *330:13 0
38 *328:31 *330:13 0.00192667
39 *328:53 *330:13 0
40 *329:8 *330:13 0.000215648
41 *329:10 *330:13 0.00587859
42 *329:50 *330:13 0.000233057
43 *329:54 *330:13 0
44 *329:58 *330:13 0
*RES
1 *921:gpio_dm2[29] *330:11 5.03348 
2 *330:11 *330:13 871.982 
3 *330:13 *330:23 14.6214 
4 *330:23 *330:25 347.12 
5 *330:25 *330:27 3.41 
6 *330:27 *330:29 164.002 
7 *330:29 *330:31 3.41 
8 *330:31 *330:33 129.095 
9 *330:33 gpio_dm2[29] 0.339183 
*END

*D_NET *331 0.0384977
*CONN
*P gpio_dm2[2] O
*I *921:gpio_dm2[2] O *D CF_CARAVEL_SOC
*CAP
1 gpio_dm2[2] 0.0108761
2 *921:gpio_dm2[2] 0.0108761
3 gpio_dm2[2] gpio_holdover[2] 0
4 gpio_dm2[2] gpio_out[2] 0
5 gpio_dm2[2] *342:9 0
6 gpio_analog_sel[2] gpio_dm2[2] 0.00121148
7 *144:11 gpio_dm2[2] 3.81206e-05
8 *144:17 gpio_dm2[2] 0.000354094
9 *207:19 gpio_dm2[2] 0.00105605
10 *223:11 gpio_dm2[2] 0.00380749
11 *247:11 gpio_dm2[2] 0.000229941
12 *254:11 gpio_dm2[2] 0.00930215
13 *270:17 gpio_dm2[2] 0.000746123
14 *308:11 gpio_dm2[2] 0
15 *326:9 gpio_dm2[2] 0
*RES
1 *921:gpio_dm2[2] gpio_dm2[2] 45.5707 
*END

*D_NET *332 0.579655
*CONN
*P gpio_dm2[30] O
*I *921:gpio_dm2[30] O *D CF_CARAVEL_SOC
*CAP
1 gpio_dm2[30] 1.70302e-05
2 *921:gpio_dm2[30] 0.000277787
3 *332:25 0.14988
4 *332:23 0.149863
5 *332:21 0.0139801
6 *332:19 0.0148288
7 *332:13 0.0135907
8 *332:11 0.0130199
9 *332:11 *333:9 0
10 *332:11 *341:12 0.000201414
11 *332:13 *333:11 0.0665848
12 *332:13 *334:6 0.0115297
13 *332:13 *334:30 0.000147421
14 *332:13 *334:34 0.000561196
15 *332:13 *341:12 0.000346964
16 *332:25 gpio_holdover[30] 0
17 gpio_analog_sel[30] *332:25 3.43075e-05
18 *152:19 *332:13 0.00115984
19 *152:25 *332:19 0.000310755
20 *153:27 *332:13 0.00186765
21 *163:19 *332:13 0.0100704
22 *273:15 *332:19 0.00138366
23 *275:15 *332:19 5.9092e-05
24 *283:27 *332:21 0.0263955
25 *328:11 *332:13 0.000253852
26 *328:31 *332:13 0.00192331
27 *328:51 *332:13 0.000883598
28 *328:61 *332:21 0.0671864
29 *329:50 *332:13 0.000324112
30 *329:64 *332:19 0.000629125
31 *330:11 *332:11 0
32 *330:13 *332:13 0.0323442
*RES
1 *921:gpio_dm2[30] *332:11 4.42511 
2 *332:11 *332:13 850.732 
3 *332:13 *332:19 11.227 
4 *332:19 *332:21 137.368 
5 *332:21 *332:23 3.41 
6 *332:23 *332:25 471.988 
7 *332:25 gpio_dm2[30] 0.0571833 
*END

*D_NET *333 0.575385
*CONN
*P gpio_dm2[31] O
*I *921:gpio_dm2[31] O *D CF_CARAVEL_SOC
*CAP
1 gpio_dm2[31] 0.00475605
2 *921:gpio_dm2[31] 0.000307347
3 *333:27 0.151298
4 *333:25 0.147185
5 *333:19 0.0112297
6 *333:17 0.0107449
7 *333:11 0.0102471
8 *333:9 0.0103964
9 gpio_dm2[31] gpio_holdover[31] 0.000977742
10 gpio_dm2[31] *769:11 0.000409582
11 *333:9 *341:12 0.000255549
12 *333:11 *334:6 0.0103119
13 *333:11 *334:34 0.000448556
14 *333:11 *341:12 0.000388868
15 *333:11 *788:37 1.09232e-05
16 *333:11 *788:53 0.00110465
17 *333:17 *694:6 0.000123019
18 *333:27 gpio_ib_mode_sel[31] 0.00051885
19 *333:27 *729:21 0
20 *116:27 *333:11 0.00106727
21 *116:39 *333:11 3.58434e-05
22 *117:25 *333:11 0.000767797
23 *152:19 *333:11 0.00946199
24 *152:27 *333:19 0.0494783
25 *153:27 *333:11 0.0020892
26 *153:27 *333:19 0.0274447
27 *157:37 *333:19 1.84474e-05
28 *158:22 *333:19 0.00104765
29 *161:15 *333:17 0.000126818
30 *163:17 *333:11 0.00220586
31 *201:15 gpio_dm2[31] 0
32 *241:25 *333:25 2.82126e-05
33 *242:27 *333:19 0
34 *245:15 *333:27 0
35 *321:41 *333:11 0.00220468
36 *328:11 *333:11 0.0484592
37 *328:31 *333:11 2.05695e-05
38 *328:51 *333:11 0.000812642
39 *329:50 *333:11 0.000726755
40 *330:23 *333:19 0.00209014
41 *332:11 *333:9 0
42 *332:13 *333:11 0.0665848
*RES
1 *921:gpio_dm2[31] *333:9 3.99593 
2 *333:9 *333:11 813.696 
3 *333:11 *333:17 7.26337 
4 *333:17 *333:19 106.474 
5 *333:19 *333:25 5.05187 
6 *333:25 *333:27 466.174 
7 *333:27 gpio_dm2[31] 17.8673 
*END

*D_NET *334 0.83078
*CONN
*P gpio_dm2[32] O
*I *921:gpio_dm2[32] O *D CF_CARAVEL_SOC
*CAP
1 gpio_dm2[32] 6.5097e-05
2 *921:gpio_dm2[32] 0
3 *334:44 0.0151331
4 *334:42 0.0152964
5 *334:36 0.040129
6 *334:34 0.0441994
7 *334:30 0.00726558
8 *334:6 0.0187279
9 *334:4 0.015761
10 *334:6 *336:9 0.000255549
11 *334:6 *338:9 0.000201414
12 *334:6 *340:9 0.000255549
13 *334:6 *340:11 0.000534289
14 *334:6 *341:12 0.00233203
15 *334:6 *343:9 0.000255549
16 *334:6 *346:9 0.000255549
17 *334:6 *787:61 0.00030724
18 *334:30 *788:37 0.000158929
19 *334:30 *788:53 0.000247974
20 *334:34 *831:57 0.000534108
21 *334:36 *361:33 0.0356217
22 *334:36 *394:15 3.623e-05
23 *334:36 *438:23 0.265677
24 *334:36 *440:31 0.030101
25 *334:36 *757:15 0.0188968
26 *334:36 *759:15 0.0858386
27 *334:44 gpio_holdover[32] 0
28 *334:44 *361:33 0.00374179
29 *334:44 *873:61 0.0379285
30 gpio_analog_sel[32] *334:44 0.000433441
31 *90:9 *334:6 0.000201414
32 *91:9 *334:6 0.000255549
33 *92:9 *334:6 0.000255549
34 *95:9 *334:6 0.000255549
35 *96:9 *334:6 0.000255549
36 *97:9 *334:6 0.000255549
37 *102:9 *334:6 0.000255549
38 *105:9 *334:6 0.000201414
39 *106:9 *334:6 0.000255549
40 *107:9 *334:6 0.000255549
41 *109:21 *334:6 0.000583581
42 *109:23 *334:6 0.000139185
43 *109:23 *334:30 0.00278581
44 *109:23 *334:34 0.00866699
45 *114:29 *334:42 7.71976e-05
46 *116:9 *334:6 0.000255549
47 *116:27 *334:6 0.000505765
48 *116:27 *334:30 0.000651996
49 *116:39 *334:30 0.000165754
50 *116:39 *334:34 0.000412139
51 *117:9 *334:6 0.000201414
52 *117:25 *334:30 0.000183617
53 *119:9 *334:6 0.000255549
54 *121:9 *334:6 0.000201414
55 *125:9 *334:6 0.000255549
56 *126:9 *334:6 0.000255549
57 *142:9 *334:6 0.000255549
58 *143:9 *334:6 0.000255549
59 *145:9 *334:30 0.000131947
60 *145:11 *334:30 0.000561723
61 *146:13 *334:30 0.00021226
62 *148:9 *334:30 0.00137669
63 *151:7 *334:30 5.07704e-05
64 *152:19 *334:34 0.00186602
65 *153:27 *334:34 0.0135508
66 *157:13 *334:30 0.000284346
67 *157:29 *334:34 5.46488e-05
68 *158:22 *334:34 0
69 *158:30 *334:42 0
70 *163:17 *334:30 0.000255549
71 *163:17 *334:34 0.000448556
72 *187:9 *334:6 0.000255549
73 *189:9 *334:6 0.000255549
74 *192:9 *334:6 0.000255549
75 *193:19 *334:30 5.11642e-05
76 *194:9 *334:6 0.000255549
77 *194:11 *334:6 0.000365629
78 *194:33 *334:6 0.00690264
79 *197:9 *334:6 0.000255549
80 *200:9 *334:6 0.000255549
81 *202:27 *334:36 0.0689987
82 *202:27 *334:44 0.000130772
83 *204:17 *334:30 0.000185417
84 *208:9 *334:6 0.0154169
85 *274:27 *334:6 0.00118933
86 *321:37 *334:30 0.00258168
87 *321:41 *334:30 0.000408885
88 *327:19 *334:6 0.00130938
89 *327:25 *334:6 0.000125685
90 *328:11 *334:6 0.00418847
91 *328:31 *334:30 5.00194e-05
92 *328:51 *334:30 0.00321994
93 *328:51 *334:34 0.00126308
94 *329:10 *334:6 0.0178794
95 *329:50 *334:6 0.00122371
96 *329:50 *334:30 0.00261806
97 *330:13 *334:30 0.000470706
98 *330:13 *334:34 0.000107318
99 *330:23 *334:36 2.1479e-05
100 *332:13 *334:6 0.0115297
101 *332:13 *334:30 0.000147421
102 *332:13 *334:34 0.000561196
103 *333:11 *334:6 0.0103119
104 *333:11 *334:34 0.000448556
*RES
1 *921:gpio_dm2[32] *334:4 3.41 
2 *334:4 *334:6 102.507 
3 *334:6 *334:30 30.5913 
4 *334:30 *334:34 36.6609 
5 *334:34 *334:36 413.71 
6 *334:36 *334:42 7.39967 
7 *334:42 *334:44 62.7936 
8 *334:44 gpio_dm2[32] 0.17625 
*END

*D_NET *335 0.955475
*CONN
*P gpio_dm2[33] O
*I *921:gpio_dm2[33] O *D CF_CARAVEL_SOC
*CAP
1 gpio_dm2[33] 0.00164561
2 *921:gpio_dm2[33] 0.00235439
3 *335:57 0.0335979
4 *335:55 0.0396654
5 *335:45 0.0105841
6 *335:39 0.00491334
7 *335:33 0.00685366
8 *335:31 0.00522457
9 *335:25 0.0361095
10 *335:23 0.0361263
11 *335:17 0.00799052
12 *335:15 0.00756047
13 *335:13 0.0131213
14 *335:11 0.0154757
15 gpio_dm2[33] gpio_holdover[33] 0.00020574
16 *335:11 *336:9 0.00109857
17 *335:13 *336:11 0.000341315
18 *335:13 *338:11 0.0275825
19 *335:13 *338:17 0.00315469
20 *335:13 *443:11 1.02504e-05
21 *335:13 *443:19 0.0103271
22 *335:13 *570:26 0.0334649
23 *335:13 *572:26 0.000144959
24 *335:17 *856:11 0.0558566
25 *335:17 *861:11 0
26 *335:17 *864:11 0.0114407
27 *335:25 *453:49 0.00171327
28 *335:25 *454:53 0.000839113
29 *335:25 *475:13 0.00152506
30 *335:25 *541:19 0.00208931
31 *335:25 *541:59 0.000529384
32 *335:25 *546:13 0.0114122
33 *335:25 *560:19 0.000477949
34 *335:25 *561:18 0.0026091
35 *335:25 *563:14 0.0182899
36 *335:25 *825:23 0.0116543
37 *335:25 *844:13 0.162152
38 *335:33 *387:23 0.0411199
39 *335:33 *736:43 0.00956264
40 *335:39 *921:gpio_in[5] 0
41 *335:39 *850:21 6.51414e-05
42 *335:45 *921:gpio_in[5] 0.000300512
43 *335:45 *338:77 0
44 *335:45 *338:81 0.00039853
45 *335:45 *419:19 0.000208343
46 *335:45 *541:97 0.000600788
47 *335:45 *541:105 0.0161339
48 *335:45 *826:27 0.000146112
49 *335:55 *338:81 2.10629e-05
50 *335:55 *737:99 0.0070064
51 *335:55 *826:27 0.000168616
52 *335:57 *410:11 0.0377726
53 *335:57 *873:57 0.00252864
54 gpio_analog_sel[33] gpio_dm2[33] 0
55 gpio_dm1[38] *335:31 0.000587636
56 *118:205 *335:45 0.0166076
57 *118:209 *335:55 1.56427e-05
58 *207:23 *335:17 0.0581934
59 *251:15 *335:33 0.0411233
60 *284:51 *335:57 0
61 *300:19 *335:25 0.0292707
62 *322:27 *335:13 0.00623686
63 *325:27 *335:23 0
64 *325:159 *335:57 0.109265
*RES
1 *921:gpio_dm2[33] *335:11 9.94291 
2 *335:11 *335:13 736.438 
3 *335:13 *335:15 4.5 
4 *335:15 *335:17 550.893 
5 *335:17 *335:23 14.8929 
6 *335:23 *335:25 1533.73 
7 *335:25 *335:31 17.0179 
8 *335:31 *335:33 388.661 
9 *335:33 *335:39 33.9911 
10 *335:39 *335:45 49.2441 
11 *335:45 *335:55 33.7497 
12 *335:55 *335:57 1363.16 
13 *335:57 gpio_dm2[33] 6.49633 
*END

*D_NET *336 1.01458
*CONN
*P gpio_dm2[34] O
*I *921:gpio_dm2[34] O *D CF_CARAVEL_SOC
*CAP
1 gpio_dm2[34] 0.00356838
2 *921:gpio_dm2[34] 0.00251265
3 *336:82 1.52569e-06
4 *336:67 0.020173
5 *336:65 0.0166061
6 *336:63 0.00661225
7 *336:55 0.00822417
8 *336:53 0.00177191
9 *336:47 0.0250229
10 *336:45 0.0274913
11 *336:41 0.0051305
12 *336:31 0.00514843
13 *336:29 0.00551316
14 *336:21 0.00489803
15 *336:15 0.00914701
16 *336:13 0.00711577
17 *336:11 0.0101995
18 *336:9 0.0127121
19 gpio_dm2[34] gpio_holdover[34] 0.00152107
20 gpio_dm2[34] gpio_out[34] 0.00159221
21 gpio_dm2[34] *381:15 0.000347386
22 gpio_dm2[34] *548:23 0.00034597
23 *336:9 *340:11 0.000111764
24 *336:11 *338:11 0.0554997
25 *336:11 *338:17 0.00169579
26 *336:11 *350:11 0.00120527
27 *336:11 *443:19 0.00473091
28 *336:11 *443:29 4.51803e-05
29 *336:11 *452:11 0
30 *336:11 *474:11 0
31 *336:11 *571:31 0
32 *336:15 *481:15 0.058242
33 *336:15 *838:11 0.0124976
34 *336:21 *547:11 0.001671
35 *336:29 *386:189 0.000215238
36 *336:31 *533:54 0.000263413
37 *336:31 *569:18 0.00531089
38 *336:31 *741:160 0.00137346
39 *336:41 *338:29 0.000179386
40 *336:41 *397:109 0.000624203
41 *336:41 *408:45 9.22174e-05
42 *336:41 *535:35 0
43 *336:41 *540:18 0.000518407
44 *336:41 *562:65 7.13412e-06
45 *336:41 *562:81 0.000213019
46 *336:41 *826:77 1.22998e-05
47 *336:47 *353:31 0.0897192
48 *336:47 *542:11 0.171324
49 *336:47 *760:31 0.00752106
50 *336:47 *868:11 0.0353872
51 *336:55 *749:27 0.00234655
52 *336:63 *455:25 0.00394291
53 *336:63 *462:23 0.00365653
54 *336:63 *464:21 0.00421369
55 *336:63 *464:23 0.00365653
56 *336:63 *465:21 1.1672e-05
57 *336:63 *827:19 0.000202855
58 *336:63 *837:11 0.000741971
59 *336:63 *838:11 0.0181178
60 *336:67 *383:11 0.00010283
61 *336:67 *390:11 0.0236746
62 *336:67 *417:11 0.0550678
63 *336:67 *426:13 0.00424008
64 *336:67 *437:11 0.00214141
65 *336:67 *455:21 0.000245296
66 *336:67 *545:15 0.0973178
67 *336:67 *547:23 0.000105917
68 *336:67 *817:11 0.00684843
69 *336:82 gpio_holdover[34] 3.05874e-05
70 gpio_analog_sel[34] gpio_dm2[34] 0
71 *118:73 *336:29 0.000634922
72 *118:87 *336:41 0
73 *118:97 *336:41 0.00696065
74 *119:15 *336:15 0.0582453
75 *119:23 *336:55 0.00172207
76 *119:23 *336:63 0.012723
77 *125:11 *336:11 0.0577393
78 *207:39 *336:55 0.00878682
79 *289:23 *336:63 0.00395132
80 *289:33 *336:63 0.000602076
81 *322:113 *336:29 0
82 *322:129 *336:45 0
83 *325:27 *336:21 0.00047547
84 *325:37 *336:29 0.0081932
85 *325:51 *336:31 0.00206767
86 *334:6 *336:9 0.000255549
87 *335:11 *336:9 0.00109857
88 *335:13 *336:11 0.000341315
*RES
1 *921:gpio_dm2[34] *336:9 9.6892 
2 *336:9 *336:11 731.884 
3 *336:11 *336:13 4.5 
4 *336:13 *336:15 551.304 
5 *336:15 *336:21 48.8654 
6 *336:21 *336:29 34.7377 
7 *336:29 *336:31 89.6607 
8 *336:31 *336:41 29.2044 
9 *336:41 *336:45 43.3304 
10 *336:45 *336:47 1620.39 
11 *336:47 *336:53 11.25 
12 *336:53 *336:55 83.0893 
13 *336:55 *336:63 49.4036 
14 *336:63 *336:65 3.41 
15 *336:65 *336:67 1199.23 
16 *336:67 gpio_dm2[34] 22.9271 
17 gpio_dm2[34] *336:82 0.057551 
*END

*D_NET *337 0.967137
*CONN
*P gpio_dm2[35] O
*I *921:gpio_dm2[35] O *D CF_CARAVEL_SOC
*CAP
1 gpio_dm2[35] 0.00091429
2 *921:gpio_dm2[35] 0.00521055
3 *337:43 0.0091371
4 *337:41 0.00822281
5 *337:39 0.0510972
6 *337:37 0.0510972
7 *337:35 0.000925707
8 *337:33 0.00281726
9 *337:27 0.00418048
10 *337:25 0.00741258
11 *337:19 0.00864337
12 *337:17 0.0067849
13 *337:11 0.0180986
14 *337:9 0.020044
15 gpio_dm2[35] gpio_holdover[35] 0
16 *337:9 *338:9 0.00078494
17 *337:11 *531:28 0
18 *337:17 *375:57 0
19 *337:19 *350:11 0.00139684
20 *337:19 *699:10 0
21 *337:19 *700:10 0.00156102
22 *337:33 gpio_inp_dis[6] 1.16655e-05
23 *337:33 *782:29 0.0028551
24 *337:33 *787:25 4.02087e-05
25 *337:39 *698:13 0.000809091
26 *337:39 *731:14 0.00212026
27 *337:39 *789:23 0.304812
28 *337:43 *782:11 0.0416841
29 *337:43 *810:11 0.0416855
30 gpio_analog_sel[35] gpio_dm2[35] 0.000528714
31 *114:11 *337:11 0.0213526
32 *114:21 *337:33 2.10272e-05
33 *132:11 *337:35 0.00436773
34 *159:15 *337:39 0.296778
35 *176:11 *337:35 0.00083984
36 *178:11 *337:11 0.00247638
37 *196:11 *337:27 0.0104077
38 *199:11 *337:11 0.00509312
39 *206:19 *337:19 0.00148935
40 *206:35 *337:27 0.00521211
41 *230:11 *337:27 0.00276468
42 *242:11 *337:11 0.00915052
43 *271:15 *337:39 0.00047119
44 *288:25 *337:17 0
45 *312:19 *337:35 0.00172258
46 *314:19 *337:19 0.0120701
47 *327:59 *337:33 4.46809e-05
*RES
1 *921:gpio_dm2[35] *337:9 15.8211 
2 *337:9 *337:11 460.946 
3 *337:11 *337:17 13.7133 
4 *337:17 *337:19 148.268 
5 *337:19 *337:25 17.0284 
6 *337:25 *337:27 130.054 
7 *337:27 *337:33 11.8396 
8 *337:33 *337:35 53.5536 
9 *337:35 *337:37 3.41 
10 *337:37 *337:39 485.416 
11 *337:39 *337:41 3.41 
12 *337:41 *337:43 520.446 
13 *337:43 gpio_dm2[35] 5.66835 
*END

*D_NET *338 0.910201
*CONN
*P gpio_dm2[36] O
*I *921:gpio_dm2[36] O *D CF_CARAVEL_SOC
*CAP
1 gpio_dm2[36] 0.00397336
2 *921:gpio_dm2[36] 0.00258683
3 *338:83 0.0204449
4 *338:81 0.0211872
5 *338:77 0.0060834
6 *338:71 0.0195267
7 *338:69 0.0191434
8 *338:63 0.0213306
9 *338:35 0.0283424
10 *338:33 0.00854018
11 *338:29 0.00364095
12 *338:19 0.0140033
13 *338:17 0.0116715
14 *338:11 0.0111366
15 *338:9 0.0129582
16 gpio_dm2[36] gpio_holdover[36] 0.00619441
17 *338:9 *339:9 0
18 *338:11 *350:11 0.000113898
19 *338:11 *443:11 0.000388889
20 *338:11 *443:19 0.00836378
21 *338:17 *443:19 0.000432731
22 *338:17 *443:29 4.36699e-05
23 *338:19 *484:15 0.0302228
24 *338:19 *548:11 0.0200162
25 *338:29 *533:48 9.31744e-05
26 *338:29 *540:18 0.000499335
27 *338:29 *541:13 0
28 *338:29 *562:81 0.000212297
29 *338:29 *696:117 0.000910448
30 *338:29 *839:53 0
31 *338:33 *386:173 0
32 *338:35 *444:55 0.0103442
33 *338:35 *531:14 0.000335602
34 *338:35 *532:14 0.0014033
35 *338:35 *532:16 0.00106438
36 *338:35 *533:30 0.000116143
37 *338:35 *537:12 0.000393045
38 *338:35 *569:18 0.0274637
39 *338:35 *826:47 0.00694076
40 *338:63 gpio_out[39] 0.000257008
41 *338:63 *921:gpio_in[41] 0.000163293
42 *338:63 *386:99 0.0010247
43 *338:63 *419:39 0.000934973
44 *338:63 *444:63 0.00118109
45 *338:63 *472:55 0.00340999
46 *338:63 *529:9 0.0046737
47 *338:63 *539:63 0.000787294
48 *338:63 *540:18 0.00300025
49 *338:63 *541:27 0.00294756
50 *338:63 *541:35 0.000725612
51 *338:63 *551:17 0.00153626
52 *338:63 *567:12 0.00178936
53 *338:63 *840:19 0.000753225
54 *338:71 *340:39 0.0274404
55 *338:71 *429:19 0.00140877
56 *338:71 *474:15 0.00956143
57 *338:71 *545:11 0.0134139
58 *338:71 *554:13 0.0124413
59 *338:71 *559:19 0.0199034
60 *338:71 *780:13 0.00311421
61 *338:71 *847:16 0.0991889
62 *338:71 *852:19 0.036449
63 *338:77 *921:gpio_in[5] 0.000331707
64 *338:77 *693:109 0
65 *338:81 *539:153 5.79012e-05
66 *338:81 *541:105 0.00918088
67 *338:81 *737:99 0.000369549
68 *338:81 *815:21 0.0223238
69 *338:81 *826:27 0.00192412
70 *338:83 *387:11 0.033688
71 *338:83 *440:19 0.020725
72 gpio_analog_sel[36] gpio_dm2[36] 0
73 *118:97 *338:29 0.00590452
74 *118:99 *338:35 0.000386371
75 *118:145 *338:63 0
76 *118:155 *338:63 0.000934973
77 *118:205 *338:77 0
78 *118:205 *338:81 0.000297299
79 *118:209 *338:81 0.0061507
80 *118:211 *338:83 2.69104e-05
81 *121:15 *338:19 0.0162286
82 *125:11 *338:11 0.000467813
83 *165:15 *338:19 0.0753776
84 *253:15 *338:71 0.00112215
85 *294:15 *338:71 0.0215638
86 *294:21 *338:77 0
87 *322:27 *338:11 0.00623686
88 *322:123 *338:35 0.000129601
89 *322:175 *338:63 0.000707748
90 *322:277 *338:83 0.0225885
91 *325:61 *338:29 0
92 *325:63 *338:35 0.00700439
93 *325:79 *338:63 0.000725612
94 *334:6 *338:9 0.000201414
95 *335:13 *338:11 0.0275825
96 *335:13 *338:17 0.00315469
97 *335:45 *338:77 0
98 *335:45 *338:81 0.00039853
99 *335:55 *338:81 2.10629e-05
100 *336:11 *338:11 0.0554997
101 *336:11 *338:17 0.00169579
102 *336:41 *338:29 0.000179386
103 *337:9 *338:9 0.00078494
*RES
1 *921:gpio_dm2[36] *338:9 9.65473 
2 *338:9 *338:11 690.286 
3 *338:11 *338:17 44.3304 
4 *338:17 *338:19 713.946 
5 *338:19 *338:29 42.6534 
6 *338:29 *338:33 13.5804 
7 *338:33 *338:35 421.929 
8 *338:35 *338:63 49.1955 
9 *338:63 *338:69 21.5164 
10 *338:69 *338:71 156.792 
11 *338:71 *338:77 30.0164 
12 *338:77 *338:81 41.0758 
13 *338:81 *338:83 786.375 
14 *338:83 gpio_dm2[36] 14.0328 
*END

*D_NET *339 0.96574
*CONN
*P gpio_dm2[37] O
*I *921:gpio_dm2[37] O *D CF_CARAVEL_SOC
*CAP
1 gpio_dm2[37] 0.00334928
2 *921:gpio_dm2[37] 0.00210313
3 *339:42 1.52569e-06
4 *339:27 0.0130083
5 *339:25 0.00966059
6 *339:23 0.0401751
7 *339:21 0.0405873
8 *339:15 0.0115875
9 *339:13 0.0111753
10 *339:11 0.014919
11 *339:9 0.0170221
12 gpio_dm2[37] gpio_holdover[37] 0.00154034
13 gpio_dm2[37] gpio_out[37] 0.00405392
14 gpio_dm2[37] *447:17 0
15 gpio_dm2[37] *548:23 0.000394702
16 *339:9 *340:9 5.32358e-06
17 *339:11 *441:11 0.0177133
18 *339:11 *551:125 0.00874732
19 *339:15 *771:27 2.59824e-05
20 *339:15 *842:11 0.087117
21 *339:23 *343:15 0.0277751
22 *339:23 *386:35 0.00150226
23 *339:23 *386:55 0.000190603
24 *339:23 *389:23 0.0397975
25 *339:23 *390:23 0.00562908
26 *339:23 *429:19 0.000244473
27 *339:23 *461:21 0.00284914
28 *339:23 *472:11 0.0125937
29 *339:23 *559:29 0.00037098
30 *339:23 *693:163 0.000777321
31 *339:23 *760:23 0.0250253
32 *339:23 *827:19 0.00685987
33 *339:23 *845:19 0.199285
34 *339:23 *852:11 0.00480482
35 *339:42 gpio_holdover[37] 3.05874e-05
36 gpio_analog_en[42] *339:21 0.000628837
37 gpio_analog_sel[37] gpio_dm2[37] 0.000766048
38 *119:27 *339:27 0.0492949
39 *164:43 *339:23 0.0534552
40 *165:15 *339:15 0.0896726
41 *207:51 *339:27 0.0492935
42 *245:11 *339:11 0.000958939
43 *255:15 *339:23 0.000698083
44 *256:11 *339:11 0
45 *257:11 *339:11 0
46 *257:15 *339:15 0.0196006
47 *274:11 *339:11 0
48 *279:11 *339:11 0.00213383
49 *292:11 *339:11 0
50 *293:11 *339:11 0.0409696
51 *294:25 *339:23 0.0240313
52 *296:15 *339:15 0.00120778
53 *316:11 *339:11 0.00261457
54 *322:19 *339:11 0.0194911
55 *338:9 *339:9 0
*RES
1 *921:gpio_dm2[37] *339:9 7.78413 
2 *339:9 *339:11 736.134 
3 *339:11 *339:13 4.5 
4 *339:13 *339:15 849.071 
5 *339:15 *339:21 16.3832 
6 *339:21 *339:23 322.401 
7 *339:23 *339:25 3.41 
8 *339:25 *339:27 615.161 
9 *339:27 gpio_dm2[37] 24.6873 
10 gpio_dm2[37] *339:42 0.0494737 
*END

*D_NET *340 0.645776
*CONN
*P gpio_dm2[38] O
*I *921:gpio_dm2[38] O *D CF_CARAVEL_SOC
*CAP
1 gpio_dm2[38] 0.00205016
2 *921:gpio_dm2[38] 0.000291646
3 *340:39 0.0402454
4 *340:37 0.0381953
5 *340:35 0.00997153
6 *340:33 0.0102538
7 *340:27 0.00453626
8 *340:11 0.0172462
9 *340:9 0.0132838
10 *340:11 *341:12 0.00401216
11 *340:11 *341:14 0.00221945
12 *340:11 *350:9 0.000111764
13 *340:11 *352:9 0.000111764
14 *340:27 *341:14 0.00640045
15 *340:35 *840:9 0.000351727
16 *340:39 *429:19 0.0553703
17 *340:39 *461:23 0.00641051
18 *340:39 *845:19 0.0271847
19 gpio_analog_sel[38] gpio_dm2[38] 0
20 *164:35 *340:39 0.0102644
21 *168:15 *340:39 0.117762
22 *208:9 *340:27 0.00461206
23 *211:9 *340:11 0
24 *211:9 *340:27 0
25 *226:9 *340:27 5.00194e-05
26 *227:9 *340:27 0.000255549
27 *228:9 *340:27 0.000201414
28 *231:9 *340:27 0.000201414
29 *233:9 *340:27 0.000255549
30 *234:9 *340:27 0.000255549
31 *237:9 *340:27 0.000255549
32 *238:15 *340:39 0.0224278
33 *239:9 *340:27 0.000255549
34 *244:9 *340:27 0.000255549
35 *245:9 *340:27 0.000255549
36 *248:9 *340:27 0.000201414
37 *250:9 *340:27 0.000255549
38 *251:9 *340:27 0.000255549
39 *252:9 *340:27 0.000255549
40 *253:9 *340:27 0.000201414
41 *253:15 *340:39 0.172582
42 *256:9 *340:27 0.000255549
43 *257:9 *340:27 0.000255549
44 *258:9 *340:27 6.60633e-06
45 *258:11 *340:11 5.7986e-05
46 *258:11 *340:27 0.000342774
47 *258:15 *340:27 0.00192578
48 *271:9 *340:11 0.000111764
49 *274:9 *340:11 0.000111764
50 *275:9 *340:11 0.000111764
51 *280:9 *340:11 0.000111764
52 *282:9 *340:11 0.000111764
53 *285:9 *340:11 0.000111764
54 *286:9 *340:11 0.000111764
55 *289:9 *340:11 0.000111764
56 *290:9 *340:11 0.000111764
57 *291:9 *340:11 0.000111764
58 *293:9 *340:11 0.000111764
59 *295:9 *340:11 0.000111764
60 *297:10 *340:35 0.00698108
61 *299:11 *340:11 0.0163129
62 *299:11 *340:27 0.000994786
63 *300:11 *340:11 0.000222118
64 *300:11 *340:27 0.00246933
65 *301:13 *340:11 0.000121336
66 *301:13 *340:27 0.00276226
67 *302:13 *340:35 0
68 *308:9 *340:11 0.000111764
69 *309:9 *340:11 0.000111764
70 *314:15 *340:11 0.000111764
71 *318:9 *340:11 0.000111764
72 *322:11 *340:11 0.00924772
73 *323:9 *340:11 0.000223528
74 *325:9 *340:11 0.000223528
75 *328:11 *340:11 0.0039312
76 *334:6 *340:9 0.000255549
77 *334:6 *340:11 0.000534289
78 *336:9 *340:11 0.000111764
79 *338:71 *340:39 0.0274404
80 *339:9 *340:9 5.32358e-06
*RES
1 *921:gpio_dm2[38] *340:9 3.99593 
2 *340:9 *340:11 403.268 
3 *340:11 *340:27 47.8173 
4 *340:27 *340:33 13.2321 
5 *340:33 *340:35 197.295 
6 *340:35 *340:37 3.41 
7 *340:37 *340:39 354.255 
8 *340:39 gpio_dm2[38] 32.3475 
*END

*D_NET *341 0.58787
*CONN
*P gpio_dm2[39] O
*I *921:gpio_dm2[39] O *D CF_CARAVEL_SOC
*CAP
1 gpio_dm2[39] 0.00277091
2 *921:gpio_dm2[39] 0.00877625
3 *341:18 0.0299219
4 *341:16 0.027151
5 *341:14 0.0143734
6 *341:12 0.0231496
7 gpio_dm2[39] gpio_holdover[39] 0.000329981
8 *341:18 *344:15 0.000828214
9 *341:18 *408:23 0.0106629
10 *341:18 *471:27 0.00469088
11 *341:18 *534:11 0.0159796
12 *341:18 *557:19 0.0230255
13 *341:18 *866:17 0.168893
14 gpio_analog_sel[39] gpio_dm2[39] 0
15 *123:15 *341:18 0.145717
16 *208:9 *341:12 0.0022207
17 *208:9 *341:14 0
18 *258:15 *341:14 0.00226299
19 *297:8 *341:12 0.000892557
20 *297:10 *341:12 0.000413205
21 *297:10 *341:14 0.0436547
22 *299:9 *341:12 0.000255549
23 *299:11 *341:12 0.00039003
24 *299:11 *341:14 0.00548439
25 *300:9 *341:12 0.000255549
26 *300:11 *341:12 0.000429409
27 *300:11 *341:14 0.00623917
28 *301:11 *341:12 0.000201414
29 *301:13 *341:12 0.00046497
30 *301:13 *341:14 0.00675597
31 *302:13 *341:12 0.0010893
32 *302:13 *341:14 0.0148761
33 *322:9 *341:12 0.000255549
34 *322:11 *341:12 0.00403385
35 *328:9 *341:12 0.000255549
36 *328:11 *341:12 0.000377056
37 *329:8 *341:12 0.00157747
38 *329:10 *341:12 0.00238205
39 *330:13 *341:12 0.000675252
40 *332:11 *341:12 0.000201414
41 *332:13 *341:12 0.000346964
42 *333:9 *341:12 0.000255549
43 *333:11 *341:12 0.000388868
44 *334:6 *341:12 0.00233203
45 *340:11 *341:12 0.00401216
46 *340:11 *341:14 0.00221945
47 *340:27 *341:14 0.00640045
*RES
1 *921:gpio_dm2[39] *341:12 44.6791 
2 *341:12 *341:14 89.1715 
3 *341:14 *341:16 3.41 
4 *341:16 *341:18 269.468 
5 *341:18 gpio_dm2[39] 44.9189 
*END

*D_NET *342 0.0811936
*CONN
*P gpio_dm2[3] O
*I *921:gpio_dm2[3] O *D CF_CARAVEL_SOC
*CAP
1 gpio_dm2[3] 0.00546994
2 *921:gpio_dm2[3] 0.00374462
3 *342:11 0.0134766
4 *342:9 0.0117513
5 gpio_dm2[3] gpio_holdover[3] 0.000362006
6 *342:9 *347:9 0
7 *342:11 *530:113 0.000367398
8 *342:11 *567:18 0.00377939
9 gpio_analog_en[2] *342:11 0.0069971
10 gpio_analog_sel[3] gpio_dm2[3] 0.00146367
11 gpio_dm2[2] *342:9 0
12 *93:11 *342:11 0.000228991
13 *103:9 gpio_dm2[3] 0
14 *130:11 *342:11 0.00576699
15 *144:11 *342:11 0.000203894
16 *144:19 *342:11 0.00105605
17 *155:11 *342:11 0
18 *223:19 *342:11 0.000113898
19 *243:11 *342:11 0
20 *246:11 *342:11 0.00154609
21 *254:11 *342:11 0.0242203
22 *270:19 *342:11 0.000645454
*RES
1 *921:gpio_dm2[3] *342:9 11.8935 
2 *342:9 *342:11 52.6745 
3 *342:11 gpio_dm2[3] 15.5681 
*END

*D_NET *343 0.495121
*CONN
*P gpio_dm2[40] O
*I *921:gpio_dm2[40] O *D CF_CARAVEL_SOC
*CAP
1 gpio_dm2[40] 0.00168261
2 *921:gpio_dm2[40] 0.000681323
3 *343:15 0.0331245
4 *343:13 0.0314419
5 *343:11 0.0105806
6 *343:9 0.011262
7 gpio_dm2[40] gpio_holdover[40] 8.80589e-05
8 gpio_dm2[40] gpio_out[40] 0
9 *343:9 *344:9 0
10 *343:11 *344:11 0.0604856
11 *343:11 *345:11 0.00031437
12 *343:11 *847:6 3.14967e-05
13 *343:15 *390:23 0.0173246
14 *343:15 *845:11 0.010841
15 *343:15 *845:19 0.0088632
16 *343:15 *847:8 0.0174275
17 *343:15 *852:11 0.0284132
18 gpio_analog_sel[40] gpio_dm2[40] 0
19 *119:21 gpio_dm2[40] 0.000155893
20 *126:15 *343:15 0.0215469
21 *164:21 *343:9 2.10787e-05
22 *167:15 *343:11 0.0615925
23 *168:15 *343:15 8.85501e-05
24 *209:11 *343:11 0.00697023
25 *255:15 *343:15 0.144154
26 *334:6 *343:9 0.000255549
27 *339:23 *343:15 0.0277751
*RES
1 *921:gpio_dm2[40] *343:9 4.86073 
2 *343:9 *343:11 758.446 
3 *343:11 *343:13 3.41 
4 *343:13 *343:15 227.922 
5 *343:15 gpio_dm2[40] 28.8654 
*END

*D_NET *344 0.419055
*CONN
*P gpio_dm2[41] O
*I *921:gpio_dm2[41] O *D CF_CARAVEL_SOC
*CAP
1 gpio_dm2[41] 0.00253103
2 *921:gpio_dm2[41] 0.00054291
3 *344:15 0.0230796
4 *344:13 0.0205486
5 *344:11 0.012102
6 *344:9 0.0126449
7 gpio_dm2[41] gpio_holdover[41] 0.00101815
8 *344:9 *345:9 0
9 *344:11 *345:11 0.033804
10 *344:15 *346:15 2.82786e-05
11 *344:15 *430:23 0.00787718
12 *344:15 *793:27 0.0230303
13 *344:15 *815:49 0.0216816
14 *344:15 *839:39 0.0110209
15 *344:15 *839:53 0.00276668
16 *344:15 *839:65 0.00473086
17 *344:15 *839:83 0.00116851
18 *344:15 *866:17 0.114498
19 gpio_analog_sel[41] gpio_dm2[41] 0
20 *123:15 *344:15 0.00017235
21 *164:15 *344:11 0.000304867
22 *167:15 *344:11 0.000276215
23 *209:11 *344:11 0.00765171
24 *258:19 *344:15 0.0562628
25 *341:18 *344:15 0.000828214
26 *343:9 *344:9 0
27 *343:11 *344:11 0.0604856
*RES
1 *921:gpio_dm2[41] *344:9 4.5756 
2 *344:9 *344:11 749.946 
3 *344:11 *344:13 3.41 
4 *344:13 *344:15 184.898 
5 *344:15 gpio_dm2[41] 43.5796 
*END

*D_NET *345 0.317827
*CONN
*P gpio_dm2[42] O
*I *921:gpio_dm2[42] O *D CF_CARAVEL_SOC
*CAP
1 gpio_dm2[42] 7.08414e-05
2 *921:gpio_dm2[42] 0.000302571
3 *345:27 0.00716876
4 *345:21 0.00736656
5 *345:15 0.00858732
6 *345:13 0.00831868
7 *345:11 0.0131303
8 *345:9 0.0134329
9 *345:9 *346:9 0.000103949
10 *345:11 *846:11 0.000871426
11 *345:11 *847:6 0.00109262
12 *345:15 *546:13 0.00313327
13 *345:15 *552:13 0.00165038
14 *345:15 *560:19 0.0328863
15 *345:27 gpio_holdover[42] 0.0004699
16 *345:27 *433:22 0.000233711
17 *345:27 *478:9 0.00735474
18 *345:27 *561:18 0.000660982
19 *345:27 *786:23 0.00462718
20 *345:27 *829:43 0.000212929
21 *345:27 *859:11 0.00474804
22 gpio_analog_pol[43] *345:21 0.000105912
23 gpio_analog_sel[42] *345:27 0
24 *121:11 *345:11 0.0618322
25 *164:15 *345:11 0.000799336
26 *209:11 *345:11 0.00614416
27 *252:15 *345:27 0.0127185
28 *284:15 *345:15 0.0156554
29 *300:27 *345:27 0.00116552
30 *301:17 *345:15 0.0129735
31 *302:21 *345:15 0.000530943
32 *325:23 *345:15 0.0553601
33 *343:11 *345:11 0.00031437
34 *344:9 *345:9 0
35 *344:11 *345:11 0.033804
*RES
1 *921:gpio_dm2[42] *345:9 4.2184 
2 *345:9 *345:11 784.098 
3 *345:11 *345:13 4.5 
4 *345:13 *345:15 582.107 
5 *345:15 *345:21 12.7404 
6 *345:21 *345:27 49.4687 
7 *345:27 gpio_dm2[42] 1.15179 
*END

*D_NET *346 0.272566
*CONN
*P gpio_dm2[43] O
*I *921:gpio_dm2[43] O *D CF_CARAVEL_SOC
*CAP
1 gpio_dm2[43] 0.00289635
2 *921:gpio_dm2[43] 0.00077893
3 *346:15 0.0176882
4 *346:13 0.0147919
5 *346:11 0.0140043
6 *346:9 0.0147832
7 gpio_dm2[43] gpio_holdover[43] 0
8 *346:15 *441:15 0.012364
9 *346:15 *444:15 0.0124821
10 *346:15 *463:15 0.0133408
11 *346:15 *529:9 0.00251626
12 *346:15 *532:30 0.00272506
13 *346:15 *540:18 0.00101217
14 *346:15 *840:19 0.00285818
15 gpio_analog_sel[43] gpio_dm2[43] 0
16 *123:15 *346:15 0.0624965
17 *213:11 *346:11 0.0240602
18 *214:11 *346:11 0.00783716
19 *227:11 *346:11 0.045388
20 *293:15 *346:15 0.0111498
21 *294:11 *346:11 0.00900452
22 *334:6 *346:9 0.000255549
23 *344:15 *346:15 2.82786e-05
24 *345:9 *346:9 0.000103949
*RES
1 *921:gpio_dm2[43] *346:9 5.22107 
2 *346:9 *346:11 756.018 
3 *346:11 *346:13 3.41 
4 *346:13 *346:15 99.6431 
5 *346:15 gpio_dm2[43] 44.9368 
*END

*D_NET *347 0.0905359
*CONN
*P gpio_dm2[4] O
*I *921:gpio_dm2[4] O *D CF_CARAVEL_SOC
*CAP
1 gpio_dm2[4] 0.00193386
2 *921:gpio_dm2[4] 0.00672649
3 *347:11 0.018729
4 *347:9 0.0235216
5 gpio_dm2[4] gpio_holdover[4] 0
6 *347:9 *348:9 0
7 *347:11 *571:39 0.0107088
8 *347:11 *826:131 0.0250992
9 gpio_analog_sel[4] gpio_dm2[4] 0.00131451
10 *261:11 *347:11 0.00222588
11 *270:17 *347:9 0.000276639
12 *283:11 *347:11 0
13 *342:9 *347:9 0
*RES
1 *921:gpio_dm2[4] *347:9 18.5597 
2 *347:9 *347:11 499.196 
3 *347:11 gpio_dm2[4] 8.26275 
*END

*D_NET *348 0.106873
*CONN
*P gpio_dm2[5] O
*I *921:gpio_dm2[5] O *D CF_CARAVEL_SOC
*CAP
1 gpio_dm2[5] 0.0029071
2 *921:gpio_dm2[5] 0.00619491
3 *348:11 0.0275183
4 *348:9 0.0308061
5 gpio_dm2[5] gpio_holdover[5] 0
6 gpio_dm2[5] gpio_out[5] 0
7 *348:9 *349:9 0
8 gpio_analog_sel[5] gpio_dm2[5] 0
9 *168:11 *348:11 0
10 *218:11 *348:11 0.0207516
11 *306:11 *348:11 0.018695
12 *347:9 *348:9 0
*RES
1 *921:gpio_dm2[5] *348:9 17.4066 
2 *348:9 *348:11 696.518 
3 *348:11 gpio_dm2[5] 9.19022 
*END

*D_NET *349 0.160091
*CONN
*P gpio_dm2[6] O
*I *921:gpio_dm2[6] O *D CF_CARAVEL_SOC
*CAP
1 gpio_dm2[6] 0.00539372
2 *921:gpio_dm2[6] 0.00425363
3 *349:11 0.0208855
4 *349:9 0.0197455
5 gpio_dm2[6] gpio_holdover[6] 0
6 *349:11 *484:11 0.000636096
7 *349:11 *787:37 0.00180202
8 gpio_analog_sel[6] gpio_dm2[6] 0.000200786
9 *131:11 *349:11 0.0543713
10 *175:11 *349:11 0.00404043
11 *205:47 gpio_dm2[6] 0.000141188
12 *225:19 *349:11 0.025202
13 *274:93 *349:11 0.00554552
14 *304:11 *349:11 0.00855328
15 *310:11 *349:11 0.00932037
16 *348:9 *349:9 0
*RES
1 *921:gpio_dm2[6] *349:9 13.1547 
2 *349:9 *349:11 889.589 
3 *349:11 gpio_dm2[6] 14.2129 
*END

*D_NET *350 0.318349
*CONN
*P gpio_dm2[7] O
*I *921:gpio_dm2[7] O *D CF_CARAVEL_SOC
*CAP
1 gpio_dm2[7] 0.00462975
2 *921:gpio_dm2[7] 0.00264651
3 *350:11 0.0439923
4 *350:9 0.0420091
5 gpio_dm2[7] gpio_holdover[7] 0.00735778
6 gpio_dm2[7] *746:13 0
7 *350:9 *351:9 0
8 *350:11 *351:11 0.143281
9 *350:11 *443:19 0
10 *350:11 *463:11 0.00020996
11 *350:11 *572:28 0
12 gpio_analog_sel[7] gpio_dm2[7] 0
13 *92:11 *350:11 0
14 *95:11 *350:11 0.000258173
15 *96:11 *350:11 0.00500549
16 *105:11 *350:11 0.000121776
17 *105:27 *350:11 0.0418628
18 *108:11 *350:11 0.0163128
19 *125:11 *350:11 0.00208613
20 *314:19 *350:11 0.00574755
21 *336:11 *350:11 0.00120527
22 *337:19 *350:11 0.00139684
23 *338:11 *350:11 0.000113898
24 *340:11 *350:9 0.000111764
*RES
1 *921:gpio_dm2[7] *350:9 9.29283 
2 *350:9 *350:11 294.292 
3 *350:11 gpio_dm2[7] 17.7614 
*END

*D_NET *351 0.40318
*CONN
*P gpio_dm2[8] O
*I *921:gpio_dm2[8] O *D CF_CARAVEL_SOC
*CAP
1 gpio_dm2[8] 0.00446818
2 *921:gpio_dm2[8] 0.00255794
3 *351:11 0.033582
4 *351:9 0.0316718
5 gpio_dm2[8] gpio_holdover[8] 0.00881042
6 gpio_dm2[8] gpio_out[8] 6.78403e-05
7 *351:9 *352:9 0
8 *351:11 *352:11 0.160337
9 *351:11 *474:11 0.00328476
10 *351:11 *571:31 0.0042363
11 *351:11 *700:10 0.00372088
12 gpio_analog_sel[8] gpio_dm2[8] 0
13 *105:27 *351:11 0.00687419
14 *206:19 *351:11 0.00028732
15 *279:11 *351:11 0
16 *350:9 *351:9 0
17 *350:11 *351:11 0.143281
*RES
1 *921:gpio_dm2[8] *351:9 9.04217 
2 *351:9 *351:11 329.342 
3 *351:11 gpio_dm2[8] 26.0696 
*END

*D_NET *352 0.444906
*CONN
*P gpio_dm2[9] O
*I *921:gpio_dm2[9] O *D CF_CARAVEL_SOC
*CAP
1 gpio_dm2[9] 0.00596017
2 *921:gpio_dm2[9] 0.00219578
3 *352:11 0.0455642
4 *352:9 0.0417998
5 gpio_dm2[9] gpio_holdover[9] 0
6 *352:11 *479:11 0.00541434
7 *352:11 *480:11 0.00682931
8 *352:11 *534:15 0.00285112
9 *352:11 *699:10 0.00582235
10 *352:11 *744:15 0.00367994
11 gpio_analog_sel[9] gpio_dm2[9] 0.00143861
12 *91:11 *352:11 0.157904
13 *105:27 *352:11 0.00210409
14 *279:11 *352:11 0
15 *310:9 *352:9 0.000707477
16 *314:15 *352:11 0.00218618
17 *340:11 *352:9 0.000111764
18 *351:9 *352:9 0
19 *351:11 *352:11 0.160337
*RES
1 *921:gpio_dm2[9] *352:9 9.00457 
2 *352:9 *352:11 362.793 
3 *352:11 gpio_dm2[9] 18.5949 
*END

*D_NET *353 0.736752
*CONN
*P gpio_holdover[0] O
*I *921:gpio_holdover[0] O *D CF_CARAVEL_SOC
*CAP
1 gpio_holdover[0] 0.00129439
2 *921:gpio_holdover[0] 0.00294384
3 *353:35 0.00531647
4 *353:33 0.00402209
5 *353:31 0.0470555
6 *353:29 0.048249
7 *353:19 0.00451849
8 *353:17 0.00337378
9 *353:11 0.0283742
10 *353:9 0.0312693
11 gpio_holdover[0] gpio_out[0] 0
12 *353:9 *364:17 0
13 *353:9 *786:9 0
14 *353:11 *416:11 0.00592772
15 *353:11 *421:11 0.0172997
16 *353:11 *438:17 0.00509471
17 *353:11 *451:21 0.00955198
18 *353:11 *815:11 0.0371695
19 *353:17 *386:21 4.37712e-06
20 *353:19 *385:11 0.0165384
21 *353:19 *386:21 0.00288434
22 *353:19 *458:11 0.0146676
23 *353:19 *555:17 0
24 *353:19 *857:21 0
25 *353:29 *388:21 0.000322009
26 *353:29 *435:21 0.000948052
27 *353:29 *465:21 0.000365863
28 *353:29 *553:23 0.00204061
29 *353:29 *851:15 8.6985e-06
30 *353:29 *853:17 2.64229e-05
31 *353:29 *861:25 5.00377e-06
32 *353:31 *388:23 0
33 *353:31 *542:11 0.00972083
34 *353:31 *544:13 0.000203759
35 *353:31 *760:31 0.0942691
36 *353:31 *830:15 0.117097
37 *353:31 *849:11 0.0178773
38 *353:31 *856:11 4.59602e-05
39 *353:35 *364:43 0.000609044
40 *353:35 *397:177 0.0210634
41 *353:35 *529:13 0.000304421
42 *353:35 *749:31 0.000769854
43 *353:35 *815:53 0.0220987
44 gpio_analog_pol[35] *353:11 0.000365668
45 gpio_dm2[0] gpio_holdover[0] 0.00210368
46 *207:23 *353:31 0.0670808
47 *248:49 *353:11 0.00415091
48 *292:27 *353:11 0
49 *336:47 *353:31 0.0897192
*RES
1 *921:gpio_holdover[0] *353:9 10.0198 
2 *353:9 *353:11 167.624 
3 *353:11 *353:17 6.90303 
4 *353:17 *353:19 204.125 
5 *353:19 *353:29 16.9506 
6 *353:29 *353:31 2708.79 
7 *353:31 *353:33 4.5 
8 *353:33 *353:35 292.009 
9 *353:35 gpio_holdover[0] 7.17548 
*END

*D_NET *354 0.610448
*CONN
*P gpio_holdover[10] O
*I *921:gpio_holdover[10] O *D CF_CARAVEL_SOC
*CAP
1 gpio_holdover[10] 0.00163161
2 *921:gpio_holdover[10] 0.00167744
3 *354:15 0.150898
4 *354:13 0.149266
5 *354:11 0.029342
6 *354:9 0.0310195
7 gpio_holdover[10] *706:11 0
8 *354:9 *396:9 0
9 *354:11 *356:11 0.135313
10 *354:11 *359:11 0
11 *354:11 *393:11 0.00524861
12 *354:11 *449:29 0.000537145
13 *354:11 *751:11 0.000272853
14 *354:11 *791:23 0.10061
15 gpio_analog_pol[34] *354:9 0
16 gpio_analog_sel[10] *354:15 0
17 gpio_dm2[10] gpio_holdover[10] 0.000392882
18 gpio_dm2[10] *354:15 0.00423913
19 *268:11 gpio_holdover[10] 0
20 *311:11 gpio_holdover[10] 0
*RES
1 *921:gpio_holdover[10] *354:9 7.17313 
2 *354:9 *354:11 1670.38 
3 *354:11 *354:13 3.41 
4 *354:13 *354:15 477.2 
5 *354:15 gpio_holdover[10] 13.5895 
*END

*D_NET *355 0.812806
*CONN
*P gpio_holdover[11] O
*I *921:gpio_holdover[11] O *D CF_CARAVEL_SOC
*CAP
1 gpio_holdover[11] 0.00145351
2 *921:gpio_holdover[11] 0.00153084
3 *355:15 0.101952
4 *355:13 0.100498
5 *355:11 0.0413867
6 *355:9 0.0429176
7 gpio_holdover[11] gpio_out[11] 0.000266625
8 *355:9 *356:9 0
9 *355:11 *359:11 0.15047
10 *355:11 *371:11 0.0364662
11 *355:11 *382:11 0.00188626
12 *355:11 *388:11 0.0145529
13 *355:11 *437:29 1.94879e-05
14 *355:11 *790:11 0.0331267
15 *355:11 *808:11 0
16 *355:15 gpio_out[11] 0
17 *355:15 *707:11 0.271535
18 gpio_analog_en[34] *355:9 0
19 gpio_analog_pol[33] *355:11 0.00220048
20 gpio_analog_pol[34] *355:9 0.00232576
21 gpio_analog_sel[11] *355:15 0
22 gpio_dm2[11] gpio_holdover[11] 0.000262871
23 gpio_dm2[11] *355:15 6.40983e-05
24 *115:35 *355:11 0.00963647
25 *162:25 *355:11 0.000254007
*RES
1 *921:gpio_holdover[11] *355:9 8.00033 
2 *355:9 *355:11 1867.09 
3 *355:11 *355:13 3.41 
4 *355:13 *355:15 477.885 
5 *355:15 gpio_holdover[11] 3.78585 
*END

*D_NET *356 0.84562
*CONN
*P gpio_holdover[12] O
*I *921:gpio_holdover[12] O *D CF_CARAVEL_SOC
*CAP
1 gpio_holdover[12] 0.101093
2 *921:gpio_holdover[12] 0.00144484
3 *356:18 0
4 *356:13 0.101093
5 *356:11 0.0342169
6 *356:9 0.0356617
7 gpio_holdover[12] gpio_out[12] 0.00194429
8 gpio_holdover[12] *708:11 0.270361
9 gpio_holdover[12] *796:15 0
10 *356:9 *357:17 0
11 *356:11 *359:11 0
12 *356:11 *751:11 0.148908
13 *356:11 *797:19 0.0110698
14 *356:11 *819:11 0.000486212
15 gpio_analog_en[34] *356:9 0.00122239
16 gpio_analog_sel[12] gpio_holdover[12] 0
17 gpio_dm2[12] gpio_holdover[12] 0
18 *161:19 *356:11 0.00280614
19 *274:265 gpio_holdover[12] 0
20 *354:11 *356:11 0.135313
21 *355:9 *356:9 0
*RES
1 *921:gpio_holdover[12] *356:9 7.2076 
2 *356:9 *356:11 2064.41 
3 *356:11 *356:13 3.41 
4 *356:13 gpio_holdover[12] 480.31 
5 gpio_holdover[12] *356:18 0.0626667 
*END

*D_NET *357 0.638731
*CONN
*P gpio_holdover[13] O
*I *921:gpio_holdover[13] O *D CF_CARAVEL_SOC
*CAP
1 gpio_holdover[13] 0.00143947
2 *921:gpio_holdover[13] 0.00504348
3 *357:23 0.162383
4 *357:21 0.160944
5 *357:19 0.111856
6 *357:17 0.1169
7 gpio_holdover[13] gpio_out[13] 0
8 *357:17 *358:17 0.00111926
9 *357:17 *361:11 0.00628172
10 *357:17 *374:9 3.30626e-05
11 *357:17 *416:11 0.00838707
12 *357:17 *423:11 0.000542665
13 *357:17 *555:17 0.000817721
14 *357:17 *755:11 0.00180467
15 *357:19 *361:11 0.00246136
16 *357:19 *370:11 0
17 *357:19 *375:19 0
18 *357:19 *389:11 0.00602032
19 *357:19 *413:19 0.0414501
20 *357:19 *423:11 0.0001326
21 *357:19 *438:19 0.0079018
22 *357:19 *543:31 0
23 *357:19 *687:19 0
24 *357:19 *809:11 0
25 *357:23 gpio_out[13] 0
26 gpio_dm2[13] gpio_holdover[13] 0.000971411
27 gpio_dm2[13] *357:23 0.00224197
28 *356:9 *357:17 0
*RES
1 *921:gpio_holdover[13] *357:17 34.0089 
2 *357:17 *357:19 2354.02 
3 *357:19 *357:21 3.41 
4 *357:21 *357:23 479.002 
5 *357:23 gpio_holdover[13] 12.3376 
*END

*D_NET *358 0.916219
*CONN
*P gpio_holdover[14] O
*I *921:gpio_holdover[14] O *D CF_CARAVEL_SOC
*CAP
1 gpio_holdover[14] 9.82153e-05
2 *921:gpio_holdover[14] 0.00254774
3 *358:23 0.101972
4 *358:21 0.101874
5 *358:19 0.0882989
6 *358:17 0.0908466
7 *358:17 *359:9 0
8 *358:17 *389:11 0.000243793
9 *358:17 *423:11 0.00111491
10 *358:17 *438:19 0.00020996
11 *358:17 *468:9 0.000529269
12 *358:17 *831:25 0.00186139
13 *358:19 *363:11 0
14 *358:19 *376:11 0.0183701
15 *358:19 *416:11 0.00978329
16 *358:19 *458:11 0
17 *358:19 *809:11 0.228311
18 *358:23 gpio_out[14] 0.000797317
19 *358:23 *710:11 0.267977
20 gpio_analog_sel[14] *358:23 0
21 gpio_dm2[14] *358:23 0.0002641
22 *105:31 *358:23 0
23 *357:17 *358:17 0.00111926
*RES
1 *921:gpio_holdover[14] *358:17 18.737 
2 *358:17 *358:19 2834.27 
3 *358:19 *358:21 3.41 
4 *358:21 *358:23 482.688 
5 *358:23 gpio_holdover[14] 0.329783 
*END

*D_NET *359 0.982118
*CONN
*P gpio_holdover[15] O
*I *921:gpio_holdover[15] O *D CF_CARAVEL_SOC
*CAP
1 gpio_holdover[15] 3.76613e-05
2 *921:gpio_holdover[15] 0.00202007
3 *359:23 0.0737224
4 *359:21 0.0762636
5 *359:15 0.0305929
6 *359:13 0.0280141
7 *359:11 0.113327
8 *359:9 0.115347
9 gpio_holdover[15] gpio_out[15] 0
10 *359:9 *360:9 0
11 *359:9 *831:25 0
12 *359:11 *371:11 0.0177924
13 *359:11 *375:17 0.00034256
14 *359:11 *382:11 0.000765523
15 *359:11 *791:23 0
16 *359:11 *808:11 0
17 *359:15 *363:19 0.111603
18 *359:15 *448:9 0.0215265
19 *359:15 *449:9 0.0195957
20 *359:15 *450:9 0.0131026
21 *359:15 *451:9 0.0282577
22 *359:15 *763:15 0.0403957
23 *359:21 gpio_holdover[19] 3.13654e-05
24 *359:21 *363:19 0.00108571
25 *359:21 *448:9 0.000124397
26 *359:21 *449:9 0.00016215
27 *359:21 *450:9 0.0005259
28 *359:21 *451:9 0.00120994
29 *359:23 *448:9 0.02611
30 *359:23 *449:9 0.0269623
31 *359:23 *450:9 0.0202052
32 *359:23 *451:9 0.0010161
33 *359:23 *536:245 0.00258211
34 *359:23 *537:250 0.00786913
35 gpio_analog_pol[33] *359:11 0.00203407
36 gpio_dm2[15] gpio_holdover[15] 0
37 *96:15 *359:23 0.049024
38 *354:11 *359:11 0
39 *355:11 *359:11 0.15047
40 *356:11 *359:11 0
41 *358:17 *359:9 0
*RES
1 *921:gpio_holdover[15] *359:9 7.92827 
2 *359:9 *359:11 2986.66 
3 *359:11 *359:13 3.41 
4 *359:13 *359:15 171.962 
5 *359:15 *359:21 8.13413 
6 *359:21 *359:23 266.405 
7 *359:23 gpio_holdover[15] 4.07964 
*END

*D_NET *360 0.980614
*CONN
*P gpio_holdover[16] O
*I *921:gpio_holdover[16] O *D CF_CARAVEL_SOC
*CAP
1 gpio_holdover[16] 0.00098511
2 *921:gpio_holdover[16] 0.00158801
3 *360:15 0.051535
4 *360:13 0.0505499
5 *360:11 0.0469094
6 *360:9 0.0484974
7 gpio_holdover[16] gpio_out[16] 0
8 *360:9 *361:9 0
9 *360:11 *448:13 0.0051639
10 *360:11 *797:19 0.19987
11 *360:11 *798:19 0.232676
12 *360:15 *362:15 0.0336262
13 *360:15 *404:23 0
14 *360:15 *447:13 0.220009
15 *360:15 *453:13 0.08447
16 gpio_dm2[16] gpio_holdover[16] 0
17 *161:19 *360:11 0.00473437
18 *359:9 *360:9 0
*RES
1 *921:gpio_holdover[16] *360:9 6.9914 
2 *360:9 *360:11 2961.01 
3 *360:11 *360:13 4.5 
4 *360:13 *360:15 2081.21 
5 *360:15 gpio_holdover[16] 24.75 
*END

*D_NET *361 0.888266
*CONN
*P gpio_holdover[17] O
*I *921:gpio_holdover[17] O *D CF_CARAVEL_SOC
*CAP
1 gpio_holdover[17] 0.000588655
2 *921:gpio_holdover[17] 0.00267829
3 *361:35 0.139444
4 *361:33 0.247836
5 *361:11 0.12104
6 *361:9 0.0147366
7 gpio_holdover[17] gpio_out[17] 0
8 *361:9 *362:9 0
9 *361:11 *389:11 0.00221253
10 *361:11 *413:19 0.00187356
11 *361:11 *416:11 0.0115063
12 *361:11 *423:11 0.0100041
13 *361:11 *438:19 0.00255947
14 *361:11 *555:17 0.00108772
15 *361:11 *755:11 0.00224338
16 *361:11 *766:11 0
17 *361:33 *394:15 0.0417472
18 *361:33 *395:23 0.0419344
19 *361:33 *438:23 0.0374271
20 *361:33 *440:23 0.00546276
21 *361:33 *725:13 0.000412871
22 *361:33 *730:19 0.0154479
23 *361:33 *759:15 0.0165421
24 *361:33 *761:15 0.0108871
25 *361:33 *873:61 0.0108072
26 gpio_dm2[17] gpio_holdover[17] 0
27 gpio_dm2[17] *361:35 0.0556559
28 *148:13 *361:33 0.0155427
29 *202:27 *361:33 0.00864253
30 *230:25 *361:33 0.00409714
31 *286:35 *361:33 0
32 *290:15 *361:33 0.0155427
33 *322:309 *361:11 0.00220048
34 *334:36 *361:33 0.0356217
35 *334:44 *361:33 0.00374179
36 *357:17 *361:11 0.00628172
37 *357:19 *361:11 0.00246136
38 *360:9 *361:9 0
*RES
1 *921:gpio_holdover[17] *361:9 9.2615 
2 *361:9 *361:11 56.8293 
3 *361:11 *361:33 38.4584 
4 *361:33 *361:35 463.36 
5 *361:35 gpio_holdover[17] 17.8941 
*END

*D_NET *362 0.82992
*CONN
*P gpio_holdover[18] O
*I *921:gpio_holdover[18] O *D CF_CARAVEL_SOC
*CAP
1 gpio_holdover[18] 0.00103877
2 *921:gpio_holdover[18] 0.00349554
3 *362:15 0.0672868
4 *362:13 0.066248
5 *362:11 0.0909187
6 *362:9 0.0944143
7 gpio_holdover[18] gpio_out[18] 0
8 *362:9 *363:9 0
9 *362:11 *368:11 0.238504
10 *362:11 *373:11 0.00274573
11 *362:11 *384:11 0.00139276
12 *362:11 *415:11 0
13 *362:11 *420:11 0.000364488
14 *362:11 *737:39 0.000397304
15 *362:11 *754:21 0.000469582
16 *362:11 *757:11 0
17 *362:11 *765:11 0
18 *362:11 *765:19 0.0425472
19 *362:15 *365:15 0.000799225
20 *362:15 *409:15 0.0864836
21 *362:15 *411:15 0.0356079
22 *362:15 *447:13 0.0628861
23 *362:15 *453:13 0.000694318
24 *362:15 *539:435 0
25 gpio_dm2[18] gpio_holdover[18] 0
26 *360:15 *362:15 0.0336262
27 *361:9 *362:9 0
*RES
1 *921:gpio_holdover[18] *362:9 11.0647 
2 *362:9 *362:11 2949.02 
3 *362:11 *362:13 3.41 
4 *362:13 *362:15 259.415 
5 *362:15 gpio_holdover[18] 24.1154 
*END

*D_NET *363 0.596866
*CONN
*P gpio_holdover[19] O
*I *921:gpio_holdover[19] O *D CF_CARAVEL_SOC
*CAP
1 gpio_holdover[19] 0.000125037
2 *921:gpio_holdover[19] 0.00300904
3 *363:19 0.0341063
4 *363:17 0.0340435
5 *363:11 0.102915
6 *363:9 0.105861
7 gpio_holdover[19] gpio_out[19] 0
8 *363:9 *365:9 0
9 *363:11 *374:11 0.0112617
10 *363:11 *380:13 0.00137113
11 *363:11 *385:11 0.00987847
12 *363:11 *415:11 0
13 *363:11 *436:19 0.000197955
14 *363:11 *453:25 0.000826475
15 *363:11 *458:11 0.170232
16 *363:11 *552:25 0
17 *363:17 *763:15 5.11642e-05
18 *363:19 *448:9 0.000373854
19 *363:19 *449:9 0.00039982
20 *363:19 *451:9 0.000169001
21 *363:19 *763:15 0.000784494
22 gpio_analog_sel[33] *363:11 0.00215656
23 *247:19 *363:11 0.00638365
24 *358:19 *363:11 0
25 *359:15 *363:19 0.111603
26 *359:21 gpio_holdover[19] 3.13654e-05
27 *359:21 *363:19 0.00108571
28 *362:9 *363:9 0
*RES
1 *921:gpio_holdover[19] *363:9 9.98373 
2 *363:9 *363:11 2962.98 
3 *363:11 *363:17 3.64657 
4 *363:17 *363:19 178.556 
5 *363:19 gpio_holdover[19] 4.31621 
*END

*D_NET *364 0.855182
*CONN
*P gpio_holdover[1] O
*I *921:gpio_holdover[1] O *D CF_CARAVEL_SOC
*CAP
1 gpio_holdover[1] 0.00137647
2 *921:gpio_holdover[1] 0.00337451
3 *364:43 0.0108978
4 *364:41 0.00952135
5 *364:39 0.0459241
6 *364:37 0.0463064
7 *364:27 0.0274881
8 *364:25 0.0272265
9 *364:19 0.00365748
10 *364:17 0.00691129
11 gpio_holdover[1] gpio_out[1] 0
12 *364:17 *382:11 0.00422538
13 *364:17 *756:6 0.000360771
14 *364:17 *778:9 3.39126e-05
15 *364:17 *779:9 0
16 *364:17 *831:11 0.0015923
17 *364:19 *413:11 0.00293274
18 *364:19 *418:11 0.00276707
19 *364:19 *468:11 0.0211408
20 *364:19 *787:11 0.0158962
21 *364:25 gpio_slow_sel[36] 1.4209e-05
22 *364:27 *408:11 0.00358653
23 *364:27 *418:11 0.0271816
24 *364:27 *423:11 0.00314245
25 *364:27 *468:11 0.0147228
26 *364:27 *543:23 0.024242
27 *364:27 *543:31 0.000198909
28 *364:27 *793:11 0
29 *364:27 *859:23 0.00234286
30 *364:27 *862:23 0.00244669
31 *364:37 *469:15 9.20139e-05
32 *364:37 *558:25 0.000935542
33 *364:37 *824:19 1.66763e-05
34 *364:37 *859:23 0.000973748
35 *364:39 *390:23 0.0187679
36 *364:39 *472:11 0.000690815
37 *364:39 *482:15 0.261339
38 *364:39 *555:13 0.000240703
39 *364:39 *558:13 0.0139178
40 *364:39 *693:163 0.000289405
41 *364:39 *827:19 0.0273885
42 *364:39 *852:11 0.121822
43 *364:43 *815:53 0.0385562
44 gpio_analog_sel[1] gpio_holdover[1] 0.000408365
45 gpio_dm2[1] gpio_holdover[1] 0.00110734
46 *238:15 *364:39 0
47 *249:15 *364:39 0
48 *255:15 *364:39 0.0287774
49 *264:11 *364:43 0.0246369
50 *293:25 *364:37 8.89112e-05
51 *322:153 *364:39 0.00178502
52 *322:259 *364:39 0.00322725
53 *353:9 *364:17 0
54 *353:35 *364:43 0.000609044
*RES
1 *921:gpio_holdover[1] *364:17 24.33 
2 *364:17 *364:19 259.375 
3 *364:19 *364:25 7.04717 
4 *364:25 *364:27 146.424 
5 *364:27 *364:37 24.1983 
6 *364:37 *364:39 2723.57 
7 *364:39 *364:41 4.5 
8 *364:41 *364:43 485.688 
9 *364:43 gpio_holdover[1] 16.1527 
*END

*D_NET *365 0.508177
*CONN
*P gpio_holdover[20] O
*I *921:gpio_holdover[20] O *D CF_CARAVEL_SOC
*CAP
1 gpio_holdover[20] 0.00100935
2 *921:gpio_holdover[20] 0.00407025
3 *365:15 0.0189223
4 *365:13 0.017913
5 *365:11 0.135537
6 *365:9 0.139607
7 gpio_holdover[20] gpio_out[20] 0
8 gpio_holdover[20] *717:15 0
9 *365:9 *366:9 0
10 *365:11 *387:11 0.00971699
11 *365:11 *395:19 0.00781089
12 *365:11 *404:21 0.000146991
13 *365:11 *688:15 0
14 *365:11 *733:10 0
15 *365:11 *736:37 0
16 *365:11 *753:11 0
17 *365:11 *762:11 0
18 *365:11 *770:11 0.0158498
19 *365:11 *832:19 0
20 *365:15 *404:23 0.00188309
21 *365:15 *409:15 0.08719
22 *365:15 *453:13 0.000203224
23 *365:15 *539:435 0
24 *365:15 *762:15 0.0675171
25 gpio_dm2[20] gpio_holdover[20] 0
26 *321:71 gpio_holdover[20] 0
27 *362:15 *365:15 0.000799225
28 *363:9 *365:9 0
*RES
1 *921:gpio_holdover[20] *365:9 12.2178 
2 *365:9 *365:11 2938.09 
3 *365:11 *365:13 3.41 
4 *365:13 *365:15 140.361 
5 *365:15 gpio_holdover[20] 23.3564 
*END

*D_NET *366 0.564552
*CONN
*P gpio_holdover[21] O
*I *921:gpio_holdover[21] O *D CF_CARAVEL_SOC
*CAP
1 gpio_holdover[21] 0.000931265
2 *921:gpio_holdover[21] 0.00506368
3 *366:15 0.0221441
4 *366:13 0.0212128
5 *366:11 0.0861633
6 *366:9 0.091227
7 gpio_holdover[21] gpio_out[21] 0
8 *366:9 *367:9 0
9 *366:9 *737:55 1.46617e-05
10 *366:9 *832:25 0.000400385
11 *366:11 *369:11 0
12 *366:11 *383:11 0.00178007
13 *366:11 *455:21 0.011416
14 *366:11 *457:11 0
15 *366:11 *539:183 0.00511783
16 *366:11 *545:15 0
17 *366:11 *724:17 0
18 *366:11 *763:11 0.239761
19 *366:15 *404:23 0.0118269
20 *366:15 *410:15 0.0630357
21 *366:15 *539:435 0.0036586
22 *366:15 *762:15 0.000799225
23 gpio_dm2[21] gpio_holdover[21] 0
24 *365:9 *366:9 0
*RES
1 *921:gpio_holdover[21] *366:9 14.3798 
2 *366:9 *366:11 2933.84 
3 *366:11 *366:13 3.41 
4 *366:13 *366:15 102.238 
5 *366:15 gpio_holdover[21] 21.535 
*END

*D_NET *367 0.516997
*CONN
*P gpio_holdover[22] O
*I *921:gpio_holdover[22] O *D CF_CARAVEL_SOC
*CAP
1 gpio_holdover[22] 0.000141575
2 *921:gpio_holdover[22] 0.00465717
3 *367:15 0.00913413
4 *367:13 0.00899256
5 *367:11 0.0932415
6 *367:9 0.0978987
7 *367:9 *368:9 0
8 *367:9 *832:25 0
9 *367:11 *372:11 0
10 *367:11 *411:11 0.234378
11 *367:11 *544:17 0.00924925
12 *367:11 *759:11 0.000771504
13 *367:11 *762:11 0
14 *367:11 *774:11 0
15 *367:11 *788:11 0.00645202
16 *367:15 gpio_holdover[23] 0.000823698
17 *367:15 gpio_ib_mode_sel[23] 0.0116816
18 *367:15 *763:15 0.0395752
19 *366:9 *367:9 0
*RES
1 *921:gpio_holdover[22] *367:9 13.2988 
2 *367:9 *367:11 2943.55 
3 *367:11 *367:13 3.41 
4 *367:13 *367:15 60.9433 
5 *367:15 gpio_holdover[22] 5.29393 
*END

*D_NET *368 0.547591
*CONN
*P gpio_holdover[23] O
*I *921:gpio_holdover[23] O *D CF_CARAVEL_SOC
*CAP
1 gpio_holdover[23] 0.00428081
2 *921:gpio_holdover[23] 0.00359951
3 *368:11 0.0794563
4 *368:9 0.078775
5 gpio_holdover[23] gpio_ib_mode_sel[23] 0.0100248
6 gpio_holdover[23] gpio_out[23] 0
7 *368:9 *369:9 0
8 *368:11 *373:11 0.00327952
9 *368:11 *384:11 0.00741687
10 *368:11 *420:11 0.000220214
11 *368:11 *456:27 4.25921e-05
12 *368:11 *736:23 0.0126203
13 *368:11 *765:19 0.0829002
14 *368:11 *768:11 0.0256477
15 gpio_dm2[23] gpio_holdover[23] 0
16 *362:11 *368:11 0.238504
17 *367:9 *368:9 0
18 *367:15 gpio_holdover[23] 0.000823698
*RES
1 *921:gpio_holdover[23] *368:9 11.1368 
2 *368:9 *368:11 2936.27 
3 *368:11 gpio_holdover[23] 29.5552 
*END

*D_NET *369 0.497477
*CONN
*P gpio_holdover[24] O
*I *921:gpio_holdover[24] O *D CF_CARAVEL_SOC
*CAP
1 gpio_holdover[24] 0.00353295
2 *921:gpio_holdover[24] 0.00541881
3 *369:23 0.0713216
4 *369:21 0.0678688
5 *369:19 0.0189798
6 *369:17 0.0191061
7 *369:11 0.00485933
8 *369:9 0.0100717
9 *369:11 *390:11 0.00174218
10 *369:11 *417:11 0.00628175
11 *369:11 *455:21 1.39269e-05
12 *369:11 *539:183 1.18548e-05
13 *369:11 *545:15 0.0226747
14 *369:11 *693:31 0.00953994
15 *369:11 *817:11 0.0042401
16 *369:17 *754:21 0.000439783
17 *369:19 gpio_vtrip_sel[30] 0.00728382
18 *369:19 *398:19 0.0198737
19 *369:19 *412:11 0.0173636
20 *369:19 *417:19 0.0979262
21 *369:19 *769:11 0.000202543
22 *369:19 *813:19 0.0182494
23 *369:19 *816:25 0.00216394
24 *369:19 *816:27 0.0308226
25 *369:23 *398:19 0.00274579
26 *369:23 *412:11 0.0368759
27 *369:23 *457:11 0.0128793
28 *369:23 *769:11 0.00212124
29 gpio_dm2[24] gpio_holdover[24] 0.000178386
30 *284:67 *369:19 0.000169534
31 *284:67 *369:23 0.00245014
32 *290:15 *369:17 6.73724e-05
33 *366:11 *369:11 0
34 *368:9 *369:9 0
*RES
1 *921:gpio_holdover[24] *369:9 14.6681 
2 *369:9 *369:11 278.804 
3 *369:11 *369:17 7.55163 
4 *369:17 *369:19 201.191 
5 *369:19 *369:21 0.191133 
6 *369:21 *369:23 235.796 
7 *369:23 gpio_holdover[24] 11.3115 
*END

*D_NET *370 0.346344
*CONN
*P gpio_holdover[25] O
*I *921:gpio_holdover[25] O *D CF_CARAVEL_SOC
*CAP
1 gpio_holdover[25] 0.00545878
2 *921:gpio_holdover[25] 0.00285725
3 *370:11 0.0625449
4 *370:9 0.0599434
5 gpio_holdover[25] gpio_out[25] 0.00120627
6 *370:9 *371:9 0
7 *370:9 *375:17 0
8 *370:9 *756:6 0.000284346
9 *370:11 *416:11 0.0299497
10 *370:11 *438:19 1.96685e-05
11 *370:11 *555:17 0.00802704
12 *370:11 *755:11 0.00245812
13 *370:11 *809:11 0.163312
14 gpio_dm2[25] gpio_holdover[25] 0.000655681
15 *322:309 *370:11 0.0096145
16 *326:35 gpio_holdover[25] 1.27219e-05
17 *357:19 *370:11 0
*RES
1 *921:gpio_holdover[25] *370:9 9.65473 
2 *370:9 *370:11 1999.45 
3 *370:11 gpio_holdover[25] 17.8617 
*END

*D_NET *371 0.378013
*CONN
*P gpio_holdover[26] O
*I *921:gpio_holdover[26] O *D CF_CARAVEL_SOC
*CAP
1 gpio_holdover[26] 0.00536517
2 *921:gpio_holdover[26] 0.00222016
3 *371:11 0.066663
4 *371:9 0.063518
5 gpio_holdover[26] *723:21 0.00582762
6 *371:9 *372:9 0
7 *371:9 *375:17 0.000187964
8 *371:9 *756:6 0.000207921
9 *371:11 *382:11 0.00469366
10 *371:11 *388:11 0.000308491
11 *371:11 *391:11 0
12 *371:11 *393:11 0
13 *371:11 *413:11 0.00237598
14 *371:11 *418:11 0.103442
15 *371:11 *766:11 0.0280551
16 *371:11 *790:11 0.0299213
17 gpio_analog_pol[33] *371:11 0.0103256
18 *327:67 gpio_holdover[26] 0.000642483
19 *355:11 *371:11 0.0364662
20 *359:11 *371:11 0.0177924
21 *370:9 *371:9 0
*RES
1 *921:gpio_holdover[26] *371:9 8.3591 
2 *371:9 *371:11 316.025 
3 *371:11 gpio_holdover[26] 19.0884 
*END

*D_NET *372 0.200988
*CONN
*P gpio_holdover[27] O
*I *921:gpio_holdover[27] O *D CF_CARAVEL_SOC
*CAP
1 gpio_holdover[27] 0.00309629
2 *921:gpio_holdover[27] 0.00502891
3 *372:11 0.076133
4 *372:9 0.0780656
5 gpio_holdover[27] gpio_out[27] 0.00415272
6 gpio_holdover[27] *548:23 0.000152462
7 gpio_holdover[27] *811:11 0.000151039
8 *372:9 *373:9 0
9 *372:11 *763:11 0
10 *372:11 *774:11 0.0243048
11 *372:11 *775:11 0.00834597
12 *240:15 gpio_holdover[27] 0.00155719
13 *328:65 gpio_holdover[27] 0
14 *367:11 *372:11 0
15 *371:9 *372:9 0
*RES
1 *921:gpio_holdover[27] *372:9 13.7312 
2 *372:9 *372:11 1604.2 
3 *372:11 gpio_holdover[27] 21.7276 
*END

*D_NET *373 0.265886
*CONN
*P gpio_holdover[28] O
*I *921:gpio_holdover[28] O *D CF_CARAVEL_SOC
*CAP
1 gpio_holdover[28] 0.00409294
2 *921:gpio_holdover[28] 0.0041248
3 *373:11 0.0322321
4 *373:9 0.032264
5 *373:9 *374:9 0
6 *373:11 gpio_ib_mode_sel[30] 0.00179097
7 *373:11 *384:11 0.00107541
8 *373:11 *414:11 0
9 *373:11 *420:11 0.0829837
10 *373:11 *456:27 0.000900135
11 *373:11 *736:23 0.00245821
12 *373:11 *765:19 0.0562641
13 *373:11 *768:11 0.00111583
14 *373:11 *768:19 0.0343997
15 gpio_dm2[28] gpio_holdover[28] 0.000805434
16 *329:70 gpio_holdover[28] 0.00535305
17 *362:11 *373:11 0.00274573
18 *368:11 *373:11 0.00327952
19 *372:9 *373:9 0
*RES
1 *921:gpio_holdover[28] *373:9 11.317 
2 *373:9 *373:11 247.098 
3 *373:11 gpio_holdover[28] 15.153 
*END

*D_NET *374 0.234508
*CONN
*P gpio_holdover[29] O
*I *921:gpio_holdover[29] O *D CF_CARAVEL_SOC
*CAP
1 gpio_holdover[29] 0.00521942
2 *921:gpio_holdover[29] 0.00324044
3 *374:11 0.0442828
4 *374:9 0.0423039
5 gpio_holdover[29] *726:21 0
6 *374:9 *542:45 5.71562e-05
7 *374:11 *376:11 0
8 *374:11 *380:13 0.00259867
9 *374:11 *385:11 0.000126716
10 *374:11 *414:11 0.0188962
11 *374:11 *416:11 0
12 *374:11 *421:11 0.0693773
13 *374:11 *436:19 0.00349836
14 *374:11 *453:25 0.000559879
15 *374:11 *458:11 0.0112617
16 *374:11 *552:25 0.00416598
17 *374:11 *735:23 0.00282904
18 gpio_analog_sel[33] *374:11 0.0126644
19 *198:31 gpio_holdover[29] 0.00183185
20 *330:33 gpio_holdover[29] 0.000299019
21 *357:17 *374:9 3.30626e-05
22 *363:11 *374:11 0.0112617
23 *373:9 *374:9 0
*RES
1 *921:gpio_holdover[29] *374:9 10.308 
2 *374:9 *374:11 212.048 
3 *374:11 gpio_holdover[29] 16.306 
*END

*D_NET *375 0.985893
*CONN
*P gpio_holdover[2] O
*I *921:gpio_holdover[2] O *D CF_CARAVEL_SOC
*CAP
1 gpio_holdover[2] 0.00129771
2 *921:gpio_holdover[2] 0.00643743
3 *375:59 0.0171022
4 *375:57 0.0181641
5 *375:53 0.00344575
6 *375:49 0.00136829
7 *375:43 0.00274921
8 *375:41 0.00585296
9 *375:35 0.00616046
10 *375:33 0.00277451
11 *375:31 0.0383116
12 *375:29 0.0383116
13 *375:27 0.00250107
14 *375:25 0.00384057
15 *375:19 0.00414186
16 *375:17 0.00923979
17 gpio_holdover[2] gpio_out[2] 0.00205751
18 *375:17 *382:11 0.0127641
19 *375:17 *386:9 0
20 *375:17 *393:11 0.00133679
21 *375:17 *831:11 0.000866792
22 *375:19 *389:11 0
23 *375:19 *449:21 0
24 *375:19 *543:31 0.00698737
25 *375:19 *766:11 0.000276252
26 *375:25 *388:9 0.00260176
27 *375:25 *737:31 0.00089764
28 *375:27 *456:19 0.0110295
29 *375:27 *472:27 0.000137749
30 *375:27 *544:25 0.0110769
31 *375:27 *831:27 0.000842961
32 *375:27 *836:11 0.00211078
33 *375:31 *782:15 0.000583779
34 *375:31 *787:15 0.303793
35 *375:35 *782:19 0
36 *375:43 *568:15 0.00153505
37 *375:53 *391:43 0.000663958
38 *375:53 *481:11 0.00357587
39 gpio_analog_en[4] *375:59 9.99706e-05
40 gpio_analog_pol[3] *375:59 0.000116905
41 gpio_analog_pol[5] *375:49 8.74451e-05
42 gpio_dm0[3] *375:59 6.61202e-05
43 gpio_dm2[2] gpio_holdover[2] 0
44 *129:11 *375:43 0.000116031
45 *132:11 *375:43 0.00194925
46 *173:9 *375:49 0.000182055
47 *176:11 *375:43 0.00237342
48 *181:11 *375:53 0.000447736
49 *184:11 *375:35 0.000649877
50 *198:11 *375:35 0.0117795
51 *206:47 *375:31 0.304969
52 *206:51 *375:27 0.000432524
53 *219:11 *375:35 0
54 *224:19 *375:53 0
55 *228:25 *375:31 0.0128509
56 *229:11 *375:35 0.013327
57 *247:15 *375:31 6.06448e-05
58 *281:11 *375:35 1.42165e-05
59 *281:11 *375:59 0
60 *286:35 *375:31 0.0547209
61 *305:11 *375:59 0.0410724
62 *312:19 *375:43 0.0124933
63 *327:31 *375:43 0.00271652
64 *337:17 *375:57 0
65 *357:19 *375:19 0
66 *359:11 *375:17 0.00034256
67 *370:9 *375:17 0
68 *371:9 *375:17 0.000187964
*RES
1 *921:gpio_holdover[2] *375:17 41.3785 
2 *375:17 *375:19 86.3393 
3 *375:19 *375:25 11.6234 
4 *375:25 *375:27 156.768 
5 *375:27 *375:29 3.41 
6 *375:29 *375:31 474.102 
7 *375:31 *375:33 3.41 
8 *375:33 *375:35 166.482 
9 *375:35 *375:41 12.7765 
10 *375:41 *375:43 153.125 
11 *375:43 *375:49 7.7318 
12 *375:49 *375:53 47.2493 
13 *375:53 *375:57 7.92513 
14 *375:57 *375:59 502.839 
15 *375:59 gpio_holdover[2] 7.16138 
*END

*D_NET *376 0.193967
*CONN
*P gpio_holdover[30] O
*I *921:gpio_holdover[30] O *D CF_CARAVEL_SOC
*CAP
1 gpio_holdover[30] 0.00533383
2 *921:gpio_holdover[30] 0.00302261
3 *376:11 0.0379338
4 *376:9 0.0356226
5 gpio_holdover[30] *728:21 0.0054415
6 *376:9 *377:9 0
7 *376:9 *542:45 0
8 *376:9 *756:6 0.000360771
9 *376:11 *380:13 0.000239244
10 *376:11 *416:11 0.086098
11 gpio_analog_sel[33] *376:11 0.00154479
12 *332:25 gpio_holdover[30] 0
13 *358:19 *376:11 0.0183701
14 *374:11 *376:11 0
*RES
1 *921:gpio_holdover[30] *376:9 10.0135 
2 *376:9 *376:11 176.36 
3 *376:11 gpio_holdover[30] 17.4779 
*END

*D_NET *377 0.132923
*CONN
*P gpio_holdover[31] O
*I *921:gpio_holdover[31] O *D CF_CARAVEL_SOC
*CAP
1 gpio_holdover[31] 0.00468583
2 *921:gpio_holdover[31] 0.00460793
3 *377:11 0.0613435
4 *377:9 0.0612656
5 gpio_holdover[31] *729:21 0
6 gpio_holdover[31] *770:17 2.82126e-05
7 *377:9 *378:9 0
8 *377:9 *395:17 0
9 gpio_dm2[31] gpio_holdover[31] 0.000977742
10 *201:15 gpio_holdover[31] 0
11 *245:15 gpio_holdover[31] 1.46191e-05
12 *376:9 *377:9 0
*RES
1 *921:gpio_holdover[31] *377:9 13.0466 
2 *377:9 *377:11 142.056 
3 *377:11 gpio_holdover[31] 13.8432 
*END

*D_NET *378 0.0545621
*CONN
*P gpio_holdover[32] O
*I *921:gpio_holdover[32] O *D CF_CARAVEL_SOC
*CAP
1 gpio_holdover[32] 0.00082754
2 *921:gpio_holdover[32] 0.0089641
3 *378:11 0.00870833
4 *378:9 0.0168449
5 gpio_holdover[32] *730:19 0.000261062
6 *378:9 gpio_holdover[33] 0
7 *378:11 *466:11 0
8 *378:11 *547:25 0.0187499
9 *378:11 *731:18 0
10 *205:63 *378:9 0.000206312
11 *325:167 *378:11 0
12 *334:44 gpio_holdover[32] 0
13 *377:9 *378:9 0
*RES
1 *921:gpio_holdover[32] *378:9 21.3703 
2 *378:9 *378:11 234.482 
3 *378:11 gpio_holdover[32] 5.29392 
*END

*D_NET *379 0.0274421
*CONN
*P gpio_holdover[33] O
*I *921:gpio_holdover[33] O *D CF_CARAVEL_SOC
*CAP
1 gpio_holdover[33] 0.010532
2 *921:gpio_holdover[33] 0.0105304
3 *379:18 1.52569e-06
4 gpio_holdover[33] gpio_out[33] 0.000551774
5 gpio_holdover[33] *380:13 0
6 gpio_holdover[33] *398:19 0.000607777
7 gpio_holdover[33] *412:11 0.0006888
8 gpio_holdover[33] *417:19 0.000718378
9 gpio_holdover[33] *422:11 0.00178143
10 gpio_holdover[33] *737:39 0.00024842
11 gpio_holdover[33] *769:11 0.00024078
12 gpio_holdover[33] *813:11 0.00061574
13 gpio_holdover[33] *814:11 0.000688782
14 *379:18 gpio_out[33] 3.05874e-05
15 gpio_dm2[33] gpio_holdover[33] 0.00020574
16 *378:9 gpio_holdover[33] 0
*RES
1 *921:gpio_holdover[33] gpio_holdover[33] 32.8987 
2 gpio_holdover[33] *379:18 0.0762162 
*END

*D_NET *380 0.0543668
*CONN
*P gpio_holdover[34] O
*I *921:gpio_holdover[34] O *D CF_CARAVEL_SOC
*CAP
1 gpio_holdover[34] 0.0058121
2 *921:gpio_holdover[34] 0.0102297
3 *380:13 0.0160418
4 gpio_holdover[34] gpio_out[34] 0
5 gpio_holdover[34] *394:9 0
6 gpio_holdover[34] *737:63 0.00252663
7 *380:13 *381:9 0
8 *380:13 *385:11 0.00171324
9 *380:13 *416:11 0
10 *380:13 *421:11 0.00602869
11 *380:13 *436:19 0.00125978
12 *380:13 *451:21 0.00125978
13 *380:13 *453:25 0.00020996
14 *380:13 *458:11 0.000506893
15 *380:13 *735:23 0.00229916
16 gpio_dm2[34] gpio_holdover[34] 0.00152107
17 gpio_holdover[33] *380:13 0
18 *248:49 *380:13 0.000718411
19 *336:82 gpio_holdover[34] 3.05874e-05
20 *363:11 *380:13 0.00137113
21 *374:11 *380:13 0.00259867
22 *376:11 *380:13 0.000239244
*RES
1 *921:gpio_holdover[34] *380:13 41.6392 
2 *380:13 gpio_holdover[34] 13.1859 
*END

*D_NET *381 0.063895
*CONN
*P gpio_holdover[35] O
*I *921:gpio_holdover[35] O *D CF_CARAVEL_SOC
*CAP
1 gpio_holdover[35] 0.00108817
2 *921:gpio_holdover[35] 0.00815698
3 *381:15 0.0118637
4 *381:13 0.0108024
5 *381:11 0.00213491
6 *381:9 0.010265
7 gpio_holdover[35] gpio_out[35] 0.000735654
8 *381:9 *382:9 0.000410476
9 *381:9 *873:55 0
10 *381:11 *447:17 0
11 *381:11 *548:23 0.00521492
12 *381:11 *693:39 0.000142401
13 *381:15 *447:17 0
14 *381:15 *548:23 0.0124582
15 gpio_dm2[34] *381:15 0.000347386
16 gpio_dm2[35] gpio_holdover[35] 0
17 *284:57 *381:9 0.000274867
18 *380:13 *381:9 0
*RES
1 *921:gpio_holdover[35] *381:9 20.2893 
2 *381:9 *381:11 65.0179 
3 *381:11 *381:13 0.535714 
4 *381:13 *381:15 295.875 
5 *381:15 gpio_holdover[35] 5.99187 
*END

*D_NET *382 0.139169
*CONN
*P gpio_holdover[36] O
*I *921:gpio_holdover[36] O *D CF_CARAVEL_SOC
*CAP
1 gpio_holdover[36] 0.0047615
2 *921:gpio_holdover[36] 0.00203199
3 *382:11 0.0190198
4 *382:9 0.0162903
5 gpio_holdover[36] gpio_out[36] 0.000946608
6 gpio_holdover[36] *818:9 0.00399048
7 *382:9 gpio_vtrip_sel[33] 0
8 *382:9 *756:6 0.000360771
9 *382:11 *388:11 0.00171285
10 *382:11 *393:11 0
11 *382:11 *413:11 0.00570347
12 *382:11 *418:11 0.0115758
13 *382:11 *425:11 0.0148497
14 *382:11 *771:11 0.00146755
15 *382:11 *778:13 0.0216839
16 *382:11 *790:11 0.00228752
17 *382:11 *824:11 0.000198909
18 *382:11 *831:11 0.00134856
19 gpio_dm2[36] gpio_holdover[36] 0.00619441
20 *355:11 *382:11 0.00188626
21 *359:11 *382:11 0.000765523
22 *364:17 *382:11 0.00422538
23 *371:11 *382:11 0.00469366
24 *375:17 *382:11 0.0127641
25 *381:9 *382:9 0.000410476
*RES
1 *921:gpio_holdover[36] *382:9 8.42803 
2 *382:9 *382:11 97.4185 
3 *382:11 gpio_holdover[36] 18.6826 
*END

*D_NET *383 0.173051
*CONN
*P gpio_holdover[37] O
*I *921:gpio_holdover[37] O *D CF_CARAVEL_SOC
*CAP
1 gpio_holdover[37] 0.00356562
2 *921:gpio_holdover[37] 0.00495547
3 *383:11 0.0394962
4 *383:9 0.0408861
5 gpio_holdover[37] gpio_out[37] 0
6 *383:9 gpio_ib_mode_sel[33] 0.000632578
7 *383:9 gpio_vtrip_sel[33] 0.000180952
8 *383:9 *384:9 0
9 *383:11 *390:11 0.00247544
10 *383:11 *417:11 0.00354779
11 *383:11 *426:13 0.00823814
12 *383:11 *437:11 0.000116442
13 *383:11 *455:21 0.00732901
14 *383:11 *470:11 0.00390626
15 *383:11 *545:15 0.00139817
16 *383:11 *693:79 0.00192772
17 *383:11 *737:57 0.00140922
18 *383:11 *817:11 0.000285008
19 *383:11 *818:11 0.0482409
20 gpio_analog_sel[37] gpio_holdover[37] 0.00100638
21 gpio_dm2[37] gpio_holdover[37] 0.00154034
22 *336:67 *383:11 0.00010283
23 *339:42 gpio_holdover[37] 3.05874e-05
24 *366:11 *383:11 0.00178007
*RES
1 *921:gpio_holdover[37] *383:9 14.4879 
2 *383:9 *383:11 132.788 
3 *383:11 gpio_holdover[37] 12.2656 
*END

*D_NET *384 0.423755
*CONN
*P gpio_holdover[38] O
*I *921:gpio_holdover[38] O *D CF_CARAVEL_SOC
*CAP
1 gpio_holdover[38] 4.42335e-05
2 *921:gpio_holdover[38] 0.00354114
3 *384:15 0.0227709
4 *384:13 0.0227267
5 *384:11 0.0242078
6 *384:9 0.0277489
7 gpio_holdover[38] gpio_out[38] 1.89437e-05
8 *384:9 *385:9 0
9 *384:11 *420:11 0.00480623
10 *384:11 *456:27 0.112158
11 *384:11 *757:11 0
12 *384:11 *760:11 0.0723916
13 *384:11 *765:11 0
14 *384:11 *821:21 0.00108294
15 *384:11 *832:15 0.00219607
16 *384:15 *736:43 0.0699961
17 *384:15 *855:11 0.029694
18 gpio_analog_en[38] *384:15 0.00279966
19 *251:27 *384:11 0.000720295
20 *284:49 *384:11 2.35153e-05
21 *293:27 *384:11 0.00462112
22 *295:27 *384:11 0.0123214
23 *362:11 *384:11 0.00139276
24 *368:11 *384:11 0.00741687
25 *373:11 *384:11 0.00107541
26 *383:9 *384:9 0
*RES
1 *921:gpio_holdover[38] *384:9 11.2089 
2 *384:9 *384:11 1406.88 
3 *384:11 *384:13 3.41 
4 *384:13 *384:15 110.306 
5 *384:15 gpio_holdover[38] 4.25821 
*END

*D_NET *385 0.567062
*CONN
*P gpio_holdover[39] O
*I *921:gpio_holdover[39] O *D CF_CARAVEL_SOC
*CAP
1 gpio_holdover[39] 0.000342721
2 *921:gpio_holdover[39] 0.00300662
3 *385:15 0.0245465
4 *385:13 0.0242037
5 *385:11 0.0212863
6 *385:9 0.0242929
7 *385:9 *387:9 0
8 *385:11 *921:porb_l 0.000218103
9 *385:11 *414:11 0.000288548
10 *385:11 *421:11 0.00499118
11 *385:11 *436:19 2.14001e-05
12 *385:11 *451:21 0.106623
13 *385:11 *453:25 0.0054697
14 *385:11 *458:11 0.0490892
15 *385:11 *815:11 0.0032265
16 *385:11 *848:23 1.78393e-05
17 *385:11 *857:21 0
18 *385:11 *863:23 0.00136755
19 *385:15 *387:21 0.000391365
20 *385:15 *428:23 0.00024442
21 *385:15 *549:13 0.00137189
22 *385:15 *692:35 0.00176061
23 *385:15 *693:193 0.0465396
24 *385:15 *824:23 0.0689253
25 *385:15 *829:35 0.0105656
26 *385:15 *848:11 0.00397874
27 *385:15 *853:11 0.0128307
28 *385:15 *857:11 0.000126072
29 *385:15 *860:11 0.0259237
30 *385:15 *863:11 0.00148441
31 *385:15 *863:21 0.00220807
32 *385:15 *865:11 0.024047
33 *385:15 *867:11 0.00127389
34 *385:15 *873:13 0.00365533
35 *385:15 *873:29 0.00624811
36 gpio_dm2[39] gpio_holdover[39] 0.000329981
37 *248:49 *385:11 0.00190509
38 *252:15 *385:15 0.0560038
39 *353:19 *385:11 0.0165384
40 *363:11 *385:11 0.00987847
41 *374:11 *385:11 0.000126716
42 *380:13 *385:11 0.00171324
43 *384:9 *385:9 0
*RES
1 *921:gpio_holdover[39] *385:9 10.0558 
2 *385:9 *385:11 1409.3 
3 *385:11 *385:13 3.41 
4 *385:13 *385:15 193.978 
5 *385:15 gpio_holdover[39] 9.41893 
*END

*D_NET *386 0.951726
*CONN
*P gpio_holdover[3] O
*I *921:gpio_holdover[3] O *D CF_CARAVEL_SOC
*CAP
1 gpio_holdover[3] 0.00229497
2 *921:gpio_holdover[3] 0.00183014
3 *386:211 0.0242273
4 *386:209 0.0219323
5 *386:207 0.0119704
6 *386:205 0.0136062
7 *386:201 0.00517292
8 *386:191 0.0061216
9 *386:189 0.00487213
10 *386:175 0.00510055
11 *386:173 0.00614329
12 *386:159 0.00566397
13 *386:157 0.0024079
14 *386:155 0.00206137
15 *386:153 0.00519083
16 *386:139 0.00771408
17 *386:137 0.00590541
18 *386:129 0.0023618
19 *386:121 0.00518527
20 *386:107 0.00637888
21 *386:105 0.00221963
22 *386:99 0.00591978
23 *386:97 0.00592064
24 *386:91 0.0071856
25 *386:89 0.0107614
26 *386:77 0.00794913
27 *386:55 0.00973979
28 *386:35 0.0136713
29 *386:21 0.0153666
30 *386:11 0.031543
31 *386:9 0.0262513
32 gpio_holdover[3] gpio_out[3] 0
33 *386:9 *756:6 0.000360771
34 *386:11 *425:11 0.000105741
35 *386:11 *429:11 0.000964378
36 *386:11 *435:11 0.00845836
37 *386:11 *449:29 0.00525119
38 *386:11 *471:11 0.00635423
39 *386:11 *797:11 0.000548911
40 *386:11 *798:17 0.00932895
41 *386:11 *819:11 0.0297199
42 *386:11 *825:11 0.00217938
43 *386:11 *826:11 0.0377838
44 *386:11 *829:11 0.00217938
45 *386:11 *831:11 0.0445919
46 *386:11 *834:11 0
47 *386:11 *852:27 0.00207338
48 *386:21 *419:11 0.000181816
49 *386:21 *815:11 0.0142091
50 *386:35 *397:25 0.000176522
51 *386:35 *454:51 0
52 *386:35 *471:25 0
53 *386:35 *472:11 0.00202648
54 *386:35 *539:141 2.91521e-05
55 *386:35 *550:21 0
56 *386:35 *556:41 0.02214
57 *386:35 *760:23 0.000108251
58 *386:35 *815:21 0.000172172
59 *386:35 *826:27 0.00470887
60 *386:35 *867:21 0.0101592
61 *386:55 *397:39 7.1655e-05
62 *386:55 *469:15 0.00195146
63 *386:55 *472:11 0.000394785
64 *386:55 *539:141 0.0158346
65 *386:55 *737:143 0.000601282
66 *386:55 *739:76 4.56257e-05
67 *386:55 *815:39 0.000991068
68 *386:55 *826:27 0.00222373
69 *386:55 *839:209 2.73438e-05
70 *386:55 *846:13 0.000394902
71 *386:55 *858:11 0.000433444
72 *386:77 *921:gpio_in[12] 0
73 *386:77 *921:gpio_in[16] 0
74 *386:77 *397:55 0.0128295
75 *386:77 *397:71 0.0015528
76 *386:77 *693:163 0.000553835
77 *386:77 *739:108 0.000117506
78 *386:77 *815:39 0.000969963
79 *386:77 *815:47 0.0162661
80 *386:77 *826:27 0.00293093
81 *386:77 *840:19 0.00213488
82 *386:89 *921:gpio_in[18] 0.000341586
83 *386:89 *539:93 0.00115045
84 *386:89 *539:97 0.00040239
85 *386:89 *693:187 0
86 *386:89 *737:181 0.00656527
87 *386:89 *739:116 0.000230474
88 *386:97 *419:37 0.000100208
89 *386:97 *541:41 6.6289e-05
90 *386:99 gpio_out[39] 0.00267465
91 *386:99 *419:39 4.57975e-05
92 *386:99 *541:35 0.00528958
93 *386:107 *419:47 0.0177391
94 *386:121 *419:61 0.0147516
95 *386:121 *540:18 0.00115929
96 *386:129 *419:69 0.00310896
97 *386:129 *562:33 4.75152e-06
98 *386:137 *419:77 0.000103856
99 *386:137 *540:18 0.00137407
100 *386:137 *562:33 0.0129246
101 *386:139 *419:79 2.61099e-05
102 *386:139 *419:93 0.00213404
103 *386:139 *539:35 1.32552e-05
104 *386:139 *551:35 0.00173012
105 *386:139 *696:147 0.0111603
106 *386:153 *533:30 0
107 *386:153 *539:33 0.000213889
108 *386:153 *696:145 0.000165451
109 *386:155 *419:117 0.000309253
110 *386:155 *530:41 0.000516731
111 *386:155 *535:27 0.0010231
112 *386:155 *539:11 0
113 *386:155 *551:73 0.000877974
114 *386:155 *562:51 0.00054388
115 *386:155 *569:18 0
116 *386:155 *696:119 0
117 *386:155 *696:133 0
118 *386:159 *535:35 0.00126161
119 *386:159 *539:11 0
120 *386:159 *696:119 0.00148556
121 *386:173 *408:45 4.32637e-05
122 *386:175 *419:133 0.00149381
123 *386:175 *530:43 7.48301e-06
124 *386:175 *740:133 0.00266401
125 *386:175 *740:141 0.00154639
126 *386:175 *826:79 0.00202091
127 *386:189 *533:68 4.49626e-05
128 *386:189 *535:59 0.000167316
129 *386:189 *741:148 0.002785
130 *386:189 *826:93 0.000188774
131 *386:189 *826:109 9.25014e-06
132 *386:191 *408:63 0.00198299
133 *386:191 *419:157 0.0011788
134 *386:191 *740:115 0.0019319
135 *386:191 *740:121 6.89975e-05
136 *386:191 *740:123 0
137 *386:201 *535:91 0.000147376
138 *386:201 *536:49 0
139 *386:201 *537:40 0
140 *386:205 *408:95 0
141 *386:205 *536:49 0
142 *386:205 *740:93 0
143 *386:207 *474:15 1.17361e-05
144 *386:207 *480:15 0.000560159
145 *386:207 *554:13 0.00122604
146 *386:207 *559:19 0.00396912
147 *386:211 *826:131 0.00625459
148 gpio_dm2[3] gpio_holdover[3] 0.000362006
149 *118:49 *386:201 0.00851385
150 *118:53 *386:201 0
151 *118:65 *386:189 0.000115395
152 *118:73 *386:189 0.00891854
153 *118:129 *386:137 0.0130128
154 *118:145 *386:121 8.22435e-05
155 *118:147 *386:107 0.0176525
156 *118:155 *386:99 0.0354584
157 *118:161 *386:97 9.15621e-06
158 *118:163 *386:91 0.0236149
159 *118:177 *386:89 4.15161e-05
160 *118:179 *386:77 0.000320532
161 *164:35 *386:207 0.0138692
162 *168:11 *386:211 0
163 *168:15 *386:207 0.000636153
164 *238:15 *386:207 0.00036425
165 *253:15 *386:207 0.00775587
166 *261:11 *386:211 0.0575797
167 *269:11 *386:211 0.0377382
168 *292:15 *386:55 0.000401963
169 *292:27 *386:21 0
170 *294:15 *386:207 0.0109741
171 *295:27 *386:21 0
172 *322:81 *386:205 0.00203898
173 *322:89 *386:201 0
174 *322:131 *386:155 0.000315646
175 *322:131 *386:159 0
176 *322:255 *386:35 0.000275605
177 *322:255 *386:55 2.99833e-06
178 *325:51 *386:173 0.000764048
179 *325:61 *386:173 0.00720084
180 *325:79 *386:99 0.00610681
181 *325:87 *386:99 0.00763538
182 *325:97 *386:89 0.00275931
183 *325:115 *386:77 0.000362251
184 *325:129 *386:77 0.000443445
185 *325:137 *386:55 0.0157342
186 *325:157 *386:35 0.000240077
187 *336:29 *386:189 0.000215238
188 *338:33 *386:173 0
189 *338:63 *386:99 0.0010247
190 *339:23 *386:35 0.00150226
191 *339:23 *386:55 0.000190603
192 *353:17 *386:21 4.37712e-06
193 *353:19 *386:21 0.00288434
194 *375:17 *386:9 0
*RES
1 *921:gpio_holdover[3] *386:9 7.70737 
2 *386:9 *386:11 170.926 
3 *386:11 *386:21 43.2115 
4 *386:21 *386:35 49.9127 
5 *386:35 *386:55 48.9527 
6 *386:55 *386:77 49.5286 
7 *386:77 *386:89 39.9627 
8 *386:89 *386:91 221.5 
9 *386:91 *386:97 9.40107 
10 *386:97 *386:99 54.8177 
11 *386:99 *386:105 8.79393 
12 *386:105 *386:107 168.929 
13 *386:107 *386:121 39.4972 
14 *386:121 *386:129 37.3654 
15 *386:129 *386:137 29.107 
16 *386:137 *386:139 135.661 
17 *386:139 *386:153 42.1298 
18 *386:153 *386:155 55.3661 
19 *386:155 *386:157 1.33929 
20 *386:157 *386:159 52.4911 
21 *386:159 *386:173 48.3058 
22 *386:173 *386:175 81.0357 
23 *386:175 *386:189 35.2586 
24 *386:189 *386:191 70.3571 
25 *386:191 *386:201 34.8868 
26 *386:201 *386:205 37.8661 
27 *386:205 *386:207 437.536 
28 *386:207 *386:209 4.5 
29 *386:209 *386:211 883.973 
30 *386:211 gpio_holdover[3] 8.46328 
*END

*D_NET *387 0.50016
*CONN
*P gpio_holdover[40] O
*I *921:gpio_holdover[40] O *D CF_CARAVEL_SOC
*CAP
1 gpio_holdover[40] 0.000185762
2 *921:gpio_holdover[40] 0.00334772
3 *387:23 0.0178455
4 *387:21 0.0219929
5 *387:11 0.0403319
6 *387:9 0.0393464
7 gpio_holdover[40] gpio_out[40] 0
8 *387:9 *472:25 0.00527825
9 *387:9 *737:31 1.07995e-05
10 *387:9 *737:39 0
11 *387:11 *395:19 0.0046629
12 *387:11 *440:19 0.00682824
13 *387:11 *469:11 0
14 *387:11 *539:159 0.0364034
15 *387:11 *539:165 0.000500457
16 *387:11 *539:167 0
17 *387:11 *554:23 3.96622e-05
18 *387:11 *736:39 0
19 *387:11 *737:89 0.0115544
20 *387:11 *770:11 0.0117573
21 *387:21 *428:23 0.0193318
22 *387:21 *549:13 0.00172982
23 *387:21 *549:23 1.05319e-05
24 *387:21 *736:43 0.00525743
25 *387:21 *824:23 0.000636289
26 *387:21 *848:21 0.0132918
27 *387:21 *857:11 0.00400197
28 *387:21 *863:11 0.00189858
29 *387:21 *863:21 2.10638e-05
30 *387:23 *428:23 0.000146255
31 *387:23 *692:35 0.0167676
32 *387:23 *736:43 0.00155696
33 *387:23 *857:11 0.0200179
34 gpio_dm2[40] gpio_holdover[40] 8.80589e-05
35 *118:211 *387:11 0
36 *251:15 *387:23 0.0444026
37 *251:25 *387:21 6.21664e-05
38 *284:23 *387:23 0.0856777
39 *284:49 *387:21 0.000260185
40 *335:33 *387:23 0.0411199
41 *338:83 *387:11 0.033688
42 *365:11 *387:11 0.00971699
43 *385:9 *387:9 0
44 *385:15 *387:21 0.000391365
*RES
1 *921:gpio_holdover[40] *387:9 12.2899 
2 *387:9 *387:11 1417.2 
3 *387:11 *387:21 48.341 
4 *387:21 *387:23 1155.46 
5 *387:23 gpio_holdover[40] 8.08929 
*END

*D_NET *388 0.571702
*CONN
*P gpio_holdover[41] O
*I *921:gpio_holdover[41] O *D CF_CARAVEL_SOC
*CAP
1 gpio_holdover[41] 0.000792266
2 *921:gpio_holdover[41] 0.00163828
3 *388:23 0.04313
4 *388:21 0.0428117
5 *388:11 0.0241145
6 *388:9 0.0252789
7 *388:9 *389:9 0
8 *388:9 *737:31 1.8093e-05
9 *388:9 *756:6 0.000284346
10 *388:11 *413:11 0.00384372
11 *388:11 *418:11 0.00196976
12 *388:11 *425:11 0.00454907
13 *388:11 *460:21 4.21517e-05
14 *388:11 *543:21 6.58704e-05
15 *388:11 *543:23 0.00907615
16 *388:11 *737:73 0.0029516
17 *388:11 *749:25 0.00246427
18 *388:11 *771:11 0.0707278
19 *388:11 *771:25 1.21637e-05
20 *388:11 *790:11 0.0381695
21 *388:11 *808:11 0
22 *388:11 *824:11 0.0667729
23 *388:11 *861:25 0.00112786
24 *388:11 *861:27 0.000796371
25 *388:11 *864:15 0
26 *388:21 *435:21 0.00094394
27 *388:21 *465:21 7.95854e-06
28 *388:21 *851:15 0.00018398
29 *388:21 *861:25 0.000182353
30 *388:21 *864:11 0.00118981
31 *388:23 *843:11 0.0343317
32 *388:23 *850:11 0.147016
33 *388:23 *851:11 0.0102641
34 *388:23 *856:11 0.0164171
35 *388:23 *861:11 1.16543e-05
36 gpio_dm2[41] gpio_holdover[41] 0.00101815
37 *353:29 *388:21 0.000322009
38 *353:31 *388:23 0
39 *355:11 *388:11 0.0145529
40 *371:11 *388:11 0.000308491
41 *375:25 *388:9 0.00260176
42 *382:11 *388:11 0.00171285
*RES
1 *921:gpio_holdover[41] *388:9 8.28547 
2 *388:9 *388:11 1407.48 
3 *388:11 *388:21 16.2911 
4 *388:21 *388:23 1568.23 
5 *388:23 gpio_holdover[41] 19.8929 
*END

*D_NET *389 0.660309
*CONN
*P gpio_holdover[42] O
*I *921:gpio_holdover[42] O *D CF_CARAVEL_SOC
*CAP
1 gpio_holdover[42] 0.00176681
2 *921:gpio_holdover[42] 0.00277776
3 *389:23 0.0341891
4 *389:21 0.0330319
5 *389:11 0.019542
6 *389:9 0.0217101
7 gpio_holdover[42] *560:25 0
8 *389:9 *756:6 0.000284346
9 *389:11 gpio_slow_sel[35] 0.0007787
10 *389:11 *423:11 0.00738196
11 *389:11 *438:19 0.0697849
12 *389:11 *449:21 0.00137545
13 *389:11 *453:41 0.105093
14 *389:11 *793:11 0.0111874
15 *389:11 *827:11 0.010297
16 *389:11 *857:23 0.025933
17 *389:21 *390:21 0.00174602
18 *389:21 *760:21 0.00147768
19 *389:21 *865:15 0
20 *389:23 *390:23 0.000175876
21 *389:23 *760:23 0.191131
22 *389:23 *845:19 0.000111763
23 *389:23 *847:8 0.000395672
24 gpio_analog_pol[33] *389:9 0
25 gpio_analog_sel[42] gpio_holdover[42] 0
26 *249:15 *389:23 0.0713817
27 *295:25 *389:21 1.17103e-05
28 *339:23 *389:23 0.0397975
29 *345:27 gpio_holdover[42] 0.0004699
30 *357:19 *389:11 0.00602032
31 *358:17 *389:11 0.000243793
32 *361:11 *389:11 0.00221253
33 *375:19 *389:11 0
34 *388:9 *389:9 0
*RES
1 *921:gpio_holdover[42] *389:9 9.36647 
2 *389:9 *389:11 1399.59 
3 *389:11 *389:21 17.9684 
4 *389:21 *389:23 1820 
5 *389:23 gpio_holdover[42] 31.8929 
*END

*D_NET *390 0.720658
*CONN
*P gpio_holdover[43] O
*I *921:gpio_holdover[43] O *D CF_CARAVEL_SOC
*CAP
1 gpio_holdover[43] 0.00172863
2 *921:gpio_holdover[43] 0.00394206
3 *390:23 0.0357419
4 *390:21 0.0361133
5 *390:11 0.0212958
6 *390:9 0.0231378
7 gpio_holdover[43] gpio_out[43] 0
8 *390:11 gpio_ib_mode_sel[37] 0.000519398
9 *390:11 *417:11 0.0697097
10 *390:11 *426:13 0.00017952
11 *390:11 *455:21 0.114892
12 *390:11 *818:11 0.010458
13 *390:21 *429:17 1.60861e-05
14 *390:21 *470:15 0.000537414
15 *390:21 *554:23 0.00148943
16 *390:21 *760:21 0.000672521
17 *390:21 *825:21 0.000326415
18 *390:21 *829:29 6.58704e-05
19 *390:23 *472:11 0.00702962
20 *390:23 *760:23 0.104642
21 *390:23 *847:8 0.0267513
22 *390:23 *852:11 0.164538
23 gpio_analog_pol[33] *390:9 0.000538933
24 gpio_dm2[43] gpio_holdover[43] 0
25 *164:43 *390:23 0.010913
26 *206:57 *390:9 0.00659814
27 *249:15 *390:23 0
28 *249:25 *390:21 0.000111031
29 *255:15 *390:23 0.000312475
30 *294:25 *390:23 0.00365489
31 *295:25 *390:21 0.00144556
32 *322:259 *390:23 0.00176134
33 *336:67 *390:11 0.0236746
34 *339:23 *390:23 0.00562908
35 *343:15 *390:23 0.0173246
36 *364:39 *390:23 0.0187679
37 *369:11 *390:11 0.00174218
38 *383:11 *390:11 0.00247544
39 *389:21 *390:21 0.00174602
40 *389:23 *390:23 0.000175876
*RES
1 *921:gpio_holdover[43] *390:9 14.5239 
2 *390:9 *390:11 1407.48 
3 *390:11 *390:21 24.8913 
4 *390:21 *390:23 2066.43 
5 *390:23 gpio_holdover[43] 29.4821 
*END

*D_NET *391 0.500285
*CONN
*P gpio_holdover[4] O
*I *921:gpio_holdover[4] O *D CF_CARAVEL_SOC
*CAP
1 gpio_holdover[4] 0.00219854
2 *921:gpio_holdover[4] 0.00147945
3 *391:51 0.00554004
4 *391:49 0.005115
5 *391:43 0.00669823
6 *391:41 0.00620413
7 *391:33 0.00753653
8 *391:15 0.0788559
9 *391:13 0.0725988
10 *391:11 0.0167744
11 *391:9 0.0182539
12 gpio_holdover[4] gpio_out[4] 0
13 *391:9 *392:9 0
14 *391:11 *393:11 0.000220697
15 *391:11 *448:13 0.00563488
16 *391:11 *453:37 0.00023828
17 *391:11 *798:19 0.00265223
18 *391:11 *834:11 0
19 *391:15 *536:151 0.00069885
20 *391:15 *831:31 0.0836652
21 *391:33 *694:10 0.00205206
22 *391:33 *738:15 0.00183445
23 *391:33 *832:57 3.60528e-05
24 *391:43 *481:11 0
25 *391:51 *571:39 0.00345233
26 gpio_analog_pol[5] *391:43 0.000320474
27 gpio_dm2[4] gpio_holdover[4] 0
28 *90:11 *391:33 0.0119494
29 *104:25 *391:43 0.00200259
30 *104:25 *391:49 0
31 *141:29 *391:15 0.0076774
32 *159:13 *391:33 0.00538787
33 *161:19 *391:11 0.0303609
34 *169:9 *391:33 0
35 *170:9 *391:33 0.000111541
36 *222:19 *391:41 0.00296338
37 *224:19 *391:43 0.0135354
38 *228:25 *391:15 0.000528508
39 *230:21 *391:15 0.00939053
40 *230:21 *391:33 0.00050493
41 *241:11 *391:41 0.00296338
42 *242:25 *391:15 0.00014707
43 *244:15 *391:15 0.0828701
44 *247:15 *391:15 0.00100013
45 *247:15 *391:33 0.000119691
46 *277:15 *391:15 0.00152049
47 *283:11 *391:51 0.00345043
48 *286:29 *391:15 7.61206e-05
49 *288:67 *391:33 0.000998472
50 *327:39 *391:43 2.83284e-06
51 *371:11 *391:11 0
52 *375:53 *391:43 0.000663958
*RES
1 *921:gpio_holdover[4] *391:9 6.84883 
2 *391:9 *391:11 67.163 
3 *391:11 *391:13 3.41 
4 *391:13 *391:15 467.039 
5 *391:15 *391:33 42.2135 
6 *391:33 *391:41 45.3249 
7 *391:41 *391:43 165.875 
8 *391:43 *391:49 10.1821 
9 *391:49 *391:51 124.589 
10 *391:51 gpio_holdover[4] 7.86012 
*END

*D_NET *392 0.848616
*CONN
*P gpio_holdover[5] O
*I *921:gpio_holdover[5] O *D CF_CARAVEL_SOC
*CAP
1 gpio_holdover[5] 0.000838405
2 *921:gpio_holdover[5] 0.00440315
3 *392:59 0.00436222
4 *392:57 0.00470723
5 *392:47 0.00728755
6 *392:45 0.00661837
7 *392:35 0.00478893
8 *392:33 0.00427469
9 *392:31 0.015395
10 *392:29 0.015581
11 *392:23 0.0209392
12 *392:21 0.0207531
13 *392:19 0.00432797
14 *392:17 0.00631316
15 *392:11 0.00616588
16 *392:9 0.00858385
17 gpio_holdover[5] gpio_out[5] 0.0014263
18 *392:9 gpio_ib_mode_sel[34] 0.000502893
19 *392:9 gpio_oeb[34] 0.00137281
20 *392:9 *393:9 0
21 *392:9 *831:17 0
22 *392:11 *763:11 0
23 *392:11 *775:11 0.0101059
24 *392:19 *402:11 0.00640272
25 *392:19 *541:111 0.00691729
26 *392:19 *690:23 0.0183243
27 *392:19 *772:11 0.000328289
28 *392:23 *705:21 0.0357209
29 *392:31 *683:11 0.0275654
30 *392:35 *831:41 0.00026784
31 *392:57 *436:27 0.000541966
32 gpio_dm2[5] gpio_holdover[5] 0
33 *116:39 *392:45 5.17244e-05
34 *116:53 *392:35 0
35 *116:55 *392:31 0.129118
36 *117:33 *392:45 0
37 *117:35 *392:35 0.00546879
38 *117:39 *392:23 0.164715
39 *140:41 *392:47 9.28668e-05
40 *157:29 *392:45 0.000224515
41 *160:15 *392:31 0.129335
42 *193:61 *392:23 0.000170155
43 *196:25 *392:35 0.000134703
44 *198:25 *392:35 0
45 *205:31 *392:35 0.000269139
46 *205:53 *392:23 0.164715
47 *206:43 *392:57 0.000238444
48 *217:11 *392:59 0.00853938
49 *283:11 *392:57 0.000428118
50 *328:51 *392:45 1.9922e-05
51 *328:53 *392:45 0.000139789
52 *329:58 *392:45 0.000139238
53 *330:13 *392:45 0
54 *391:9 *392:9 0
*RES
1 *921:gpio_holdover[5] *392:9 13.8753 
2 *392:9 *392:11 126.411 
3 *392:11 *392:17 10.6865 
4 *392:17 *392:19 236.911 
5 *392:19 *392:21 3.41 
6 *392:21 *392:23 255.379 
7 *392:23 *392:29 10.9189 
8 *392:29 *392:31 1222.82 
9 *392:31 *392:33 4.5 
10 *392:33 *392:35 121.705 
11 *392:35 *392:45 19.7222 
12 *392:45 *392:47 90.4821 
13 *392:47 *392:57 40.7321 
14 *392:57 *392:59 106.527 
15 *392:59 gpio_holdover[5] 5.96132 
*END

*D_NET *393 0.769921
*CONN
*P gpio_holdover[6] O
*I *921:gpio_holdover[6] O *D CF_CARAVEL_SOC
*CAP
1 gpio_holdover[6] 0.00161775
2 *921:gpio_holdover[6] 0.00165769
3 *393:27 0.0026913
4 *393:25 0.00107355
5 *393:23 0.0356213
6 *393:21 0.0394926
7 *393:11 0.0192724
8 *393:9 0.0170587
9 gpio_holdover[6] gpio_out[6] 0.000409289
10 *393:9 *831:17 0.000253515
11 *393:11 *791:23 0.0028136
12 *393:11 *808:11 0.00291745
13 *393:11 *819:11 0.01579
14 *393:11 *831:11 7.15791e-05
15 *393:21 *687:17 0.000367715
16 *393:23 *437:31 0.000260964
17 *393:23 *688:11 0.053116
18 *393:23 *693:19 0.233985
19 *393:23 *716:11 0.262864
20 *393:23 *744:11 0.0044668
21 *393:27 gpio_vtrip_sel[6] 0.00190312
22 *393:27 *782:19 0
23 gpio_analog_pol[33] *393:11 0
24 gpio_dm2[6] gpio_holdover[6] 0
25 *115:15 *393:23 0.000228903
26 *116:63 *393:21 0.0188027
27 *117:39 *393:21 0.020097
28 *160:15 *393:23 0.0148497
29 *161:19 *393:11 0.00753832
30 *219:11 *393:27 0.00389443
31 *354:11 *393:11 0.00524861
32 *371:11 *393:11 0
33 *375:17 *393:11 0.00133679
34 *382:11 *393:11 0
35 *391:11 *393:11 0.000220697
36 *392:9 *393:9 0
*RES
1 *921:gpio_holdover[6] *393:9 7.28123 
2 *393:9 *393:11 62.5821 
3 *393:11 *393:21 46.0339 
4 *393:21 *393:23 2536.29 
5 *393:23 *393:25 4.5 
6 *393:25 *393:27 47.9375 
7 *393:27 gpio_holdover[6] 7.18332 
*END

*D_NET *394 0.900695
*CONN
*P gpio_holdover[7] O
*I *921:gpio_holdover[7] O *D CF_CARAVEL_SOC
*CAP
1 gpio_holdover[7] 0.00804057
2 *921:gpio_holdover[7] 0.00396666
3 *394:19 0.0313338
4 *394:17 0.0232932
5 *394:15 0.0725292
6 *394:13 0.0725292
7 *394:11 0.00625911
8 *394:9 0.0102258
9 gpio_holdover[7] *571:39 7.77093e-05
10 gpio_holdover[7] *746:13 0
11 *394:9 gpio_out[34] 0.00322694
12 *394:9 *395:17 0
13 *394:9 *737:63 0
14 *394:11 *759:11 0.0307697
15 *394:11 *774:11 0.0307726
16 *394:15 *395:23 0.299053
17 *394:15 *438:23 5.44456e-05
18 *394:15 *730:19 0.102465
19 *394:15 *755:15 0.124662
20 *394:15 *759:15 0.0001339
21 *394:15 *761:15 3.79901e-06
22 *394:19 *438:27 0.0321568
23 *394:19 *754:27 0
24 gpio_dm2[7] gpio_holdover[7] 0.00735778
25 gpio_holdover[34] *394:9 0
26 *148:13 *394:15 0
27 *264:11 gpio_holdover[7] 0
28 *334:36 *394:15 3.623e-05
29 *361:33 *394:15 0.0417472
*RES
1 *921:gpio_holdover[7] *394:9 13.5871 
2 *394:9 *394:11 385.054 
3 *394:11 *394:13 3.41 
4 *394:13 *394:15 464.012 
5 *394:15 *394:17 3.41 
6 *394:17 *394:19 700.161 
7 *394:19 gpio_holdover[7] 35.4782 
*END

*D_NET *395 0.951723
*CONN
*P gpio_holdover[8] O
*I *921:gpio_holdover[8] O *D CF_CARAVEL_SOC
*CAP
1 gpio_holdover[8] 0.00503352
2 *921:gpio_holdover[8] 0.0140826
3 *395:27 0.0215759
4 *395:25 0.0165424
5 *395:23 0.0356119
6 *395:21 0.0356119
7 *395:19 0.00468427
8 *395:17 0.0187669
9 gpio_holdover[8] gpio_out[8] 0.000259645
10 gpio_holdover[8] *747:11 0.0123213
11 *395:17 *396:9 0
12 *395:17 *737:63 0.00141263
13 *395:19 *770:11 0.0194282
14 *395:23 *438:23 0.297089
15 *395:23 *759:15 0.000621094
16 *395:27 *438:27 0.0327374
17 *395:27 *440:35 0.0736724
18 gpio_dm2[8] gpio_holdover[8] 0.00881042
19 *361:33 *395:23 0.0419344
20 *365:11 *395:19 0.00781089
21 *377:9 *395:17 0
22 *387:11 *395:19 0.0046629
23 *394:9 *395:17 0
24 *394:15 *395:23 0.299053
*RES
1 *921:gpio_holdover[8] *395:17 44.5087 
2 *395:17 *395:19 243.589 
3 *395:19 *395:21 3.41 
4 *395:21 *395:23 462.499 
5 *395:23 *395:25 3.41 
6 *395:25 *395:27 903.554 
7 *395:27 gpio_holdover[8] 26.8841 
*END

*D_NET *396 0.730928
*CONN
*P gpio_holdover[9] O
*I *921:gpio_holdover[9] O *D CF_CARAVEL_SOC
*CAP
1 gpio_holdover[9] 0.105019
2 *921:gpio_holdover[9] 0.00521933
3 *396:13 0.105019
4 *396:11 0.0432196
5 *396:9 0.048439
6 gpio_holdover[9] *748:11 0.277709
7 gpio_holdover[9] *836:15 0
8 *396:9 gpio_inp_dis[34] 0.00431061
9 *396:11 *409:11 0.118543
10 *396:11 *465:11 0
11 *396:11 *472:15 0.014825
12 *396:11 *472:25 0.000110051
13 *396:11 *754:11 0.000228745
14 *396:11 *773:11 0
15 *396:11 *802:11 0.00658549
16 gpio_dm2[9] gpio_holdover[9] 0
17 *322:303 *396:11 0.00169991
18 *322:371 gpio_holdover[9] 0
19 *354:9 *396:9 0
20 *395:17 *396:9 0
*RES
1 *921:gpio_holdover[9] *396:9 16.5418 
2 *396:9 *396:11 1479.73 
3 *396:11 *396:13 3.41 
4 *396:13 gpio_holdover[9] 489.751 
*END

*D_NET *397 0.728954
*CONN
*P gpio_ib_mode_sel[0] O
*I *921:gpio_ib_mode_sel[0] O *D CF_CARAVEL_SOC
*CAP
1 gpio_ib_mode_sel[0] 0.00177131
2 *921:gpio_ib_mode_sel[0] 0.00126323
3 *397:177 0.00610192
4 *397:175 0.00433061
5 *397:173 0.0105486
6 *397:171 0.0110459
7 *397:151 0.00306737
8 *397:149 0.00358495
9 *397:135 0.00349176
10 *397:133 0.00251892
11 *397:127 0.00133693
12 *397:111 0.00201779
13 *397:109 0.00342943
14 *397:95 0.00348864
15 *397:93 0.00162217
16 *397:79 0.0205795
17 *397:77 0.0199134
18 *397:71 0.00655737
19 *397:55 0.0101941
20 *397:39 0.00933089
21 *397:25 0.00919802
22 *397:11 0.00976953
23 *397:9 0.00735505
24 gpio_ib_mode_sel[0] gpio_oeb[0] 0
25 gpio_ib_mode_sel[0] gpio_vtrip_sel[0] 0
26 *397:9 *921:mask_rev[31] 0
27 *397:9 *408:9 0
28 *397:9 *433:6 0.000360771
29 *397:11 *430:11 0.0276504
30 *397:11 *542:23 0.00338706
31 *397:11 *785:11 0.00143541
32 *397:11 *804:11 0.0152155
33 *397:11 *853:21 0.000393959
34 *397:11 *853:23 0.00384058
35 *397:25 *419:19 0.0194516
36 *397:25 *419:23 0.000257711
37 *397:25 *539:141 0.00117788
38 *397:25 *556:37 0.000287858
39 *397:25 *556:41 6.31694e-05
40 *397:25 *693:113 0.000103851
41 *397:25 *737:117 0.000394696
42 *397:25 *739:60 0.000392644
43 *397:25 *826:27 0.00458113
44 *397:25 *840:19 0.000317325
45 *397:39 *539:141 0.0150306
46 *397:39 *556:29 0.00222164
47 *397:39 *693:113 0.000135623
48 *397:39 *693:121 0
49 *397:39 *739:76 0
50 *397:39 *826:27 0.00363714
51 *397:39 *840:19 0.000919805
52 *397:55 *921:gpio_in[11] 1.68854e-05
53 *397:55 *921:gpio_in[12] 0.00198283
54 *397:55 *921:gpio_in[15] 8.78568e-05
55 *397:55 *921:gpio_in[16] 0
56 *397:55 *539:119 0.000376948
57 *397:55 *737:143 0.00202981
58 *397:55 *737:151 1.33846e-05
59 *397:55 *739:84 0.00081492
60 *397:55 *826:27 0.00288363
61 *397:71 gpio_out[39] 0.000447764
62 *397:71 *921:gpio_in[16] 0.00343242
63 *397:71 *921:gpio_in[18] 0.00181654
64 *397:71 *419:23 0.000261235
65 *397:71 *444:71 0.000327381
66 *397:71 *472:55 0
67 *397:71 *539:75 0.00156137
68 *397:71 *541:53 0.00502338
69 *397:71 *693:187 0.00362922
70 *397:71 *826:27 0.000967977
71 *397:71 *840:19 0.00171501
72 *397:77 *739:118 0
73 *397:77 *826:27 0.000372369
74 *397:79 *921:gpio_in[41] 0.00191648
75 *397:79 *444:71 0.0196598
76 *397:79 *472:55 0.0109599
77 *397:79 *529:9 0.00917907
78 *397:79 *539:55 1.39841e-05
79 *397:79 *556:11 0.114231
80 *397:79 *570:14 0.00635363
81 *397:79 *826:45 0.00171525
82 *397:79 *840:19 0.000671183
83 *397:93 *532:14 0.000386075
84 *397:93 *540:18 0.000288264
85 *397:93 *551:49 9.30793e-05
86 *397:93 *826:61 0.00081588
87 *397:95 *419:95 0.00559988
88 *397:95 *530:27 0.00586173
89 *397:95 *533:30 0.000287084
90 *397:95 *826:63 0.000172725
91 *397:109 *533:48 0
92 *397:109 *535:35 2.86703e-05
93 *397:109 *540:18 0.00081251
94 *397:109 *562:65 2.59885e-05
95 *397:109 *696:117 4.37237e-05
96 *397:109 *696:133 0.000156518
97 *397:109 *740:165 0.00116361
98 *397:109 *740:167 0
99 *397:109 *826:77 0.0100742
100 *397:111 *419:119 0.00550635
101 *397:111 *530:43 0.00563649
102 *397:111 *535:35 0.000907287
103 *397:111 *826:79 4.27338e-05
104 *397:127 *408:45 9.25014e-06
105 *397:127 *535:35 4.50033e-05
106 *397:127 *535:59 0.00409438
107 *397:127 *551:79 0.00105208
108 *397:127 *551:93 0.00857629
109 *397:127 *562:89 0.00858554
110 *397:127 *740:141 7.69776e-06
111 *397:133 *562:89 9.2539e-06
112 *397:135 *535:91 0.0018408
113 *397:135 *536:35 0
114 *397:135 *537:24 1.74352e-05
115 *397:135 *569:18 0
116 *397:135 *740:121 8.25843e-06
117 *397:135 *740:123 0.00913651
118 *397:135 *826:109 0.000110117
119 *397:149 *419:149 8.23597e-06
120 *397:149 *419:157 0.00727259
121 *397:149 *535:91 0.00116084
122 *397:149 *551:109 0.00728371
123 *397:149 *562:107 2.21794e-05
124 *397:149 *740:115 0.00128923
125 *397:151 *408:79 0.00779935
126 *397:151 *530:77 9.95174e-05
127 *397:171 *408:95 0.000202635
128 *397:171 *419:175 3.16801e-05
129 *397:171 *530:77 0.0017182
130 *397:171 *535:95 0.000115141
131 *397:171 *537:52 0.0016763
132 *397:171 *562:117 6.91215e-06
133 *397:173 *408:97 0.0462543
134 *397:173 *419:175 0.00646625
135 *397:173 *419:191 0.00241692
136 *397:173 *530:107 3.623e-05
137 *397:173 *551:121 0.00504303
138 *397:177 *529:13 0.0193878
139 *397:177 *815:53 0.000580636
140 gpio_analog_sel[43] *397:173 0.00351911
141 *118:97 *397:109 0.000288599
142 *118:113 *397:93 0.000400224
143 *118:177 *397:71 0.00420933
144 *118:179 *397:71 0.000527714
145 *118:205 *397:25 0.0172532
146 *118:209 *397:25 0.000504357
147 *120:11 *397:177 0
148 *293:15 *397:79 0
149 *322:57 *397:173 0.0063319
150 *322:101 *397:135 0.00152253
151 *322:163 *397:79 0.00113592
152 *322:167 *397:79 0.0276012
153 *322:207 *397:71 0.000447202
154 *322:235 *397:39 0
155 *322:235 *397:55 0.00237749
156 *325:51 *397:127 1.5381e-05
157 *336:41 *397:109 0.000624203
158 *353:35 *397:177 0.0210634
159 *386:35 *397:25 0.000176522
160 *386:55 *397:39 7.1655e-05
161 *386:77 *397:55 0.0128295
162 *386:77 *397:71 0.0015528
*RES
1 *921:gpio_ib_mode_sel[0] *397:9 6.41017 
2 *397:9 *397:11 56.8293 
3 *397:11 *397:25 49.331 
4 *397:25 *397:39 47.6988 
5 *397:39 *397:55 47.9018 
6 *397:55 *397:71 48.5132 
7 *397:71 *397:77 12.7404 
8 *397:77 *397:79 1072.5 
9 *397:79 *397:93 27.4997 
10 *397:93 *397:95 55.9821 
11 *397:95 *397:109 34.0246 
12 *397:109 *397:111 53.1071 
13 *397:111 *397:127 49.547 
14 *397:127 *397:133 8.49036 
15 *397:133 *397:135 86.375 
16 *397:135 *397:149 30.0195 
17 *397:149 *397:151 76.9286 
18 *397:151 *397:171 39.8475 
19 *397:171 *397:173 74.3477 
20 *397:173 *397:175 3.41 
21 *397:175 *397:177 270.304 
22 *397:177 gpio_ib_mode_sel[0] 7.24442 
*END

*D_NET *398 0.960734
*CONN
*P gpio_ib_mode_sel[10] O
*I *921:gpio_ib_mode_sel[10] O *D CF_CARAVEL_SOC
*CAP
1 gpio_ib_mode_sel[10] 1.74968e-05
2 *921:gpio_ib_mode_sel[10] 0.0113683
3 *398:23 0.105806
4 *398:21 0.105789
5 *398:19 0.0396668
6 *398:17 0.039698
7 *398:11 0.0113995
8 *398:11 *422:11 0.00287749
9 *398:11 *437:11 0.0064674
10 *398:11 *440:17 0
11 *398:11 *546:25 0.00157192
12 *398:11 *873:49 0.00157192
13 *398:17 gpio_ib_mode_sel[37] 4.88232e-05
14 *398:19 gpio_vtrip_sel[30] 0.00145095
15 *398:19 *412:11 0.187667
16 *398:19 *422:11 0.00171618
17 *398:19 *546:25 0
18 *398:19 *693:91 0.0148113
19 *398:19 *813:11 0.125838
20 *398:19 *816:25 0.00252707
21 *398:19 *823:13 0.00356198
22 *398:19 *873:49 0
23 *398:23 gpio_oeb[27] 0.01139
24 *398:23 *662:11 0.256487
25 *398:23 *794:15 0
26 gpio_holdover[33] *398:19 0.000607777
27 *205:65 *398:19 0.00577566
28 *369:19 *398:19 0.0198737
29 *369:23 *398:19 0.00274579
*RES
1 *921:gpio_ib_mode_sel[10] *398:11 49.3149 
2 *398:11 *398:17 6.90303 
3 *398:17 *398:19 2298.16 
4 *398:19 *398:21 3.41 
5 *398:21 *398:23 488.67 
6 *398:23 gpio_ib_mode_sel[10] 0.05875 
*END

*D_NET *399 0.998451
*CONN
*P gpio_ib_mode_sel[11] O
*I *921:gpio_ib_mode_sel[11] O *D CF_CARAVEL_SOC
*CAP
1 gpio_ib_mode_sel[11] 0.00259155
2 *921:gpio_ib_mode_sel[11] 0.000858729
3 *399:23 0.092257
4 *399:21 0.0896655
5 *399:19 0.0485042
6 *399:17 0.0487831
7 *399:11 0.0124785
8 *399:9 0.0130583
9 gpio_ib_mode_sel[11] *663:11 0
10 gpio_ib_mode_sel[11] *795:23 0.00193599
11 *399:9 *400:9 0
12 *399:9 *433:6 0.000207921
13 *399:11 *434:11 0.00302592
14 *399:11 *454:41 0.0461354
15 *399:11 *542:31 0.000651966
16 *399:11 *794:11 0.00923877
17 *399:11 *804:11 0.00672797
18 *399:11 *834:11 0
19 *399:11 *835:11 8.92877e-05
20 *399:17 *753:9 3.1341e-05
21 *399:19 *400:19 0.174531
22 *399:19 *405:11 0.0809696
23 *399:19 *750:11 0.0406238
24 *399:19 *752:11 0.00877693
25 *399:23 gpio_oeb[26] 0.011721
26 *399:23 *663:11 0
27 *399:23 *795:23 0.304856
28 *274:239 *399:23 0.000731216
*RES
1 *921:gpio_ib_mode_sel[11] *399:9 5.47643 
2 *399:9 *399:11 95.1813 
3 *399:11 *399:17 7.33543 
4 *399:17 *399:19 2139.09 
5 *399:19 *399:21 3.41 
6 *399:21 *399:23 471.615 
7 *399:23 gpio_ib_mode_sel[11] 6.99125 
*END

*D_NET *400 1.04897
*CONN
*P gpio_ib_mode_sel[12] O
*I *921:gpio_ib_mode_sel[12] O *D CF_CARAVEL_SOC
*CAP
1 gpio_ib_mode_sel[12] 8.42179e-05
2 *921:gpio_ib_mode_sel[12] 0.000660408
3 *400:23 0.102672
4 *400:21 0.102588
5 *400:19 0.0340279
6 *400:17 0.0340742
7 *400:11 0.0214182
8 *400:9 0.0220323
9 *400:9 *401:9 0
10 *400:9 *433:6 0.000207921
11 *400:11 *401:11 0.00735823
12 *400:11 *784:9 0
13 *400:11 *786:11 0.0440316
14 *400:11 *828:11 0.00244208
15 *400:11 *830:11 0.00698863
16 *400:17 *750:9 0
17 *400:17 *792:9 9.50985e-05
18 *400:19 *401:11 0.192529
19 *400:19 *405:11 0.000838007
20 *400:19 *750:11 0.0341431
21 *400:19 *752:11 0.00830426
22 *400:23 gpio_oeb[12] 0.000794618
23 *400:23 gpio_out[25] 0.00889386
24 *400:23 *664:11 0.250258
25 *400:23 *796:15 0
26 *322:391 *400:23 0
27 *399:9 *400:9 0
28 *399:19 *400:19 0.174531
*RES
1 *921:gpio_ib_mode_sel[12] *400:9 5.04403 
2 *400:9 *400:11 90.9199 
3 *400:11 *400:17 6.9751 
4 *400:17 *400:19 2359.48 
5 *400:19 *400:21 3.41 
6 *400:21 *400:23 477.932 
7 *400:23 gpio_ib_mode_sel[12] 0.282783 
*END

*D_NET *401 1.13188
*CONN
*P gpio_ib_mode_sel[13] O
*I *921:gpio_ib_mode_sel[13] O *D CF_CARAVEL_SOC
*CAP
1 gpio_ib_mode_sel[13] 0.00279428
2 *921:gpio_ib_mode_sel[13] 0.000581481
3 *401:15 0.094139
4 *401:13 0.0913447
5 *401:11 0.0495299
6 *401:9 0.0501113
7 gpio_ib_mode_sel[13] *665:11 0.000537699
8 gpio_ib_mode_sel[13] *797:23 0.000533945
9 *401:9 *402:9 0
10 *401:9 *433:6 0.000207921
11 *401:11 *405:11 0.00208965
12 *401:11 *450:13 0.266518
13 *401:11 *750:11 0.000125685
14 *401:11 *752:11 0.0322912
15 *401:11 *830:11 0.0362402
16 *401:15 *665:11 0
17 *401:15 *797:23 0.304945
18 *400:9 *401:9 0
19 *400:11 *401:11 0.00735823
20 *400:19 *401:11 0.192529
*RES
1 *921:gpio_ib_mode_sel[13] *401:9 4.86387 
2 *401:9 *401:11 3266.55 
3 *401:11 *401:13 3.41 
4 *401:13 *401:15 471.471 
5 *401:15 gpio_ib_mode_sel[13] 7.28578 
*END

*D_NET *402 0.937853
*CONN
*P gpio_ib_mode_sel[14] O
*I *921:gpio_ib_mode_sel[14] O *D CF_CARAVEL_SOC
*CAP
1 gpio_ib_mode_sel[14] 0.00164338
2 *921:gpio_ib_mode_sel[14] 0.0061428
3 *402:15 0.0966528
4 *402:13 0.0950094
5 *402:11 0.165739
6 *402:9 0.171882
7 gpio_ib_mode_sel[14] gpio_oeb[14] 0.000402661
8 gpio_ib_mode_sel[14] *798:23 0.00299577
9 *402:11 gpio_oeb[30] 0.00014202
10 *402:11 gpio_vtrip_sel[36] 0.00286267
11 *402:11 *464:11 0
12 *402:11 *465:11 0
13 *402:11 *541:111 0.0768535
14 *402:11 *549:25 0
15 *402:11 *737:41 0
16 *402:11 *772:11 0
17 *402:15 *538:379 0
18 *402:15 *798:23 0.307302
19 *105:31 *402:15 0
20 *140:355 *402:15 0.000146889
21 *238:27 *402:11 0
22 *281:31 *402:15 0.00367484
23 *392:19 *402:11 0.00640272
24 *401:9 *402:9 0
*RES
1 *921:gpio_ib_mode_sel[14] *402:9 17.5507 
2 *402:9 *402:11 3661.2 
3 *402:11 *402:13 3.41 
4 *402:13 *402:15 485.848 
5 *402:15 gpio_ib_mode_sel[14] 13.482 
*END

*D_NET *403 0.964968
*CONN
*P gpio_ib_mode_sel[15] O
*I *921:gpio_ib_mode_sel[15] O *D CF_CARAVEL_SOC
*CAP
1 gpio_ib_mode_sel[15] 8.83825e-05
2 *921:gpio_ib_mode_sel[15] 0.000738706
3 *403:19 0.130564
4 *403:17 0.130475
5 *403:15 0.050171
6 *403:13 0.050171
7 *403:11 0.0156957
8 *403:9 0.0164344
9 gpio_ib_mode_sel[15] gpio_oeb[15] 0
10 gpio_ib_mode_sel[15] gpio_vtrip_sel[15] 0
11 *403:9 *404:9 0
12 *403:9 *433:6 0.000207921
13 *403:11 *405:11 0.0904091
14 *403:11 *406:11 0.0884197
15 *403:11 *406:17 0
16 *403:11 *434:11 0.000590539
17 *403:11 *454:41 0.00013024
18 *403:11 *750:11 0.00619291
19 *403:11 *786:11 0.00459253
20 *403:11 *828:11 0.000554254
21 *403:15 *686:11 0.0735212
22 *403:15 *802:15 0.00268757
23 *403:15 *803:15 0.111168
24 *403:19 *537:136 0.000611952
25 *403:19 *667:15 0
26 *403:19 *799:19 0
27 *140:129 *403:19 0
28 *230:25 *403:15 0.0158851
29 *274:159 *403:19 0.000558628
30 *275:15 *403:15 0.169544
31 *277:23 *403:15 0.00555539
*RES
1 *921:gpio_ib_mode_sel[15] *403:9 5.15213 
2 *403:9 *403:11 1124.55 
3 *403:11 *403:13 3.41 
4 *403:13 *403:15 440.663 
5 *403:15 *403:17 3.41 
6 *403:17 *403:19 2662.45 
7 *403:19 gpio_ib_mode_sel[15] 1.60714 
*END

*D_NET *404 0.642118
*CONN
*P gpio_ib_mode_sel[16] O
*I *921:gpio_ib_mode_sel[16] O *D CF_CARAVEL_SOC
*CAP
1 gpio_ib_mode_sel[16] 0.00085531
2 *921:gpio_ib_mode_sel[16] 0.00671477
3 *404:23 0.106443
4 *404:21 0.108589
5 *404:11 0.180066
6 *404:9 0.18378
7 gpio_ib_mode_sel[16] gpio_oeb[16] 0
8 gpio_ib_mode_sel[16] gpio_vtrip_sel[16] 0
9 *404:11 gpio_oeb[25] 0
10 *404:11 *460:11 0
11 *404:11 *539:175 0
12 *404:11 *691:15 0.0122789
13 *404:11 *693:63 0
14 *404:11 *789:19 0.0127074
15 *404:11 *812:11 0
16 *404:21 *409:15 0.000275604
17 *404:21 *411:15 0.000213822
18 *404:23 *447:13 0
19 *404:23 *453:13 0
20 *404:23 *762:15 0.000112254
21 *205:57 *404:11 0.0162251
22 *238:27 *404:11 0
23 *289:35 *404:11 0
24 *360:15 *404:23 0
25 *365:11 *404:21 0.000146991
26 *365:15 *404:23 0.00188309
27 *366:15 *404:23 0.0118269
28 *403:9 *404:9 0
*RES
1 *921:gpio_ib_mode_sel[16] *404:9 18.6317 
2 *404:9 *404:11 3760.16 
3 *404:11 *404:21 23.6661 
4 *404:21 *404:23 2097.23 
5 *404:23 gpio_ib_mode_sel[16] 22.0179 
*END

*D_NET *405 0.714075
*CONN
*P gpio_ib_mode_sel[17] O
*I *921:gpio_ib_mode_sel[17] O *D CF_CARAVEL_SOC
*CAP
1 gpio_ib_mode_sel[17] 0.111975
2 *921:gpio_ib_mode_sel[17] 0.000723955
3 *405:17 0.111975
4 *405:15 0.0994435
5 *405:13 0.0994435
6 *405:11 0.0274833
7 *405:9 0.0282072
8 gpio_ib_mode_sel[17] gpio_oeb[17] 0
9 gpio_ib_mode_sel[17] gpio_vtrip_sel[17] 0
10 *405:9 *433:6 0.000207921
11 *405:11 *406:17 0
12 *405:11 *454:41 0.000658893
13 *405:11 *750:11 0.0162784
14 *405:11 *786:11 0.00956223
15 *405:11 *828:11 0.0332514
16 *405:11 *830:11 0.000558272
17 *405:15 *806:15 0
18 *324:15 *405:15 0
19 *399:19 *405:11 0.0809696
20 *400:19 *405:11 0.000838007
21 *401:11 *405:11 0.00208965
22 *403:11 *405:11 0.0904091
*RES
1 *921:gpio_ib_mode_sel[17] *405:9 5.08007 
2 *405:9 *405:11 1500.38 
3 *405:11 *405:13 3.41 
4 *405:13 *405:15 320.527 
5 *405:15 *405:17 3.41 
6 *405:17 gpio_ib_mode_sel[17] 2275.63 
*END

*D_NET *406 0.801462
*CONN
*P gpio_ib_mode_sel[18] O
*I *921:gpio_ib_mode_sel[18] O *D CF_CARAVEL_SOC
*CAP
1 gpio_ib_mode_sel[18] 0.131058
2 *921:gpio_ib_mode_sel[18] 0.000881956
3 *406:21 0.131058
4 *406:19 0.0325536
5 *406:17 0.0336749
6 *406:11 0.0158411
7 *406:9 0.0156017
8 gpio_ib_mode_sel[18] gpio_oeb[18] 0
9 gpio_ib_mode_sel[18] gpio_vtrip_sel[18] 0
10 *406:9 *407:9 0
11 *406:9 *433:6 0.000284346
12 *406:11 *407:11 0.0878809
13 *406:11 *434:11 0.000269483
14 *406:11 *454:41 0.00907272
15 *406:11 *750:11 0.000936918
16 *406:11 *786:11 0.000847819
17 *406:17 *764:17 0.000103884
18 *406:17 *796:11 0
19 *406:19 *802:15 0.162704
20 *406:19 *805:15 0.0852064
21 *116:67 *406:11 0.0050681
22 *290:15 *406:19 0
23 *403:11 *406:11 0.0884197
24 *403:11 *406:17 0
25 *405:11 *406:17 0
*RES
1 *921:gpio_ib_mode_sel[18] *406:9 5.33073 
2 *406:9 *406:11 1087.52 
3 *406:11 *406:17 24.9279 
4 *406:17 *406:19 251.199 
5 *406:19 *406:21 3.41 
6 *406:21 gpio_ib_mode_sel[18] 2661.78 
*END

*D_NET *407 0.615782
*CONN
*P gpio_ib_mode_sel[19] O
*I *921:gpio_ib_mode_sel[19] O *D CF_CARAVEL_SOC
*CAP
1 gpio_ib_mode_sel[19] 0.13206
2 *921:gpio_ib_mode_sel[19] 0.000921959
3 *407:29 0.13206
4 *407:27 0.0377252
5 *407:25 0.0378912
6 *407:19 0.004454
7 *407:11 0.0203163
8 *407:9 0.0169503
9 gpio_ib_mode_sel[19] gpio_oeb[19] 0
10 gpio_ib_mode_sel[19] gpio_vtrip_sel[19] 0
11 *407:9 *409:9 0
12 *407:9 *433:6 0.000284346
13 *407:11 *434:11 0.0116274
14 *407:11 *454:41 0.00373497
15 *407:11 *542:31 0.0184233
16 *407:11 *750:11 0.000390707
17 *407:11 *764:11 0.0397545
18 *407:11 *764:17 0.000899292
19 *407:11 *786:11 0.00206082
20 *407:19 *689:11 0.0282172
21 *407:19 *691:11 0.0139462
22 *407:19 *705:21 0.00344084
23 *407:19 *745:11 0.00593372
24 *101:15 *407:27 0
25 *104:31 *407:27 0
26 *114:23 *407:27 0.0139022
27 *116:67 *407:11 0.00254174
28 *193:61 *407:19 0.000364303
29 *406:9 *407:9 0
30 *406:11 *407:11 0.0878809
*RES
1 *921:gpio_ib_mode_sel[19] *407:9 5.4028 
2 *407:9 *407:11 1080.84 
3 *407:11 *407:19 48.5551 
4 *407:19 *407:25 10.9189 
5 *407:25 *407:27 720.107 
6 *407:27 *407:29 4.5 
7 *407:29 gpio_ib_mode_sel[19] 2678.93 
*END

*D_NET *408 0.925041
*CONN
*P gpio_ib_mode_sel[1] O
*I *921:gpio_ib_mode_sel[1] O *D CF_CARAVEL_SOC
*CAP
1 gpio_ib_mode_sel[1] 0.00285959
2 *921:gpio_ib_mode_sel[1] 0.00248888
3 *408:101 0.0112846
4 *408:99 0.008425
5 *408:97 0.00738249
6 *408:95 0.00809345
7 *408:79 0.00160393
8 *408:77 0.00234124
9 *408:63 0.00254581
10 *408:61 0.00233308
11 *408:45 0.00860929
12 *408:23 0.0405521
13 *408:21 0.0342863
14 *408:11 0.010884
15 *408:9 0.0122649
16 gpio_ib_mode_sel[1] gpio_oeb[1] 0
17 gpio_ib_mode_sel[1] gpio_vtrip_sel[1] 0
18 *408:9 *433:6 0.000360771
19 *408:11 *453:41 0.00577977
20 *408:11 *793:11 0.0289622
21 *408:21 *430:21 6.01404e-05
22 *408:21 *467:15 0.00286858
23 *408:21 *557:29 0.00209261
24 *408:21 *793:25 0.000742943
25 *408:21 *842:21 0.000139165
26 *408:23 *441:15 0.0362664
27 *408:23 *442:15 0.00405231
28 *408:23 *463:15 0.0421553
29 *408:23 *467:15 0.000546155
30 *408:23 *471:25 9.69189e-05
31 *408:23 *471:27 0.120003
32 *408:23 *739:68 0.000376948
33 *408:23 *840:19 0.20613
34 *408:23 *858:21 0.00253104
35 *408:45 *535:35 0.000208827
36 *408:45 *740:165 0
37 *408:61 *419:119 0.00185156
38 *408:61 *419:133 0.00863007
39 *408:61 *530:43 0.00189729
40 *408:61 *530:55 0.0014328
41 *408:61 *535:59 0.00136966
42 *408:61 *551:93 0.00853575
43 *408:61 *562:89 1.8115e-05
44 *408:61 *740:141 0.000837545
45 *408:61 *826:79 2.14658e-05
46 *408:63 *419:149 1.21258e-05
47 *408:63 *530:55 0.00896757
48 *408:63 *535:59 0.000218284
49 *408:63 *562:91 1.98839e-05
50 *408:63 *741:148 0.00104619
51 *408:63 *826:95 0.00704274
52 *408:77 *419:149 1.12406e-05
53 *408:77 *419:157 0.0076681
54 *408:77 *533:92 0.00208598
55 *408:77 *535:91 0.000899317
56 *408:77 *537:40 2.60254e-05
57 *408:77 *551:109 1.39702e-05
58 *408:79 *530:77 0.00780126
59 *408:95 *533:94 0.00021787
60 *408:95 *535:95 0.000117245
61 *408:95 *536:49 0.000241191
62 *408:95 *562:117 3.7939e-05
63 *408:95 *696:89 0.000315165
64 *408:95 *826:119 0.000684967
65 *408:97 *529:9 0
66 *408:97 *562:119 0.0422492
67 *408:101 *760:35 0.0336823
68 *408:101 *804:27 0.0376047
69 gpio_analog_sel[43] *408:97 0.00353331
70 *118:97 *408:45 0.000240274
71 *123:15 *408:23 0.0627404
72 *168:11 *408:101 0
73 *248:35 *408:11 0.00282603
74 *306:11 *408:101 0.000182832
75 *325:51 *408:45 0
76 *325:61 *408:45 0
77 *336:41 *408:45 9.22174e-05
78 *341:18 *408:23 0.0106629
79 *364:27 *408:11 0.00358653
80 *386:173 *408:45 4.32637e-05
81 *386:191 *408:63 0.00198299
82 *386:205 *408:95 0
83 *397:9 *408:9 0
84 *397:127 *408:45 9.25014e-06
85 *397:151 *408:79 0.00779935
86 *397:171 *408:95 0.000202635
87 *397:173 *408:97 0.0462543
*RES
1 *921:gpio_ib_mode_sel[1] *408:9 9.43697 
2 *408:9 *408:11 59.4926 
3 *408:11 *408:21 16.9438 
4 *408:21 *408:23 326.257 
5 *408:23 *408:45 45.3321 
6 *408:45 *408:61 48.0016 
7 *408:61 *408:63 85.1429 
8 *408:63 *408:77 28.9187 
9 *408:77 *408:79 73.2321 
10 *408:79 *408:95 40.3118 
11 *408:95 *408:97 72.1137 
12 *408:97 *408:99 3.41 
13 *408:99 *408:101 473.696 
14 *408:101 gpio_ib_mode_sel[1] 9.30302 
*END

*D_NET *409 0.749416
*CONN
*P gpio_ib_mode_sel[20] O
*I *921:gpio_ib_mode_sel[20] O *D CF_CARAVEL_SOC
*CAP
1 gpio_ib_mode_sel[20] 0.00105443
2 *921:gpio_ib_mode_sel[20] 0.00581212
3 *409:15 0.0163085
4 *409:13 0.0152541
5 *409:11 0.13203
6 *409:9 0.137842
7 gpio_ib_mode_sel[20] gpio_oeb[20] 0
8 gpio_ib_mode_sel[20] gpio_vtrip_sel[20] 0
9 gpio_ib_mode_sel[20] *673:15 0
10 gpio_ib_mode_sel[20] *805:19 0
11 *409:9 *410:9 0
12 *409:11 *472:15 0.0242423
13 *409:11 *546:25 0
14 *409:11 *693:71 0.0134311
15 *409:11 *832:27 0
16 *409:15 *410:15 0.000708584
17 *409:15 *411:15 0.000662297
18 *409:15 *447:13 0.000528351
19 *409:15 *453:13 0.0157945
20 *409:15 *762:15 0.000192648
21 *284:59 *409:11 0.0930627
22 *362:15 *409:15 0.0864836
23 *365:15 *409:15 0.08719
24 *396:11 *409:11 0.118543
25 *404:21 *409:15 0.000275604
26 *407:9 *409:9 0
*RES
1 *921:gpio_ib_mode_sel[20] *409:9 16.4697 
2 *409:9 *409:11 3738.91 
3 *409:11 *409:13 3.41 
4 *409:13 *409:15 142.235 
5 *409:15 gpio_ib_mode_sel[20] 23.9636 
*END

*D_NET *410 0.566578
*CONN
*P gpio_ib_mode_sel[21] O
*I *921:gpio_ib_mode_sel[21] O *D CF_CARAVEL_SOC
*CAP
1 gpio_ib_mode_sel[21] 0.000969112
2 *921:gpio_ib_mode_sel[21] 0.007354
3 *410:15 0.01288
4 *410:13 0.0119109
5 *410:11 0.17231
6 *410:9 0.179664
7 gpio_ib_mode_sel[21] gpio_oeb[21] 0
8 gpio_ib_mode_sel[21] gpio_vtrip_sel[21] 0
9 gpio_ib_mode_sel[21] *674:15 0
10 gpio_ib_mode_sel[21] *806:19 0
11 *410:9 *411:9 0
12 *410:11 gpio_oeb[25] 0
13 *410:11 *460:11 0
14 *410:11 *554:25 0
15 *410:11 *767:17 0
16 *410:11 *811:11 0
17 *410:11 *873:57 0.0178191
18 *410:15 *762:15 0.0621234
19 gpio_analog_sel[27] *410:11 3.03519e-05
20 *284:51 *410:11 0
21 *335:57 *410:11 0.0377726
22 *366:15 *410:15 0.0630357
23 *409:9 *410:9 0
24 *409:15 *410:15 0.000708584
*RES
1 *921:gpio_ib_mode_sel[21] *410:9 19.7127 
2 *410:9 *410:11 3734.66 
3 *410:11 *410:13 3.41 
4 *410:13 *410:15 105.192 
5 *410:15 gpio_ib_mode_sel[21] 22.1421 
*END

*D_NET *411 0.605124
*CONN
*P gpio_ib_mode_sel[22] O
*I *921:gpio_ib_mode_sel[22] O *D CF_CARAVEL_SOC
*CAP
1 gpio_ib_mode_sel[22] 0.00116152
2 *921:gpio_ib_mode_sel[22] 0.00419217
3 *411:15 0.0139848
4 *411:13 0.0128233
5 *411:11 0.124851
6 *411:9 0.129043
7 gpio_ib_mode_sel[22] gpio_oeb[22] 0
8 gpio_ib_mode_sel[22] gpio_vtrip_sel[22] 0
9 *411:9 *412:9 0
10 *411:11 *544:17 0.0182297
11 *411:11 *736:39 0
12 *411:11 *762:11 0
13 *322:285 *411:11 0.0299755
14 *362:15 *411:15 0.0356079
15 *367:11 *411:11 0.234378
16 *404:21 *411:15 0.000213822
17 *409:15 *411:15 0.000662297
18 *410:9 *411:9 0
*RES
1 *921:gpio_ib_mode_sel[22] *411:9 13.2267 
2 *411:9 *411:11 3725.55 
3 *411:11 *411:13 3.41 
4 *411:13 *411:15 58.4931 
5 *411:15 gpio_ib_mode_sel[22] 24.7225 
*END

*D_NET *412 0.580392
*CONN
*P gpio_ib_mode_sel[23] O
*I *921:gpio_ib_mode_sel[23] O *D CF_CARAVEL_SOC
*CAP
1 gpio_ib_mode_sel[23] 0.00259599
2 *921:gpio_ib_mode_sel[23] 0.00518189
3 *412:11 0.14255
4 *412:9 0.145136
5 gpio_ib_mode_sel[23] *763:15 0.000376388
6 *412:9 *737:79 0
7 *412:11 gpio_vtrip_sel[30] 0.00163125
8 *412:11 *422:11 0.00502246
9 *412:11 *437:11 0.000675852
10 *412:11 *437:19 0
11 *412:11 *457:11 0
12 *412:11 *546:25 0
13 *412:11 *693:91 0.00526863
14 *412:11 *737:55 0.000751601
15 *412:11 *816:25 0.00263771
16 gpio_holdover[23] gpio_ib_mode_sel[23] 0.0100248
17 gpio_holdover[33] *412:11 0.0006888
18 *205:65 *412:11 0.00426354
19 *367:15 gpio_ib_mode_sel[23] 0.0116816
20 *369:19 *412:11 0.0173636
21 *369:23 *412:11 0.0368759
22 *398:19 *412:11 0.187667
23 *411:9 *412:9 0
*RES
1 *921:gpio_ib_mode_sel[23] *412:9 15.3887 
2 *412:9 *412:11 3738.3 
3 *412:11 gpio_ib_mode_sel[23] 31.1605 
*END

*D_NET *413 0.521552
*CONN
*P gpio_ib_mode_sel[24] O
*I *921:gpio_ib_mode_sel[24] O *D CF_CARAVEL_SOC
*CAP
1 gpio_ib_mode_sel[24] 0.00601064
2 *921:gpio_ib_mode_sel[24] 0.00217633
3 *413:26 6.99871e-06
4 *413:19 0.101998
5 *413:17 0.0962065
6 *413:11 0.0149693
7 *413:9 0.0169339
8 gpio_ib_mode_sel[24] gpio_oeb[24] 0
9 gpio_ib_mode_sel[24] gpio_vtrip_sel[24] 5.22343e-05
10 gpio_ib_mode_sel[24] *721:13 0
11 *413:9 *414:9 0
12 *413:9 *433:6 0.000360771
13 *413:9 *737:79 0
14 *413:11 *468:11 0.000634419
15 *413:11 *543:23 0.00370206
16 *413:11 *558:25 0.0149863
17 *413:11 *778:13 0.00139904
18 *413:11 *787:11 0.0507529
19 *413:11 *790:11 0.0491686
20 *413:11 *824:11 0.0282975
21 *413:17 *734:11 0.0004814
22 *413:17 *833:21 0.000143701
23 *413:19 *416:11 0.0143263
24 *413:19 *766:11 0.0607648
25 *413:26 gpio_oeb[24] 0
26 *357:19 *413:19 0.0414501
27 *361:11 *413:19 0.00187356
28 *364:19 *413:11 0.00293274
29 *371:11 *413:11 0.00237598
30 *382:11 *413:11 0.00570347
31 *388:11 *413:11 0.00384372
*RES
1 *921:gpio_ib_mode_sel[24] *413:9 8.53613 
2 *413:9 *413:11 1034.7 
3 *413:11 *413:17 7.6237 
4 *413:17 *413:19 442.267 
5 *413:19 gpio_ib_mode_sel[24] 17.4865 
6 gpio_ib_mode_sel[24] *413:26 0.0854545 
*END

*D_NET *414 0.466275
*CONN
*P gpio_ib_mode_sel[25] O
*I *921:gpio_ib_mode_sel[25] O *D CF_CARAVEL_SOC
*CAP
1 gpio_ib_mode_sel[25] 0.00535828
2 *921:gpio_ib_mode_sel[25] 0.00302349
3 *414:11 0.0898402
4 *414:9 0.0875054
5 gpio_ib_mode_sel[25] gpio_oeb[25] 0.000477436
6 gpio_ib_mode_sel[25] gpio_vtrip_sel[25] 0.000145226
7 *414:9 *415:9 0
8 *414:11 *415:11 0.0481001
9 *414:11 *416:11 0
10 *414:11 *420:11 0
11 *414:11 *421:11 0.136855
12 *414:11 *436:17 0.00175759
13 *414:11 *757:11 0.00669683
14 *414:11 *765:11 0.00624377
15 *414:11 *765:19 0.0587414
16 *414:11 *821:21 0.00041448
17 *414:11 *832:15 0.00193106
18 gpio_dm1[35] *414:11 0
19 *295:27 *414:11 0
20 *373:11 *414:11 0
21 *374:11 *414:11 0.0188962
22 *385:11 *414:11 0.000288548
23 *413:9 *414:9 0
*RES
1 *921:gpio_ib_mode_sel[25] *414:9 10.5963 
2 *414:9 *414:11 489.781 
3 *414:11 gpio_ib_mode_sel[25] 16.1525 
*END

*D_NET *415 0.43171
*CONN
*P gpio_ib_mode_sel[26] O
*I *921:gpio_ib_mode_sel[26] O *D CF_CARAVEL_SOC
*CAP
1 gpio_ib_mode_sel[26] 0.00586133
2 *921:gpio_ib_mode_sel[26] 0.00297449
3 *415:11 0.0887442
4 *415:9 0.0858574
5 gpio_ib_mode_sel[26] gpio_oeb[26] 5.69761e-05
6 gpio_ib_mode_sel[26] gpio_vtrip_sel[26] 5.19487e-05
7 gpio_ib_mode_sel[26] *459:13 0.000582478
8 *415:11 *552:25 0.151157
9 *415:11 *757:11 0.0483238
10 *293:27 *415:11 0
11 *362:11 *415:11 0
12 *363:11 *415:11 0
13 *414:9 *415:9 0
14 *414:11 *415:11 0.0481001
*RES
1 *921:gpio_ib_mode_sel[26] *415:9 10.4882 
2 *415:9 *415:11 2587.16 
3 *415:11 gpio_ib_mode_sel[26] 30.0255 
*END

*D_NET *416 0.45355
*CONN
*P gpio_ib_mode_sel[27] O
*I *921:gpio_ib_mode_sel[27] O *D CF_CARAVEL_SOC
*CAP
1 gpio_ib_mode_sel[27] 0.00576496
2 *921:gpio_ib_mode_sel[27] 0.00277175
3 *416:11 0.0842598
4 *416:9 0.0812666
5 gpio_ib_mode_sel[27] gpio_oeb[27] 0.000631703
6 gpio_ib_mode_sel[27] gpio_vtrip_sel[27] 0.000313837
7 *416:9 *417:9 0
8 *416:9 *433:6 0.000360771
9 *416:11 *423:11 0.000179499
10 *416:11 *438:17 0.00273444
11 *416:11 *555:17 0.00220305
12 *416:11 *556:43 0.0125963
13 *416:11 *809:11 0.030121
14 *248:49 *416:11 0.00367242
15 *292:27 *416:11 0.0606952
16 *353:11 *416:11 0.00592772
17 *357:17 *416:11 0.00838707
18 *358:19 *416:11 0.00978329
19 *361:11 *416:11 0.0115063
20 *370:11 *416:11 0.0299497
21 *374:11 *416:11 0
22 *376:11 *416:11 0.086098
23 *380:13 *416:11 0
24 *413:19 *416:11 0.0143263
25 *414:11 *416:11 0
*RES
1 *921:gpio_ib_mode_sel[27] *416:9 9.86937 
2 *416:9 *416:11 419.575 
3 *416:11 gpio_ib_mode_sel[27] 17.2742 
*END

*D_NET *417 0.405668
*CONN
*P gpio_ib_mode_sel[28] O
*I *921:gpio_ib_mode_sel[28] O *D CF_CARAVEL_SOC
*CAP
1 gpio_ib_mode_sel[28] 0.00313899
2 *921:gpio_ib_mode_sel[28] 0.00496327
3 *417:19 0.0258468
4 *417:17 0.0229477
5 *417:11 0.0114418
6 *417:9 0.0161652
7 gpio_ib_mode_sel[28] gpio_oeb[28] 0
8 gpio_ib_mode_sel[28] gpio_vtrip_sel[28] 0.00213925
9 gpio_ib_mode_sel[28] *681:21 0
10 *417:11 gpio_ib_mode_sel[37] 0.00058992
11 *417:11 *426:13 0.00030029
12 *417:11 *545:15 0.0046937
13 *417:11 *818:11 0.00868598
14 *417:17 gpio_ib_mode_sel[33] 0.000394152
15 *417:19 *422:11 2.12951e-05
16 *417:19 *769:11 0.0636616
17 *417:19 *816:25 0.00742692
18 gpio_holdover[33] *417:19 0.000718378
19 *336:67 *417:11 0.0550678
20 *369:11 *417:11 0.00628175
21 *369:19 *417:19 0.0979262
22 *383:11 *417:11 0.00354779
23 *390:11 *417:11 0.0697097
24 *416:9 *417:9 0
*RES
1 *921:gpio_ib_mode_sel[28] *417:9 14.596 
2 *417:9 *417:11 854.375 
3 *417:11 *417:17 7.47957 
4 *417:17 *417:19 235.486 
5 *417:19 gpio_ib_mode_sel[28] 11.2269 
*END

*D_NET *418 0.438298
*CONN
*P gpio_ib_mode_sel[29] O
*I *921:gpio_ib_mode_sel[29] O *D CF_CARAVEL_SOC
*CAP
1 gpio_ib_mode_sel[29] 0.00696703
2 *921:gpio_ib_mode_sel[29] 0.00228072
3 *418:11 0.0446588
4 *418:9 0.0399725
5 gpio_ib_mode_sel[29] gpio_oeb[29] 0.000229873
6 gpio_ib_mode_sel[29] gpio_vtrip_sel[29] 0
7 gpio_ib_mode_sel[29] *682:11 0
8 *418:9 *420:9 0
9 *418:9 *433:6 0.000360771
10 *418:11 *423:11 0
11 *418:11 *425:11 0.000171485
12 *418:11 *468:11 0.00270742
13 *418:11 *543:23 0.0238476
14 *418:11 *543:31 0.00358481
15 *418:11 *558:25 0.00361367
16 *418:11 *732:10 0.00311636
17 *418:11 *737:65 0.000845532
18 *418:11 *766:11 0.126694
19 *418:11 *778:13 0.0216939
20 *418:11 *787:11 0.0106183
21 *364:19 *418:11 0.00276707
22 *364:27 *418:11 0.0271816
23 *371:11 *418:11 0.103442
24 *382:11 *418:11 0.0115758
25 *388:11 *418:11 0.00196976
*RES
1 *921:gpio_ib_mode_sel[29] *418:9 8.7163 
2 *418:9 *418:11 349.476 
3 *418:11 gpio_ib_mode_sel[29] 18.8095 
*END

*D_NET *419 0.832808
*CONN
*P gpio_ib_mode_sel[2] O
*I *921:gpio_ib_mode_sel[2] O *D CF_CARAVEL_SOC
*CAP
1 gpio_ib_mode_sel[2] 0.00463356
2 *921:gpio_ib_mode_sel[2] 0.00266321
3 *419:197 0.0140151
4 *419:195 0.00938153
5 *419:193 0.0031071
6 *419:191 0.00391733
7 *419:177 0.00210801
8 *419:175 0.00254384
9 *419:159 0.00239226
10 *419:157 0.00213878
11 *419:149 0.00169962
12 *419:137 0.00145238
13 *419:133 0.00183826
14 *419:119 0.00199538
15 *419:117 0.00468714
16 *419:95 0.00446348
17 *419:93 0.00242474
18 *419:79 0.00244981
19 *419:77 0.0020992
20 *419:69 0.0019307
21 *419:61 0.00205325
22 *419:47 0.00689808
23 *419:45 0.00543253
24 *419:39 0.0105214
25 *419:37 0.0106042
26 *419:31 0.00633533
27 *419:29 0.00653427
28 *419:23 0.0104629
29 *419:21 0.0101289
30 *419:19 0.00415808
31 *419:11 0.014297
32 *419:9 0.0128021
33 gpio_ib_mode_sel[2] gpio_vtrip_sel[2] 0.000627842
34 *419:9 *430:9 0.000282268
35 *419:11 *921:porb_l 0.00339285
36 *419:11 *467:11 0.00598981
37 *419:11 *552:25 0.0066969
38 *419:11 *737:81 0.00279973
39 *419:11 *815:11 0.0287551
40 *419:11 *848:23 0.00234286
41 *419:11 *863:23 0.00297927
42 *419:19 *541:97 6.13602e-05
43 *419:19 *541:105 6.65742e-06
44 *419:19 *556:37 0.000216514
45 *419:19 *556:41 0.00311879
46 *419:19 *826:27 0.00491506
47 *419:23 *921:gpio_in[16] 0.0029591
48 *419:23 *444:71 0.0162936
49 *419:23 *472:55 0.00218631
50 *419:23 *539:119 6.19998e-05
51 *419:23 *556:11 0.0333227
52 *419:23 *556:37 0.00149808
53 *419:23 *693:113 0.00314553
54 *419:23 *739:84 0.00209862
55 *419:23 *826:27 0.000592513
56 *419:23 *840:19 0.00125238
57 *419:29 *921:gpio_in[21] 0
58 *419:29 *739:118 0
59 *419:31 *539:73 0.00111402
60 *419:37 *541:41 8.93722e-05
61 *419:39 gpio_out[39] 0.000512133
62 *419:61 *540:18 0.0011543
63 *419:69 *551:25 0.00120189
64 *419:69 *562:33 4.48128e-05
65 *419:77 *540:18 0.00137407
66 *419:77 *551:33 0.0129386
67 *419:77 *562:33 0.0130063
68 *419:79 *539:35 0.000405733
69 *419:79 *551:35 0.00487169
70 *419:79 *562:35 0.0025074
71 *419:93 *530:17 2.30116e-06
72 *419:93 *530:25 0.011882
73 *419:93 *533:30 1.46617e-05
74 *419:93 *540:18 0.00109491
75 *419:93 *551:49 1.36181e-05
76 *419:93 *562:49 0.0119881
77 *419:93 *696:145 3.39834e-06
78 *419:93 *696:147 0.00197904
79 *419:95 *533:30 0.00037421
80 *419:95 *826:63 0.00559988
81 *419:117 *529:9 0
82 *419:117 *530:41 0.0100881
83 *419:117 *533:48 0.000169797
84 *419:117 *535:27 5.41797e-06
85 *419:117 *535:35 3.623e-05
86 *419:117 *537:12 0
87 *419:117 *539:11 0.00159243
88 *419:117 *540:18 0.001181
89 *419:117 *551:73 0.000375675
90 *419:117 *551:77 2.77904e-05
91 *419:117 *562:65 4.15592e-05
92 *419:117 *696:133 1.41231e-05
93 *419:117 *740:167 0
94 *419:119 *530:43 1.5424e-05
95 *419:119 *535:35 0.000788701
96 *419:119 *826:79 0.00738736
97 *419:133 *533:68 4.19624e-06
98 *419:133 *535:59 0.00121636
99 *419:133 *551:93 2.33162e-05
100 *419:133 *562:89 6.54622e-05
101 *419:133 *740:133 0.000676678
102 *419:133 *741:148 2.02078e-05
103 *419:133 *826:93 0.00854022
104 *419:137 *530:55 1.21258e-05
105 *419:137 *535:59 0.00104465
106 *419:137 *551:95 0.00510842
107 *419:137 *562:91 0.00280984
108 *419:149 *535:59 0.00038767
109 *419:149 *551:95 0.00214734
110 *419:149 *551:109 5.10621e-05
111 *419:149 *562:91 0.00387118
112 *419:149 *562:107 2.04825e-05
113 *419:157 *533:92 2.06741e-05
114 *419:157 *535:91 0.00108963
115 *419:157 *551:109 0.000193126
116 *419:159 *530:77 0.0098059
117 *419:159 *551:111 1.98839e-05
118 *419:159 *562:109 0.00976401
119 *419:175 *530:91 0.00639194
120 *419:175 *535:111 6.41642e-05
121 *419:175 *551:119 5.66157e-05
122 *419:175 *551:121 1.46911e-05
123 *419:175 *562:117 9.08056e-05
124 *419:177 *535:113 0.0115714
125 *419:177 *537:58 0.0115714
126 *419:177 *551:121 0.0026625
127 *419:191 *530:107 0.00426703
128 *419:191 *535:113 0.000928216
129 *419:193 *530:109 0.0185601
130 *419:193 *535:117 0.0199883
131 *419:193 *551:121 0.00286494
132 *419:197 *532:36 0.017162
133 *419:197 *568:15 0.0545358
134 gpio_analog_sel[43] *419:175 0.000243388
135 gpio_analog_sel[43] *419:191 0.000446897
136 *118:137 *419:69 0.000395712
137 *118:145 *419:61 0.0147673
138 *118:153 *419:45 4.15592e-05
139 *118:155 *419:39 0.0357335
140 *118:179 *419:23 0.00391352
141 *118:185 *419:23 0.00500856
142 *118:187 *419:23 0.00545123
143 *118:205 *419:19 0.000221753
144 *118:209 *419:19 0.000410615
145 *177:11 *419:197 0.00582381
146 *232:11 *419:197 0.000245852
147 *259:11 *419:197 0.00166512
148 *266:11 *419:197 0.0240333
149 *295:27 *419:11 0
150 *322:123 *419:117 0.000267313
151 *322:131 *419:117 0.00163609
152 *322:191 *419:31 0.0174003
153 *322:235 *419:23 0.000376948
154 *325:87 *419:31 0
155 *325:157 *419:19 0.0176796
156 *335:45 *419:19 0.000208343
157 *338:63 *419:39 0.000934973
158 *386:21 *419:11 0.000181816
159 *386:97 *419:37 0.000100208
160 *386:99 *419:39 4.57975e-05
161 *386:107 *419:47 0.0177391
162 *386:121 *419:61 0.0147516
163 *386:129 *419:69 0.00310896
164 *386:137 *419:77 0.000103856
165 *386:139 *419:79 2.61099e-05
166 *386:139 *419:93 0.00213404
167 *386:155 *419:117 0.000309253
168 *386:175 *419:133 0.00149381
169 *386:191 *419:157 0.0011788
170 *397:25 *419:19 0.0194516
171 *397:25 *419:23 0.000257711
172 *397:71 *419:23 0.000261235
173 *397:95 *419:95 0.00559988
174 *397:111 *419:119 0.00550635
175 *397:149 *419:149 8.23597e-06
176 *397:149 *419:157 0.00727259
177 *397:171 *419:175 3.16801e-05
178 *397:173 *419:175 0.00646625
179 *397:173 *419:191 0.00241692
180 *408:61 *419:119 0.00185156
181 *408:61 *419:133 0.00863007
182 *408:63 *419:149 1.21258e-05
183 *408:77 *419:149 1.12406e-05
184 *408:77 *419:157 0.0076681
*RES
1 *921:gpio_ib_mode_sel[2] *419:9 10.308 
2 *419:9 *419:11 59.5991 
3 *419:11 *419:19 47.2316 
4 *419:19 *419:21 4.5 
5 *419:21 *419:23 474.089 
6 *419:23 *419:29 14.8929 
7 *419:29 *419:31 189.464 
8 *419:31 *419:37 11.2225 
9 *419:37 *419:39 55.3221 
10 *419:39 *419:45 8.79393 
11 *419:45 *419:47 166.875 
12 *419:47 *419:61 39.0495 
13 *419:61 *419:69 38.7939 
14 *419:69 *419:77 29.107 
15 *419:77 *419:79 46.5357 
16 *419:79 *419:93 35.3894 
17 *419:93 *419:95 52.6964 
18 *419:95 *419:117 49.8645 
19 *419:117 *419:119 69.5357 
20 *419:119 *419:133 30.6636 
21 *419:133 *419:137 48.4018 
22 *419:137 *419:149 45.3073 
23 *419:149 *419:157 20.3203 
24 *419:157 *419:159 92.125 
25 *419:159 *419:175 30.2956 
26 *419:175 *419:177 108.554 
27 *419:177 *419:191 24.6559 
28 *419:191 *419:193 189.464 
29 *419:193 *419:195 4.5 
30 *419:195 *419:197 667.83 
31 *419:197 gpio_ib_mode_sel[2] 13.3387 
*END

*D_NET *420 0.402571
*CONN
*P gpio_ib_mode_sel[30] O
*I *921:gpio_ib_mode_sel[30] O *D CF_CARAVEL_SOC
*CAP
1 gpio_ib_mode_sel[30] 0.00717077
2 *921:gpio_ib_mode_sel[30] 0.00344749
3 *420:11 0.0894074
4 *420:9 0.0856841
5 gpio_ib_mode_sel[30] gpio_oeb[30] 0.000607724
6 gpio_ib_mode_sel[30] gpio_vtrip_sel[30] 0.000561634
7 gpio_ib_mode_sel[30] *768:19 7.15791e-05
8 gpio_ib_mode_sel[30] *813:17 9.06484e-05
9 *420:9 *421:9 0
10 *420:11 *456:27 0.00466207
11 *420:11 *469:11 0.00962621
12 *420:11 *688:15 0.00600775
13 *420:11 *733:10 0.00860433
14 *420:11 *753:11 0.00748142
15 *420:11 *768:11 0.0368889
16 *420:11 *803:11 0.0103945
17 *420:11 *821:21 0.0124082
18 *420:11 *832:15 0.00857723
19 gpio_dm1[35] *420:11 0.00351266
20 *250:35 *420:11 0.00412558
21 *251:27 *420:11 0.00175709
22 *293:27 *420:11 0.00143523
23 *295:27 *420:11 0.00988329
24 *362:11 *420:11 0.000364488
25 *368:11 *420:11 0.000220214
26 *373:11 gpio_ib_mode_sel[30] 0.00179097
27 *373:11 *420:11 0.0829837
28 *384:11 *420:11 0.00480623
29 *414:11 *420:11 0
30 *418:9 *420:9 0
*RES
1 *921:gpio_ib_mode_sel[30] *420:9 11.4611 
2 *420:9 *420:11 308.652 
3 *420:11 gpio_ib_mode_sel[30] 21.9836 
*END

*D_NET *421 0.377825
*CONN
*P gpio_ib_mode_sel[31] O
*I *921:gpio_ib_mode_sel[31] O *D CF_CARAVEL_SOC
*CAP
1 gpio_ib_mode_sel[31] 0.00514008
2 *921:gpio_ib_mode_sel[31] 0.00301824
3 *421:11 0.0370809
4 *421:9 0.0349591
5 gpio_ib_mode_sel[31] gpio_oeb[31] 0
6 gpio_ib_mode_sel[31] gpio_vtrip_sel[31] 0.00235304
7 gpio_ib_mode_sel[31] *729:21 0
8 *421:9 *422:9 0
9 *421:9 *436:17 1.17412e-05
10 *421:11 *436:17 0.000282331
11 *421:11 *436:19 0.00679042
12 *421:11 *467:11 0.0159957
13 *421:11 *552:25 0.0227321
14 *421:11 *735:23 0.00961305
15 *421:11 *815:11 0.00425736
16 *248:49 *421:11 0.000519684
17 *333:27 gpio_ib_mode_sel[31] 0.00051885
18 *353:11 *421:11 0.0172997
19 *374:11 *421:11 0.0693773
20 *380:13 *421:11 0.00602869
21 *385:11 *421:11 0.00499118
22 *414:11 *421:11 0.136855
23 *420:9 *421:9 0
*RES
1 *921:gpio_ib_mode_sel[31] *421:9 10.4522 
2 *421:9 *421:11 280.656 
3 *421:11 gpio_ib_mode_sel[31] 15.9895 
*END

*D_NET *422 0.249892
*CONN
*P gpio_ib_mode_sel[32] O
*I *921:gpio_ib_mode_sel[32] O *D CF_CARAVEL_SOC
*CAP
1 gpio_ib_mode_sel[32] 0.00442997
2 *921:gpio_ib_mode_sel[32] 0.00550613
3 *422:11 0.0545481
4 *422:9 0.0556242
5 gpio_ib_mode_sel[32] gpio_vtrip_sel[32] 0
6 gpio_ib_mode_sel[32] *546:25 0.000736674
7 gpio_ib_mode_sel[32] *686:11 0.00114486
8 gpio_ib_mode_sel[32] *691:11 4.8817e-05
9 gpio_ib_mode_sel[32] *761:11 0.000734617
10 gpio_ib_mode_sel[32] *802:15 0.000129156
11 gpio_ib_mode_sel[32] *816:25 0.000343861
12 gpio_ib_mode_sel[32] *832:37 4.8817e-05
13 *422:9 *436:17 1.01122e-05
14 *422:11 *437:11 0
15 *422:11 *546:25 0.0149543
16 *422:11 *693:91 0.00101804
17 *422:11 *761:11 0.00804509
18 *422:11 *769:11 0
19 *422:11 *813:11 0.00260844
20 *422:11 *814:11 0.00292851
21 *422:11 *816:11 0.0105569
22 *422:11 *816:25 0.0103123
23 *422:11 *823:13 0.0199471
24 *422:11 *832:27 0.0039309
25 *422:11 *873:49 0.0123475
26 gpio_holdover[33] *422:11 0.00178143
27 *205:65 *422:11 0.0284691
28 *244:15 gpio_ib_mode_sel[32] 0
29 *286:39 gpio_ib_mode_sel[32] 4.99298e-05
30 *398:11 *422:11 0.00287749
31 *398:19 *422:11 0.00171618
32 *412:11 *422:11 0.00502246
33 *417:19 *422:11 2.12951e-05
34 *421:9 *422:9 0
*RES
1 *921:gpio_ib_mode_sel[32] *422:9 15.7851 
2 *422:9 *422:11 175.934 
3 *422:11 gpio_ib_mode_sel[32] 35.7754 
*END

*D_NET *423 0.177781
*CONN
*P gpio_ib_mode_sel[33] O
*I *921:gpio_ib_mode_sel[33] O *D CF_CARAVEL_SOC
*CAP
1 gpio_ib_mode_sel[33] 0.0051639
2 *921:gpio_ib_mode_sel[33] 0.002577
3 *423:11 0.0355119
4 *423:9 0.032925
5 gpio_ib_mode_sel[33] gpio_oeb[33] 0.00070135
6 gpio_ib_mode_sel[33] gpio_vtrip_sel[33] 0.006911
7 *423:9 *424:9 0
8 *423:9 *433:6 0.000360771
9 *423:11 gpio_slow_sel[35] 0.00428655
10 *423:11 *438:19 0.0103713
11 *423:11 *449:21 0.0017336
12 *423:11 *453:41 0.00861967
13 *423:11 *766:11 0.00349872
14 *423:11 *793:11 0.00542743
15 *248:35 *423:11 0.00978277
16 *292:27 *423:11 0.0263855
17 *357:17 *423:11 0.000542665
18 *357:19 *423:11 0.0001326
19 *358:17 *423:11 0.00111491
20 *361:11 *423:11 0.0100041
21 *364:27 *423:11 0.00314245
22 *383:9 gpio_ib_mode_sel[33] 0.000632578
23 *389:11 *423:11 0.00738196
24 *416:11 *423:11 0.000179499
25 *417:17 gpio_ib_mode_sel[33] 0.000394152
26 *418:11 *423:11 0
*RES
1 *921:gpio_ib_mode_sel[33] *423:9 9.43697 
2 *423:9 *423:11 144.08 
3 *423:11 gpio_ib_mode_sel[33] 17.6565 
*END

*D_NET *424 0.109815
*CONN
*P gpio_ib_mode_sel[34] O
*I *921:gpio_ib_mode_sel[34] O *D CF_CARAVEL_SOC
*CAP
1 gpio_ib_mode_sel[34] 0.0035499
2 *921:gpio_ib_mode_sel[34] 0.00429142
3 *424:18 2.2046e-06
4 *424:11 0.0475434
5 *424:9 0.0482872
6 gpio_ib_mode_sel[34] gpio_oeb[34] 0.00251484
7 gpio_ib_mode_sel[34] gpio_vtrip_sel[34] 0.00305773
8 *424:9 *440:17 4.73393e-05
9 *424:18 gpio_oeb[34] 1.7754e-05
10 *392:9 gpio_ib_mode_sel[34] 0.000502893
11 *423:9 *424:9 0
*RES
1 *921:gpio_ib_mode_sel[34] *424:9 13.1531 
2 *424:9 *424:11 109.776 
3 *424:11 gpio_ib_mode_sel[34] 13.3066 
4 gpio_ib_mode_sel[34] *424:18 0.0687805 
*END

*D_NET *425 0.101877
*CONN
*P gpio_ib_mode_sel[35] O
*I *921:gpio_ib_mode_sel[35] O *D CF_CARAVEL_SOC
*CAP
1 gpio_ib_mode_sel[35] 0.0067949
2 *921:gpio_ib_mode_sel[35] 0.00201158
3 *425:11 0.0171719
4 *425:9 0.0123885
5 gpio_ib_mode_sel[35] gpio_oeb[35] 0.00195235
6 gpio_ib_mode_sel[35] gpio_vtrip_sel[35] 0.00043996
7 gpio_ib_mode_sel[35] *447:17 0
8 gpio_ib_mode_sel[35] *548:23 0.00034597
9 gpio_ib_mode_sel[35] *737:71 0.000381863
10 gpio_ib_mode_sel[35] *757:9 0.000507294
11 gpio_ib_mode_sel[35] *821:21 0
12 *425:9 *426:9 0
13 *425:9 *433:6 0.000284346
14 *425:11 *543:23 0.0114951
15 *425:11 *737:73 0.00767647
16 *425:11 *749:11 0.00392311
17 *425:11 *771:11 0.0030722
18 *425:11 *826:11 0.00241504
19 *425:11 *831:11 0.0113401
20 gpio_dm1[35] gpio_ib_mode_sel[35] 0
21 *382:11 *425:11 0.0148497
22 *386:11 *425:11 0.000105741
23 *388:11 *425:11 0.00454907
24 *418:11 *425:11 0.000171485
*RES
1 *921:gpio_ib_mode_sel[35] *425:9 8.17737 
2 *425:9 *425:11 73.9811 
3 *425:11 gpio_ib_mode_sel[35] 30.0077 
*END

*D_NET *426 0.0633251
*CONN
*P gpio_ib_mode_sel[36] O
*I *921:gpio_ib_mode_sel[36] O *D CF_CARAVEL_SOC
*CAP
1 gpio_ib_mode_sel[36] 0.00344135
2 *921:gpio_ib_mode_sel[36] 0.00515766
3 *426:13 0.00899896
4 *426:9 0.0107153
5 gpio_ib_mode_sel[36] gpio_oeb[36] 0.00304918
6 gpio_ib_mode_sel[36] gpio_vtrip_sel[36] 0
7 gpio_ib_mode_sel[36] *814:9 0.000287882
8 gpio_ib_mode_sel[36] *816:9 0
9 *426:9 gpio_ib_mode_sel[37] 0
10 *426:13 gpio_ib_mode_sel[37] 0.00142822
11 *426:13 *437:11 0.0107021
12 *426:13 *457:11 0.00329321
13 *426:13 *545:15 0.00329321
14 *336:67 *426:13 0.00424008
15 *383:11 *426:13 0.00823814
16 *390:11 *426:13 0.00017952
17 *417:11 *426:13 0.00030029
18 *425:9 *426:9 0
*RES
1 *921:gpio_ib_mode_sel[36] *426:9 14.7762 
2 *426:9 *426:13 43.0874 
3 *426:13 gpio_ib_mode_sel[36] 8.59395 
*END

*D_NET *427 0.0244616
*CONN
*P gpio_ib_mode_sel[37] O
*I *921:gpio_ib_mode_sel[37] O *D CF_CARAVEL_SOC
*CAP
1 gpio_ib_mode_sel[37] 0.0100868
2 *921:gpio_ib_mode_sel[37] 0.0100846
3 *427:18 2.2046e-06
4 gpio_ib_mode_sel[37] gpio_oeb[37] 0.00116456
5 gpio_ib_mode_sel[37] gpio_vtrip_sel[37] 0
6 gpio_ib_mode_sel[37] *428:9 0
7 gpio_ib_mode_sel[37] *455:21 0.000519398
8 *427:18 gpio_oeb[37] 1.7754e-05
9 *390:11 gpio_ib_mode_sel[37] 0.000519398
10 *398:17 gpio_ib_mode_sel[37] 4.88232e-05
11 *417:11 gpio_ib_mode_sel[37] 0.00058992
12 *426:9 gpio_ib_mode_sel[37] 0
13 *426:13 gpio_ib_mode_sel[37] 0.00142822
*RES
1 *921:gpio_ib_mode_sel[37] gpio_ib_mode_sel[37] 31.5138 
2 gpio_ib_mode_sel[37] *427:18 0.057551 
*END

*D_NET *428 0.274243
*CONN
*P gpio_ib_mode_sel[38] O
*I *921:gpio_ib_mode_sel[38] O *D CF_CARAVEL_SOC
*CAP
1 gpio_ib_mode_sel[38] 0.000208631
2 *921:gpio_ib_mode_sel[38] 0.00114095
3 *428:23 0.0118729
4 *428:21 0.0129092
5 *428:11 0.0157368
6 *428:9 0.0156327
7 gpio_ib_mode_sel[38] gpio_oeb[38] 0
8 *428:9 *433:6 0.000284346
9 *428:11 *432:11 0.0463347
10 *428:11 *434:11 0
11 *428:11 *557:29 0.000128966
12 *428:11 *804:11 0.00680734
13 *428:11 *851:15 0
14 *428:11 *851:19 0.00779857
15 *428:21 *460:23 0.000387086
16 *428:21 *546:23 0.000156082
17 *428:21 *548:11 0.000385432
18 *428:21 *552:23 1.01912e-05
19 *428:21 *785:19 0
20 *428:21 *837:15 0.000961469
21 *428:21 *853:17 0
22 *428:21 *863:21 0
23 *428:21 *865:15 0.0022975
24 *428:23 *736:43 0.00409819
25 *428:23 *824:23 0.0677421
26 *428:23 *848:11 0.00681026
27 *428:23 *857:11 0.0027233
28 *428:23 *863:11 0.00243456
29 gpio_analog_en[38] *428:23 0.000202298
30 gpio_ib_mode_sel[37] *428:9 0
31 *207:31 *428:23 0.00488617
32 *251:15 *428:23 0.00202006
33 *284:23 *428:23 0.000168246
34 *284:31 *428:23 0.0353115
35 *284:39 *428:23 0.004949
36 *295:25 *428:11 0.000121594
37 *385:15 *428:23 0.00024442
38 *387:21 *428:23 0.0193318
39 *387:23 *428:23 0.000146255
*RES
1 *921:gpio_ib_mode_sel[38] *428:9 5.97933 
2 *428:9 *428:11 569.17 
3 *428:11 *428:21 47.7761 
4 *428:21 *428:23 107.787 
5 *428:23 gpio_ib_mode_sel[38] 6.74929 
*END

*D_NET *429 0.398161
*CONN
*P gpio_ib_mode_sel[39] O
*I *921:gpio_ib_mode_sel[39] O *D CF_CARAVEL_SOC
*CAP
1 gpio_ib_mode_sel[39] 0.0019502
2 *921:gpio_ib_mode_sel[39] 0.00149257
3 *429:19 0.0211731
4 *429:17 0.0198815
5 *429:11 0.0101029
6 *429:9 0.0109368
7 gpio_ib_mode_sel[39] gpio_oeb[39] 0
8 gpio_ib_mode_sel[39] gpio_vtrip_sel[39] 0
9 *429:9 *431:9 0
10 *429:9 *433:6 0.000207921
11 *429:11 *435:11 0.00377088
12 *429:11 *448:13 0.0352723
13 *429:11 *825:11 3.92183e-05
14 *429:11 *829:11 0.0454319
15 *429:11 *829:29 0.000105874
16 *429:11 *865:15 0
17 *429:17 *825:11 0.00180155
18 *429:17 *825:21 0.000174845
19 *429:17 *829:29 0.0017367
20 *429:17 *854:25 0.000143355
21 *429:17 *854:27 1.21637e-05
22 *429:19 *461:23 0.000678839
23 *429:19 *559:29 0.00146933
24 *429:19 *780:13 0.0606491
25 *429:19 *845:19 0.121675
26 *429:19 *852:25 0.000129773
27 *164:35 *429:19 0.000689247
28 *238:15 *429:19 0.000631381
29 *338:71 *429:19 0.00140877
30 *339:23 *429:19 0.000244473
31 *340:39 *429:19 0.0553703
32 *386:11 *429:11 0.000964378
33 *390:21 *429:17 1.60861e-05
*RES
1 *921:gpio_ib_mode_sel[39] *429:9 7.02587 
2 *429:9 *429:11 558.089 
3 *429:11 *429:17 29.5707 
4 *429:17 *429:19 193.186 
5 *429:19 gpio_ib_mode_sel[39] 31.8832 
*END

*D_NET *430 0.762996
*CONN
*P gpio_ib_mode_sel[3] O
*I *921:gpio_ib_mode_sel[3] O *D CF_CARAVEL_SOC
*CAP
1 gpio_ib_mode_sel[3] 0.000963994
2 *921:gpio_ib_mode_sel[3] 0.00118326
3 *430:35 0.00379085
4 *430:33 0.00282685
5 *430:31 0.0034739
6 *430:29 0.0034739
7 *430:27 0.0129664
8 *430:25 0.0129664
9 *430:23 0.049253
10 *430:21 0.0497879
11 *430:11 0.0135332
12 *430:9 0.0141815
13 gpio_ib_mode_sel[3] gpio_oeb[3] 0
14 gpio_ib_mode_sel[3] gpio_vtrip_sel[3] 0.000690623
15 *430:9 *433:6 0.000360771
16 *430:9 *435:9 0
17 *430:11 *435:11 0
18 *430:11 *542:23 0.000147837
19 *430:11 *785:11 0.00380826
20 *430:11 *804:11 0.00079797
21 *430:11 *837:15 0.00244771
22 *430:11 *845:27 0.00369108
23 *430:11 *847:38 0.00458626
24 *430:11 *865:15 0.0023656
25 *430:21 *467:15 0.000344067
26 *430:21 *471:25 0.00100105
27 *430:21 *842:21 1.37495e-05
28 *430:21 *858:21 0.000327586
29 *430:23 *921:gpio_in[0] 0.000208971
30 *430:23 *921:gpio_in[11] 0.0028618
31 *430:23 *451:25 0.000295467
32 *430:23 *452:15 0
33 *430:23 *550:11 0.0853516
34 *430:23 *737:127 0.000121926
35 *430:23 *793:27 0.27983
36 *430:23 *815:39 0.000634679
37 *430:23 *815:49 0.0109384
38 *430:23 *839:39 0.00234559
39 *430:23 *839:53 0.000506326
40 *430:23 *839:65 0.000992349
41 *430:23 *839:83 0.00121592
42 *430:23 *839:107 0.00108383
43 *430:23 *839:125 0.00107367
44 *430:23 *839:143 0.0031652
45 *430:23 *839:169 0.00206951
46 *430:23 *839:189 0.00101442
47 *430:23 *839:197 0.00242691
48 *430:23 *839:209 0.00313147
49 *430:23 *839:217 0.000282893
50 *430:23 *840:11 0.0120693
51 *430:23 *846:13 5.47908e-05
52 *430:23 *846:33 0.00343117
53 *430:23 *858:11 0
54 *430:27 *445:19 0.000297854
55 *430:27 *562:123 0.0651099
56 *430:35 *782:55 0.00388371
57 *144:11 *430:27 0.00185118
58 *207:19 *430:27 0.00916208
59 *223:11 *430:27 0.00478789
60 *226:11 *430:27 0.000650926
61 *247:11 *430:27 0.0239566
62 *258:19 *430:23 0.0120825
63 *262:11 *430:35 0.000828514
64 *292:15 *430:23 0
65 *293:25 *430:21 0.000195283
66 *308:11 *430:27 0.000229941
67 *344:15 *430:23 0.00787718
68 *397:11 *430:11 0.0276504
69 *408:21 *430:21 6.01404e-05
70 *419:9 *430:9 0.000282268
*RES
1 *921:gpio_ib_mode_sel[3] *430:9 6.5543 
2 *430:9 *430:11 61.3037 
3 *430:11 *430:21 15.7659 
4 *430:21 *430:23 2654.16 
5 *430:23 *430:25 4.5 
6 *430:25 *430:27 808.232 
7 *430:27 *430:29 4.5 
8 *430:29 *430:31 55.1607 
9 *430:31 *430:33 4.5 
10 *430:33 *430:35 78.5982 
11 *430:35 gpio_ib_mode_sel[3] 6.04748 
*END

*D_NET *431 0.508602
*CONN
*P gpio_ib_mode_sel[40] O
*I *921:gpio_ib_mode_sel[40] O *D CF_CARAVEL_SOC
*CAP
1 gpio_ib_mode_sel[40] 0.00246119
2 *921:gpio_ib_mode_sel[40] 0.00114825
3 *431:15 0.0289459
4 *431:13 0.0264847
5 *431:11 0.00794408
6 *431:9 0.00909233
7 gpio_ib_mode_sel[40] gpio_vtrip_sel[40] 0
8 *431:9 *432:9 0
9 *431:9 *433:6 0.000207921
10 *431:11 *432:11 0.0473643
11 *431:11 *542:23 0.0352015
12 *431:11 *804:11 0.0100375
13 *431:11 *853:21 0.0030928
14 *431:11 *853:23 0.00512759
15 *431:15 *432:15 0.00147136
16 *431:15 *452:15 0.00454204
17 *431:15 *466:15 0.108189
18 *431:15 *468:29 0.114684
19 *431:15 *469:15 0.00516555
20 *431:15 *479:15 0.00522333
21 *431:15 *484:15 0.0250882
22 *431:15 *548:11 0.0232722
23 *431:15 *815:49 0.00203939
24 *431:15 *839:125 0.00172687
25 *431:15 *839:143 0.00108853
26 *121:15 *431:15 0.0311573
27 *292:15 *431:15 0.00148661
28 *295:15 *431:15 0.00172354
29 *297:20 gpio_ib_mode_sel[40] 0
30 *299:23 *431:15 0.00463616
31 *429:9 *431:9 0
*RES
1 *921:gpio_ib_mode_sel[40] *431:9 6.01693 
2 *431:9 *431:11 581.768 
3 *431:11 *431:13 3.41 
4 *431:13 *431:15 235.056 
5 *431:15 gpio_ib_mode_sel[40] 39.6332 
*END

*D_NET *432 0.565035
*CONN
*P gpio_ib_mode_sel[41] O
*I *921:gpio_ib_mode_sel[41] O *D CF_CARAVEL_SOC
*CAP
1 gpio_ib_mode_sel[41] 0.00233226
2 *921:gpio_ib_mode_sel[41] 0.0011138
3 *432:15 0.0295279
4 *432:13 0.0271956
5 *432:11 0.00819444
6 *432:9 0.00930823
7 gpio_ib_mode_sel[41] gpio_vtrip_sel[41] 0
8 *432:9 *433:6 0.000207921
9 *432:11 *434:11 0
10 *432:11 *542:23 0.000282057
11 *432:11 *804:11 0.00692222
12 *432:11 *853:21 4.07379e-05
13 *432:15 *434:15 0.0619525
14 *432:15 *459:25 0.0187184
15 *432:15 *468:29 0.11465
16 *432:15 *470:15 0.000498992
17 *432:15 *842:11 0.017365
18 *121:15 *432:15 0.0584984
19 *295:25 *432:11 3.22265e-05
20 *296:23 *432:15 0.113024
21 *428:11 *432:11 0.0463347
22 *431:9 *432:9 0
23 *431:11 *432:11 0.0473643
24 *431:15 *432:15 0.00147136
*RES
1 *921:gpio_ib_mode_sel[41] *432:9 5.94487 
2 *432:9 *432:11 589.054 
3 *432:11 *432:13 3.41 
4 *432:13 *432:15 278.08 
5 *432:15 gpio_ib_mode_sel[41] 37.5796 
*END

*D_NET *433 0.523846
*CONN
*P gpio_ib_mode_sel[42] O
*I *921:gpio_ib_mode_sel[42] O *D CF_CARAVEL_SOC
*CAP
1 gpio_ib_mode_sel[42] 8.9648e-05
2 *921:gpio_ib_mode_sel[42] 0
3 *433:22 0.00106952
4 *433:10 0.0398169
5 *433:8 0.0388371
6 *433:6 0.0236184
7 *433:4 0.0236184
8 *433:6 *921:mask_rev[0] 0.000284346
9 *433:6 *921:mask_rev[26] 0.000360771
10 *433:6 *921:mask_rev[27] 0.000360771
11 *433:6 *921:mask_rev[28] 0.000360771
12 *433:6 *921:mask_rev[29] 0.000360771
13 *433:6 *921:mask_rev[2] 0.000207921
14 *433:6 *921:mask_rev[30] 0.000360771
15 *433:6 *921:mask_rev[31] 0.000360771
16 *433:6 *921:mask_rev[3] 0.000207921
17 *433:6 *921:mask_rev[5] 0.000207921
18 *433:6 *921:mask_rev[6] 0.000207921
19 *433:6 *921:mask_rev[7] 0.000231709
20 *433:6 *921:mask_rev[8] 0.0158151
21 *433:6 *921:resetb_l 0.000360771
22 *433:6 *435:9 0.000360771
23 *433:6 *783:11 0.00931549
24 *433:6 *784:9 0.0286297
25 *433:6 *843:15 0.00286221
26 *433:6 *844:17 0.00392321
27 *433:10 *478:9 0.0554076
28 *433:10 *560:27 0.0677986
29 *433:10 *561:18 0.0138393
30 *433:10 *781:23 0.0328125
31 *433:10 *783:15 0.000882444
32 *433:10 *784:21 0.000179039
33 *433:10 *829:35 0.0712691
34 *433:10 *829:43 0.0243012
35 *433:10 *844:13 0.00106576
36 *433:10 *859:19 0.0528383
37 *433:22 gpio_inp_dis[42] 6.74345e-05
38 *433:22 gpio_vtrip_sel[42] 0
39 *433:22 *560:27 0.000223549
40 *433:22 *786:23 0.00303608
41 *433:22 *804:23 0
42 *433:22 *829:43 0.00273532
43 *345:27 *433:22 0.000233711
44 *397:9 *433:6 0.000360771
45 *399:9 *433:6 0.000207921
46 *400:9 *433:6 0.000207921
47 *401:9 *433:6 0.000207921
48 *403:9 *433:6 0.000207921
49 *405:9 *433:6 0.000207921
50 *406:9 *433:6 0.000284346
51 *407:9 *433:6 0.000284346
52 *408:9 *433:6 0.000360771
53 *413:9 *433:6 0.000360771
54 *416:9 *433:6 0.000360771
55 *418:9 *433:6 0.000360771
56 *423:9 *433:6 0.000360771
57 *425:9 *433:6 0.000284346
58 *428:9 *433:6 0.000284346
59 *429:9 *433:6 0.000207921
60 *430:9 *433:6 0.000360771
61 *431:9 *433:6 0.000207921
62 *432:9 *433:6 0.000207921
*RES
1 *921:gpio_ib_mode_sel[42] *433:4 3.41 
2 *433:4 *433:6 109.297 
3 *433:6 *433:8 3.41 
4 *433:8 *433:10 313.573 
5 *433:10 *433:22 48.9993 
6 *433:22 gpio_ib_mode_sel[42] 1.4375 
*END

*D_NET *434 0.46665
*CONN
*P gpio_ib_mode_sel[43] O
*I *921:gpio_ib_mode_sel[43] O *D CF_CARAVEL_SOC
*CAP
1 gpio_ib_mode_sel[43] 0.00212526
2 *921:gpio_ib_mode_sel[43] 0.000803432
3 *434:23 0.0504849
4 *434:21 0.0485049
5 *434:15 0.00985467
6 *434:13 0.00970944
7 *434:11 0.0177676
8 *434:9 0.018571
9 gpio_ib_mode_sel[43] gpio_vtrip_sel[43] 0
10 gpio_ib_mode_sel[43] *692:33 0
11 *434:9 *793:9 0
12 *434:11 *454:41 0.00504359
13 *434:11 *542:23 0
14 *434:11 *828:11 0
15 *434:11 *849:15 0.0218558
16 *434:11 *850:23 0.000282057
17 *434:11 *851:19 0
18 *434:11 *858:23 0.00148787
19 *434:11 *868:15 0.0164152
20 *434:15 *450:33 0.0111485
21 *434:15 *456:31 0.0129954
22 *434:15 *470:15 0.0619525
23 *434:23 *474:15 0.059422
24 *434:23 *543:11 0.0148726
25 *434:23 *771:27 0
26 *434:23 *847:16 0.0103908
27 *165:23 *434:23 0.00965663
28 *169:15 *434:23 0.00584042
29 *325:101 *434:21 0
30 *399:11 *434:11 0.00302592
31 *403:11 *434:11 0.000590539
32 *406:11 *434:11 0.000269483
33 *407:11 *434:11 0.0116274
34 *428:11 *434:11 0
35 *432:11 *434:11 0
36 *432:15 *434:15 0.0619525
*RES
1 *921:gpio_ib_mode_sel[43] *434:9 5.2618 
2 *434:9 *434:11 602.411 
3 *434:11 *434:13 3.41 
4 *434:13 *434:15 97.9856 
5 *434:15 *434:21 10.3118 
6 *434:21 *434:23 1512.79 
7 *434:23 gpio_ib_mode_sel[43] 35.25 
*END

*D_NET *435 0.784136
*CONN
*P gpio_ib_mode_sel[4] O
*I *921:gpio_ib_mode_sel[4] O *D CF_CARAVEL_SOC
*CAP
1 gpio_ib_mode_sel[4] 0.000807232
2 *921:gpio_ib_mode_sel[4] 0.00162538
3 *435:35 0.00424502
4 *435:33 0.0054874
5 *435:27 0.0217249
6 *435:25 0.0196753
7 *435:23 0.0815496
8 *435:21 0.08183
9 *435:11 0.0163329
10 *435:9 0.0176779
11 gpio_ib_mode_sel[4] gpio_oeb[4] 0
12 gpio_ib_mode_sel[4] gpio_vtrip_sel[4] 0.0013789
13 *435:11 *448:13 0.000375969
14 *435:11 *448:31 0.0115092
15 *435:11 *449:29 0.00409577
16 *435:11 *543:23 0
17 *435:11 *804:11 0
18 *435:11 *825:11 0.00562497
19 *435:11 *826:11 0.00136149
20 *435:11 *829:11 0.00651472
21 *435:11 *854:27 0.00249753
22 *435:21 *465:21 1.46799e-05
23 *435:21 *851:15 5.50372e-05
24 *435:21 *853:17 0
25 *435:23 *553:13 0.237429
26 *435:23 *570:22 0.0113757
27 *435:23 *749:27 0
28 *435:23 *760:31 0.000330931
29 *435:23 *841:11 0.0408481
30 *435:27 *481:11 0.0819275
31 *435:27 *771:31 0.0521931
32 *435:35 *782:55 0.00817945
33 *133:11 *435:27 0.0128483
34 *169:11 *435:27 0
35 *207:39 *435:23 0.0231466
36 *208:29 *435:23 0.0169911
37 *224:19 *435:27 0
38 *353:29 *435:21 0.000948052
39 *386:11 *435:11 0.00845836
40 *388:21 *435:21 0.00094394
41 *429:11 *435:11 0.00377088
42 *430:9 *435:9 0
43 *430:11 *435:11 0
44 *433:6 *435:9 0.000360771
*RES
1 *921:gpio_ib_mode_sel[4] *435:9 7.4191 
2 *435:9 *435:11 66.7369 
3 *435:11 *435:21 14.3354 
4 *435:21 *435:23 2683.32 
5 *435:23 *435:25 4.5 
6 *435:25 *435:27 1007.68 
7 *435:27 *435:33 41.1607 
8 *435:33 *435:35 102.277 
9 *435:35 gpio_ib_mode_sel[4] 5.82188 
*END

*D_NET *436 0.847409
*CONN
*P gpio_ib_mode_sel[5] O
*I *921:gpio_ib_mode_sel[5] O *D CF_CARAVEL_SOC
*CAP
1 gpio_ib_mode_sel[5] 0.00193502
2 *921:gpio_ib_mode_sel[5] 0.00812299
3 *436:27 0.00602621
4 *436:25 0.00409119
5 *436:23 0.0880433
6 *436:21 0.0880433
7 *436:19 0.0130281
8 *436:17 0.0211511
9 gpio_ib_mode_sel[5] gpio_oeb[5] 0.000343566
10 gpio_ib_mode_sel[5] gpio_vtrip_sel[5] 0.000520633
11 *436:17 *437:9 0
12 *436:17 *467:11 0.00182336
13 *436:17 *552:25 0.00293851
14 *436:17 *737:81 0.00195074
15 *436:17 *815:11 0.0137159
16 *436:19 *451:21 0.063586
17 *436:19 *453:25 0.00697799
18 *436:19 *467:11 0.00338368
19 *436:19 *735:23 0.0749029
20 *436:19 *815:11 0.00140348
21 *436:23 *539:187 0
22 *436:23 *694:6 0.00322185
23 *436:23 *727:11 0.00112605
24 *436:23 *734:11 0.045239
25 *436:23 *738:11 0.00207836
26 *436:23 *740:11 0.0556372
27 *436:23 *743:11 0.265025
28 *436:23 *808:25 0.00409321
29 *436:27 *571:39 0.0182538
30 *436:27 *782:39 0.00570088
31 *115:33 *436:23 9.58126e-05
32 *157:37 *436:23 0.000152412
33 *161:15 *436:23 0.00481379
34 *162:15 *436:23 0.00309548
35 *198:15 *436:23 0.000248427
36 *204:31 *436:23 0
37 *206:43 *436:27 0.00983958
38 *242:15 *436:23 0
39 *247:19 *436:19 0.00976976
40 *283:11 *436:27 0
41 *295:27 *436:17 0
42 *315:25 *436:23 0.00265886
43 *322:313 *436:23 0
44 *326:15 *436:23 0
45 *363:11 *436:19 0.000197955
46 *374:11 *436:19 0.00349836
47 *380:13 *436:19 0.00125978
48 *385:11 *436:19 2.14001e-05
49 *392:57 *436:27 0.000541966
50 *414:11 *436:17 0.00175759
51 *421:9 *436:17 1.17412e-05
52 *421:11 *436:17 0.000282331
53 *421:11 *436:19 0.00679042
54 *422:9 *436:17 1.01122e-05
*RES
1 *921:gpio_ib_mode_sel[5] *436:17 45.5615 
2 *436:17 *436:19 992.045 
3 *436:19 *436:21 4.5 
4 *436:21 *436:23 2729.32 
5 *436:23 *436:25 4.5 
6 *436:25 *436:27 228.259 
7 *436:27 gpio_ib_mode_sel[5] 8.19538 
*END

*D_NET *437 0.775225
*CONN
*P gpio_ib_mode_sel[6] O
*I *921:gpio_ib_mode_sel[6] O *D CF_CARAVEL_SOC
*CAP
1 gpio_ib_mode_sel[6] 0.00305564
2 *921:gpio_ib_mode_sel[6] 0.00491028
3 *437:31 0.089795
4 *437:29 0.0886834
5 *437:19 0.0169636
6 *437:17 0.0151313
7 *437:11 0.0229893
8 *437:9 0.0277878
9 gpio_ib_mode_sel[6] gpio_oeb[6] 0.00326072
10 gpio_ib_mode_sel[6] gpio_vtrip_sel[6] 0.000590791
11 *437:11 *457:11 0.00297806
12 *437:11 *545:15 0.00214141
13 *437:11 *769:11 0.000387693
14 *437:11 *817:11 0.0117959
15 *437:11 *823:13 0.00247705
16 *437:19 *457:11 0.0392243
17 *437:19 *737:55 0
18 *437:19 *769:11 0.00729365
19 *437:29 *736:21 0.000972795
20 *437:29 *790:11 2.11419e-05
21 *437:31 *544:29 0
22 *437:31 *688:11 0.00451247
23 *437:31 *744:11 0.118938
24 *115:15 *437:31 0.281388
25 *140:73 *437:31 0.000740613
26 *162:25 *437:29 0.000596747
27 *163:33 *437:29 0.0041346
28 *195:15 *437:31 0
29 *205:49 gpio_ib_mode_sel[6] 0.00263339
30 *205:65 *437:11 0.000540065
31 *273:11 gpio_ib_mode_sel[6] 0
32 *291:15 *437:31 0.000898084
33 *336:67 *437:11 0.00214141
34 *355:11 *437:29 1.94879e-05
35 *383:11 *437:11 0.000116442
36 *393:23 *437:31 0.000260964
37 *398:11 *437:11 0.0064674
38 *412:11 *437:11 0.000675852
39 *412:11 *437:19 0
40 *422:11 *437:11 0
41 *426:13 *437:11 0.0107021
42 *436:17 *437:9 0
*RES
1 *921:gpio_ib_mode_sel[6] *437:9 15.0644 
2 *437:9 *437:11 117.979 
3 *437:11 *437:17 7.04717 
4 *437:17 *437:19 480.982 
5 *437:19 *437:29 18.5622 
6 *437:29 *437:31 2710.84 
7 *437:31 gpio_ib_mode_sel[6] 46.7292 
*END

*D_NET *438 1.03219
*CONN
*P gpio_ib_mode_sel[7] O
*I *921:gpio_ib_mode_sel[7] O *D CF_CARAVEL_SOC
*CAP
1 gpio_ib_mode_sel[7] 0.00758869
2 *921:gpio_ib_mode_sel[7] 0.00624757
3 *438:27 0.0200574
4 *438:25 0.0124687
5 *438:23 0.0357049
6 *438:21 0.0357049
7 *438:19 0.0143895
8 *438:17 0.0206371
9 gpio_ib_mode_sel[7] *702:13 0.000774475
10 gpio_ib_mode_sel[7] *834:15 0.0103562
11 *438:17 *439:9 0
12 *438:19 *555:17 0.0055419
13 *438:19 *755:11 0.0489144
14 *438:19 *793:11 0.00108299
15 *438:19 *827:11 0.0252393
16 *438:23 *759:15 0.0179453
17 *292:27 *438:17 0.00571694
18 *334:36 *438:23 0.265677
19 *353:11 *438:17 0.00509471
20 *357:19 *438:19 0.0079018
21 *358:17 *438:19 0.00020996
22 *361:11 *438:19 0.00255947
23 *361:33 *438:23 0.0374271
24 *370:11 *438:19 1.96685e-05
25 *389:11 *438:19 0.0697849
26 *394:15 *438:23 5.44456e-05
27 *394:19 *438:27 0.0321568
28 *395:23 *438:23 0.297089
29 *395:27 *438:27 0.0327374
30 *416:11 *438:17 0.00273444
31 *423:11 *438:19 0.0103713
*RES
1 *921:gpio_ib_mode_sel[7] *438:17 44.2423 
2 *438:17 *438:19 1032.27 
3 *438:19 *438:21 3.41 
4 *438:21 *438:23 459.4 
5 *438:23 *438:25 3.41 
6 *438:25 *438:27 711.696 
7 *438:27 gpio_ib_mode_sel[7] 27.3636 
*END

*D_NET *439 0.84569
*CONN
*P gpio_ib_mode_sel[8] O
*I *921:gpio_ib_mode_sel[8] O *D CF_CARAVEL_SOC
*CAP
1 gpio_ib_mode_sel[8] 0.0014499
2 *921:gpio_ib_mode_sel[8] 0.00771906
3 *439:15 0.102203
4 *439:13 0.100753
5 *439:11 0.0476813
6 *439:9 0.0554003
7 gpio_ib_mode_sel[8] *703:11 0
8 gpio_ib_mode_sel[8] *835:15 0.000971318
9 *439:9 *440:17 0
10 *439:11 *446:11 0.0975526
11 *439:11 *447:17 0.0315273
12 *439:11 *461:11 0
13 *439:11 *776:11 0.0113862
14 *439:11 *782:11 0.0520336
15 *439:11 *810:11 0.0298224
16 *439:15 *835:15 0.30719
17 *268:11 gpio_ib_mode_sel[8] 0
18 *311:11 gpio_ib_mode_sel[8] 0
19 *438:17 *439:9 0
*RES
1 *921:gpio_ib_mode_sel[8] *439:9 20.9379 
2 *439:9 *439:11 2095.98 
3 *439:11 *439:13 3.41 
4 *439:13 *439:15 490.965 
5 *439:15 gpio_ib_mode_sel[8] 12.3846 
*END

*D_NET *440 1.01931
*CONN
*P gpio_ib_mode_sel[9] O
*I *921:gpio_ib_mode_sel[9] O *D CF_CARAVEL_SOC
*CAP
1 gpio_ib_mode_sel[9] 0.00652178
2 *921:gpio_ib_mode_sel[9] 0.014836
3 *440:35 0.0449526
4 *440:33 0.0384308
5 *440:31 0.0428651
6 *440:29 0.0431661
7 *440:23 0.0122102
8 *440:21 0.0119092
9 *440:19 0.0183837
10 *440:17 0.0332196
11 gpio_ib_mode_sel[9] gpio_oeb[9] 0.000578841
12 gpio_ib_mode_sel[9] *704:11 0.0125183
13 *440:19 *689:15 0.000736203
14 *440:19 *762:11 0
15 *440:19 *770:11 0.0413014
16 *440:19 *833:11 0.0702096
17 *440:23 *730:19 0.019004
18 *440:23 *754:21 0.000927638
19 *440:31 *753:15 0.249092
20 *440:31 *755:15 0
21 *440:31 *757:15 0.171675
22 *440:31 *759:15 0.0183833
23 *118:211 *440:19 0.000130827
24 *148:13 *440:23 0
25 *283:27 *440:35 0.0236881
26 *290:15 *440:23 0
27 *322:277 *440:19 0.00772917
28 *334:36 *440:31 0.030101
29 *338:83 *440:19 0.020725
30 *361:33 *440:23 0.00546276
31 *387:11 *440:19 0.00682824
32 *395:27 *440:35 0.0736724
33 *398:11 *440:17 0
34 *424:9 *440:17 4.73393e-05
35 *439:9 *440:17 0
*RES
1 *921:gpio_ib_mode_sel[9] *440:17 46.7083 
2 *440:17 *440:19 1023.16 
3 *440:19 *440:21 3.41 
4 *440:21 *440:23 52.3674 
5 *440:23 *440:29 12.7404 
6 *440:29 *440:31 2337.91 
7 *440:31 *440:33 4.5 
8 *440:33 *440:35 1116.81 
9 *440:35 gpio_ib_mode_sel[9] 26.7651 
*END

*D_NET *441 0.727894
*CONN
*P gpio_in[0] I
*I *921:gpio_in[0] I *D CF_CARAVEL_SOC
*CAP
1 gpio_in[0] 0.00693041
2 *921:gpio_in[0] 0.0029174
3 *441:19 0.00408503
4 *441:17 0.00119141
5 *441:15 0.0314301
6 *441:13 0.0314064
7 *441:11 0.00293829
8 *441:9 0.0098687
9 *921:gpio_in[0] *451:25 0.0033534
10 *921:gpio_in[0] *737:117 0.000169454
11 *921:gpio_in[0] *793:27 0.00310984
12 *921:gpio_in[0] *839:217 0.000606866
13 *921:gpio_in[0] *846:33 0.0144171
14 *921:gpio_in[0] *858:21 5.46709e-05
15 *921:gpio_in[0] *866:17 0.0155553
16 *441:11 *540:38 0.000180157
17 *441:11 *551:125 0.0168232
18 *441:15 *442:15 0.243227
19 *441:15 *463:15 0.254315
20 *441:15 *557:19 0.00411449
21 *441:15 *840:19 0.00456952
22 *441:19 *463:15 0.0021127
23 *441:19 *471:27 0.00109596
24 *441:19 *557:19 0.00372851
25 *441:19 *739:68 0.00295574
26 *256:11 *441:11 0.000184591
27 *339:11 *441:11 0.0177133
28 *346:15 *441:15 0.012364
29 *408:23 *441:15 0.0362664
30 *430:23 *921:gpio_in[0] 0.000208971
*RES
1 gpio_in[0] *441:9 19.5522 
2 *441:9 *441:11 217.33 
3 *441:11 *441:13 4.5 
4 *441:13 *441:15 2406.71 
5 *441:15 *441:17 0.428571 
6 *441:17 *441:19 64.8125 
7 *441:19 *921:gpio_in[0] 45.9679 
*END

*D_NET *442 0.931312
*CONN
*P gpio_in[10] I
*I *921:gpio_in[10] I *D CF_CARAVEL_SOC
*CAP
1 gpio_in[10] 0.0053799
2 *921:gpio_in[10] 0.000761959
3 *442:15 0.0364335
4 *442:13 0.0356716
5 *442:11 0.089268
6 *442:9 0.0946479
7 *921:gpio_in[10] *556:29 0.00147119
8 *921:gpio_in[10] *826:27 0.000157779
9 *921:gpio_in[10] *840:19 0.0014418
10 *921:gpio_in[10] *873:15 0
11 *442:11 *445:19 0.00873745
12 *442:11 *705:39 0.102514
13 *442:15 *463:15 0.000397606
14 *442:15 *471:27 0.0187182
15 *442:15 *531:24 0.0503795
16 *442:15 *534:11 0.00551541
17 *442:15 *557:19 0.0984421
18 gpio_dm0[0] *442:11 0.000113602
19 *106:11 *442:11 0.0537846
20 *119:11 *442:11 0
21 *123:15 *442:15 0.0313785
22 *226:11 *442:11 0.0487941
23 *247:11 *442:11 0
24 *325:137 *921:gpio_in[10] 2.41929e-05
25 *408:23 *442:15 0.00405231
26 *441:15 *442:15 0.243227
*RES
1 gpio_in[10] *442:9 16.0522 
2 *442:9 *442:11 2823.49 
3 *442:11 *442:13 4.5 
4 *442:13 *442:15 2319.43 
5 *442:15 *921:gpio_in[10] 20.0921 
*END

*D_NET *443 0.892942
*CONN
*P gpio_in[11] I
*I *921:gpio_in[11] I *D CF_CARAVEL_SOC
*CAP
1 gpio_in[11] 0.00605326
2 *921:gpio_in[11] 0.00436945
3 *443:31 0.0456916
4 *443:29 0.0414671
5 *443:19 0.0355337
6 *443:17 0.0354313
7 *443:11 0.086069
8 *443:9 0.0920797
9 *921:gpio_in[11] *793:27 0.00322132
10 *921:gpio_in[11] *839:197 0.00893858
11 *921:gpio_in[11] *839:209 0.000510245
12 *921:gpio_in[11] *866:17 0.0161518
13 *443:11 *570:26 0.125246
14 *443:19 *569:22 0.00640747
15 *443:19 *570:26 0.00922757
16 *443:19 *572:28 0.0237377
17 *443:19 *661:19 0.00591603
18 *443:19 *698:23 0.0030449
19 *443:29 *444:15 2.00423e-05
20 *443:29 *815:49 3.64867e-05
21 *443:31 *451:25 0.000879195
22 *443:31 *457:23 0.0244832
23 *443:31 *458:23 0.00171721
24 *443:31 *531:24 0.00010564
25 *443:31 *534:11 0.0520778
26 *443:31 *557:19 0.0384181
27 *443:31 *793:27 0.123557
28 *443:31 *815:49 0.01075
29 *443:31 *866:17 0.0245896
30 gpio_dm1[0] *443:19 0
31 gpio_dm2[1] *443:19 0
32 *92:11 *443:11 0.0288136
33 *95:11 *443:11 0
34 *96:11 *443:11 0
35 *105:11 *443:11 0.00516364
36 *125:11 *443:11 0
37 *125:11 *443:19 0.00473091
38 *309:11 *443:19 0
39 *322:27 *443:19 0.00117933
40 *322:235 *921:gpio_in[11] 0.000102649
41 *335:13 *443:11 1.02504e-05
42 *335:13 *443:19 0.0103271
43 *336:11 *443:19 0.00473091
44 *336:11 *443:29 4.51803e-05
45 *338:11 *443:11 0.000388889
46 *338:11 *443:19 0.00836378
47 *338:17 *443:19 0.000432731
48 *338:17 *443:29 4.36699e-05
49 *350:11 *443:19 0
50 *397:55 *921:gpio_in[11] 1.68854e-05
51 *430:23 *921:gpio_in[11] 0.0028618
*RES
1 gpio_in[11] *443:9 17.8319 
2 *443:9 *443:11 2310.3 
3 *443:11 *443:17 6.90303 
4 *443:17 *443:19 124.904 
5 *443:19 *443:29 12.1996 
6 *443:29 *443:31 2145.7 
7 *443:31 *921:gpio_in[11] 49.7632 
*END

*D_NET *444 0.968371
*CONN
*P gpio_in[12] I
*I *921:gpio_in[12] I *D CF_CARAVEL_SOC
*CAP
1 gpio_in[12] 0.00452682
2 *921:gpio_in[12] 0.00383645
3 *444:71 0.0127773
4 *444:69 0.00907055
5 *444:63 0.00541604
6 *444:61 0.00531186
7 *444:55 0.0196516
8 *444:53 0.0213943
9 *444:39 0.00284696
10 *444:37 0.00389954
11 *444:23 0.00393403
12 *444:21 0.00126894
13 *444:15 0.0106212
14 *444:13 0.0104655
15 *444:11 0.107291
16 *444:9 0.111818
17 *921:gpio_in[12] *921:gpio_in[16] 0.00496666
18 *921:gpio_in[12] *739:108 8.29494e-05
19 *921:gpio_in[12] *826:27 0.00295245
20 *444:9 *752:15 0
21 *444:11 *484:11 0.213813
22 *444:11 *788:19 0
23 *444:15 *529:9 0.0438088
24 *444:15 *815:49 0
25 *444:23 *533:102 0.00101911
26 *444:23 *696:95 1.00073e-05
27 *444:23 *740:95 0.00802327
28 *444:37 *529:9 0.0029801
29 *444:37 *530:75 0
30 *444:37 *532:30 6.53083e-05
31 *444:37 *535:91 0
32 *444:37 *567:14 0.00154391
33 *444:37 *568:11 0.00161576
34 *444:37 *569:18 0.000551534
35 *444:37 *572:16 0.00153612
36 *444:37 *696:95 0.000683647
37 *444:37 *826:117 0
38 *444:39 *532:16 0.00840684
39 *444:53 *535:59 0.000104672
40 *444:53 *536:33 0.00871995
41 *444:53 *562:89 0
42 *444:53 *696:95 0.00104049
43 *444:53 *741:160 0.00162542
44 *444:55 *532:16 0.0189303
45 *444:55 *537:12 0.000984416
46 *444:55 *541:27 0.0627892
47 *444:55 *556:11 0
48 *444:55 *572:16 0.00344966
49 *444:55 *826:47 0
50 *444:61 *539:61 5.53931e-05
51 *444:61 *826:45 6.75178e-05
52 *444:63 gpio_out[39] 0.00606059
53 *444:63 *472:55 0.0120929
54 *444:63 *539:63 0.0318436
55 *444:71 *472:55 0.00411823
56 *444:71 *556:11 0.000354504
57 *444:71 *693:173 0.000201981
58 *444:71 *826:27 0.00303837
59 gpio_analog_sel[43] *444:15 0.00847631
60 gpio_analog_sel[43] *444:37 0.0018259
61 *103:11 *444:11 0
62 *115:11 *444:11 0
63 *118:39 *444:23 0.000184646
64 *118:57 *444:37 0.00095653
65 *118:65 *444:39 0.00033296
66 *118:75 *444:53 0.00121529
67 *118:179 *444:71 0.00109189
68 *125:15 *444:23 0.00955186
69 *125:15 *444:39 0.00901625
70 *125:15 *444:55 0.0183189
71 *155:11 *444:11 0.00536271
72 *180:11 *444:11 0.0402309
73 *225:19 *444:11 0
74 *243:11 *444:11 0.0096401
75 *246:11 *444:11 0
76 *270:19 *444:11 0
77 *293:15 *444:71 0.00335156
78 *310:11 *444:11 0.0113262
79 *322:77 *444:21 0.000248691
80 *322:123 *444:55 0.00166478
81 *322:173 *444:61 4.22135e-06
82 *322:207 *444:71 0.000106699
83 *325:39 *444:53 0.00143244
84 *325:51 *444:53 8.6229e-06
85 *325:115 *921:gpio_in[12] 6.49544e-05
86 *338:35 *444:55 0.0103442
87 *338:63 *444:63 0.00118109
88 *346:15 *444:15 0.0124821
89 *386:77 *921:gpio_in[12] 0
90 *397:55 *921:gpio_in[12] 0.00198283
91 *397:71 *444:71 0.000327381
92 *397:79 *444:71 0.0196598
93 *419:23 *444:71 0.0162936
94 *443:29 *444:15 2.00423e-05
*RES
1 gpio_in[12] *444:9 14.0782 
2 *444:9 *444:11 3222.23 
3 *444:11 *444:13 3.41 
4 *444:13 *444:15 68.15 
5 *444:15 *444:21 11.2225 
6 *444:21 *444:23 89.6607 
7 *444:23 *444:37 29.5259 
8 *444:37 *444:39 84.7321 
9 *444:39 *444:53 29.7529 
10 *444:53 *444:55 841.268 
11 *444:55 *444:61 8.79393 
12 *444:61 *444:63 49.1244 
13 *444:63 *444:69 10.0082 
14 *444:69 *444:71 343.893 
15 *444:71 *921:gpio_in[12] 35.2159 
*END

*D_NET *445 1.13492
*CONN
*P gpio_in[13] I
*I *921:gpio_in[13] I *D CF_CARAVEL_SOC
*CAP
1 gpio_in[13] 0.00318006
2 *921:gpio_in[13] 0.00161203
3 *445:23 0.0316099
4 *445:21 0.0299979
5 *445:19 0.0158645
6 *445:17 0.0178699
7 *445:11 0.0715914
8 *445:9 0.0727661
9 *445:9 gpio_slow_sel[13] 0
10 *445:11 *692:23 0.0011536
11 *445:11 *787:19 0.000247495
12 *445:11 *832:51 0.0102253
13 *445:19 *562:123 0.0304276
14 *445:19 *705:39 0.00926999
15 *445:19 *716:15 0.0344823
16 *445:19 *727:15 0.0183562
17 *445:23 *481:15 0.22774
18 *445:23 *482:15 0.000110951
19 *445:23 *483:23 0.0201688
20 *445:23 *547:13 0.00534512
21 *445:23 *555:13 0.200137
22 *445:23 *837:11 0.0520093
23 *90:11 *445:19 0.00118079
24 *119:11 *445:19 0
25 *178:19 *445:11 0.0392319
26 *207:19 *445:19 0
27 *226:11 *445:19 0.00134956
28 *267:23 *445:11 0
29 *274:69 *445:11 0.00319565
30 *308:11 *445:19 0.00596032
31 *313:11 *445:11 0.218522
32 *321:47 *445:11 0.00227906
33 *430:27 *445:19 0.000297854
34 *442:11 *445:19 0.00873745
*RES
1 gpio_in[13] *445:9 10.3022 
2 *445:9 *445:11 2727.26 
3 *445:11 *445:17 39.5179 
4 *445:17 *445:19 916.607 
5 *445:19 *445:21 4.5 
6 *445:21 *445:23 2247.14 
7 *445:23 *921:gpio_in[13] 27.5089 
*END

*D_NET *446 1.07555
*CONN
*P gpio_in[14] I
*I *921:gpio_in[14] I *D CF_CARAVEL_SOC
*CAP
1 gpio_in[14] 0.000221393
2 *921:gpio_in[14] 0.00247794
3 *446:27 0.0110413
4 *446:25 0.00960025
5 *446:19 0.0400865
6 *446:17 0.0416862
7 *446:11 0.0725895
8 *446:9 0.069953
9 *446:7 0.156146
10 *446:5 0.156368
11 *446:11 gpio_oeb[29] 0.000299594
12 *446:11 *447:17 0.221028
13 *446:11 *810:11 0
14 *446:19 *455:21 0
15 *446:19 *470:11 0
16 *446:19 *693:79 0
17 *446:19 *693:83 0
18 *446:19 *763:11 0
19 *446:19 *774:11 0.0159185
20 *446:19 *775:11 0.0154321
21 *446:19 *779:11 0.010236
22 *446:25 *455:21 0
23 *446:25 *544:17 0
24 *446:27 *447:21 0.051695
25 *446:27 *546:23 0.000722054
26 *446:27 *825:23 0.010112
27 *446:27 *844:13 0.0249699
28 *119:27 *446:25 0.00010693
29 *149:39 *446:7 0
30 *238:25 *446:25 2.11419e-05
31 *250:23 *446:27 0.000207555
32 *289:33 *446:25 8.83294e-05
33 *294:27 *446:19 0.0667863
34 *294:27 *446:25 0.00020708
35 *439:11 *446:11 0.0975526
*RES
1 gpio_in[14] *446:5 0.743383 
2 *446:5 *446:7 494.075 
3 *446:7 *446:9 3.41 
4 *446:9 *446:11 2757.62 
5 *446:11 *446:17 49.7857 
6 *446:17 *446:19 1272.1 
7 *446:19 *446:25 25.7946 
8 *446:25 *446:27 489.286 
9 *446:27 *921:gpio_in[14] 40.0804 
*END

*D_NET *447 1.18483
*CONN
*P gpio_in[15] I
*I *921:gpio_in[15] I *D CF_CARAVEL_SOC
*CAP
1 gpio_in[15] 0.00101629
2 *921:gpio_in[15] 0.0024333
3 *447:21 0.0118118
4 *447:19 0.00937852
5 *447:17 0.152422
6 *447:15 0.152422
7 *447:13 0.0949314
8 *447:11 0.0959477
9 *447:17 *461:11 0
10 *447:17 *462:11 0
11 *447:17 *547:25 0
12 *447:17 *548:23 0
13 *447:17 *693:39 0
14 *447:17 *776:11 0.0113848
15 *447:17 *811:11 0
16 *447:21 *453:49 0.0520236
17 *447:21 *546:23 0.000667956
18 *447:21 *825:23 0.0114629
19 *447:21 *844:13 0.00116658
20 gpio_analog_en[32] *447:17 0
21 gpio_analog_pol[30] *447:17 0
22 gpio_analog_sel[29] *447:17 0
23 gpio_analog_sel[32] *447:17 0
24 gpio_dm2[37] *447:17 0
25 gpio_ib_mode_sel[35] *447:17 0
26 *360:15 *447:13 0.220009
27 *362:15 *447:13 0.0628861
28 *381:11 *447:17 0
29 *381:15 *447:17 0
30 *397:55 *921:gpio_in[15] 8.78568e-05
31 *404:23 *447:13 0
32 *409:15 *447:13 0.000528351
33 *439:11 *447:17 0.0315273
34 *446:11 *447:17 0.221028
35 *446:27 *447:21 0.051695
*RES
1 gpio_in[15] *447:11 25.5089 
2 *447:11 *447:13 2661.55 
3 *447:13 *447:15 4.5 
4 *447:15 *447:17 4224.93 
5 *447:17 *447:19 4.5 
6 *447:19 *447:21 558.696 
7 *447:21 *921:gpio_in[15] 39.7768 
*END

*D_NET *448 1.14105
*CONN
*P gpio_in[16] I
*I *921:gpio_in[16] I *D CF_CARAVEL_SOC
*CAP
1 gpio_in[16] 1.50146e-05
2 *921:gpio_in[16] 0.00487802
3 *448:33 0.009954
4 *448:31 0.00836586
5 *448:13 0.13063
6 *448:11 0.12734
7 *448:9 0.070705
8 *448:7 0.0707201
9 *921:gpio_in[16] *541:73 9.03127e-05
10 *921:gpio_in[16] *693:139 0
11 *921:gpio_in[16] *826:27 0.00199125
12 *921:gpio_in[16] *840:19 0.00406523
13 *448:9 *449:9 0.200389
14 *448:9 *450:9 0.000190917
15 *448:9 *451:9 0.000378277
16 *448:9 *536:245 0.00319504
17 *448:9 *537:250 0.00935443
18 *448:13 *451:13 0
19 *448:13 *453:37 0.00227178
20 *448:13 *785:11 0
21 *448:13 *797:11 0.00137916
22 *448:13 *798:19 0.268214
23 *448:13 *801:11 0
24 *448:13 *805:11 0
25 *448:13 *819:11 0.000563372
26 *448:13 *829:11 0.0104145
27 *448:13 *845:27 0
28 *448:13 *865:15 0
29 *448:31 *471:11 0.00244427
30 *448:31 *471:25 4.926e-05
31 *448:31 *543:23 0
32 *448:31 *826:11 0.00611716
33 *448:31 *852:27 0.000339321
34 *448:31 *854:27 0.00266353
35 *448:31 *873:47 0
36 *448:33 *451:25 0.038844
37 *448:33 *457:23 0.0386327
38 *448:33 *866:17 0.00731285
39 *921:gpio_in[12] *921:gpio_in[16] 0.00496666
40 *118:185 *921:gpio_in[16] 0.000981551
41 *161:19 *448:13 0.00110883
42 *359:15 *448:9 0.0215265
43 *359:21 *448:9 0.000124397
44 *359:23 *448:9 0.02611
45 *360:11 *448:13 0.0051639
46 *363:19 *448:9 0.000373854
47 *386:77 *921:gpio_in[16] 0
48 *391:11 *448:13 0.00563488
49 *397:55 *921:gpio_in[16] 0
50 *397:71 *921:gpio_in[16] 0.00343242
51 *419:23 *921:gpio_in[16] 0.0029591
52 *429:11 *448:13 0.0352723
53 *435:11 *448:13 0.000375969
54 *435:11 *448:31 0.0115092
*RES
1 gpio_in[16] *448:7 4.71429 
2 *448:7 *448:9 2127.21 
3 *448:9 *448:11 4.5 
4 *448:11 *448:13 4077.54 
5 *448:13 *448:31 45.4793 
6 *448:31 *448:33 368.536 
7 *448:33 *921:gpio_in[16] 41.694 
*END

*D_NET *449 1.22267
*CONN
*P gpio_in[17] I
*I *921:gpio_in[17] I *D CF_CARAVEL_SOC
*CAP
1 gpio_in[17] 3.88888e-05
2 *921:gpio_in[17] 0.00181532
3 *449:41 0.009485
4 *449:39 0.00766968
5 *449:37 0.00508167
6 *449:35 0.00667644
7 *449:29 0.0223872
8 *449:27 0.0214452
9 *449:21 0.0040805
10 *449:19 0.0052481
11 *449:13 0.0924565
12 *449:11 0.0906361
13 *449:9 0.0305513
14 *449:7 0.0305902
15 *921:gpio_in[17] *470:15 0.000387107
16 *921:gpio_in[17] *539:101 0.00011307
17 *921:gpio_in[17] *693:173 0
18 *921:gpio_in[17] *739:108 0.000476629
19 *921:gpio_in[17] *847:16 0.00216949
20 *449:9 *450:9 0.158087
21 *449:9 *537:250 0.00319504
22 *449:13 *450:13 0
23 *449:13 *453:17 0.229046
24 *449:13 *541:125 0
25 *449:13 *542:39 0.000515459
26 *449:13 *690:21 0
27 *449:13 *758:9 0.00760328
28 *449:13 *831:27 0.00346828
29 *449:13 *836:11 0.00684958
30 *449:19 *453:31 0
31 *449:21 *453:41 0.00607004
32 *449:21 *543:31 0
33 *449:29 *471:11 0.0166109
34 *449:29 *737:73 0
35 *449:29 *751:11 0.0217071
36 *449:29 *791:23 0.00864361
37 *449:29 *797:11 0.00204848
38 *449:29 *797:19 0.000930789
39 *449:29 *798:19 0
40 *449:29 *808:11 0.00852209
41 *449:29 *819:11 0.00370863
42 *449:29 *825:11 0.0248369
43 *449:29 *829:11 0.000616021
44 *449:29 *852:27 0.0126408
45 *449:29 *854:27 0.0136301
46 *449:37 *921:mask_rev[7] 0.00138969
47 *449:37 *450:29 0.00596353
48 *449:37 *844:17 0
49 *449:37 *873:39 0
50 *449:41 *461:23 0.0525152
51 *449:41 *780:13 0.0111862
52 *115:33 *449:13 0
53 *160:27 *449:13 0.0023099
54 *238:15 *449:41 0.0287676
55 *354:11 *449:29 0.000537145
56 *359:15 *449:9 0.0195957
57 *359:21 *449:9 0.00016215
58 *359:23 *449:9 0.0269623
59 *363:19 *449:9 0.00039982
60 *375:19 *449:21 0
61 *386:11 *449:29 0.00525119
62 *389:11 *449:21 0.00137545
63 *423:11 *449:21 0.0017336
64 *435:11 *449:29 0.00409577
65 *448:9 *449:9 0.200389
*RES
1 gpio_in[17] *449:7 5.01786 
2 *449:7 *449:9 1882.02 
3 *449:9 *449:11 4.5 
4 *449:11 *449:13 2906.21 
5 *449:13 *449:19 37.0536 
6 *449:19 *449:21 105.161 
7 *449:21 *449:27 19.3929 
8 *449:27 *449:29 1078.11 
9 *449:29 *449:35 32.9464 
10 *449:35 *449:37 138.554 
11 *449:37 *449:39 4.5 
12 *449:39 *449:41 496.679 
13 *449:41 *921:gpio_in[17] 32.8523 
*END

*D_NET *450 1.09976
*CONN
*P gpio_in[18] I
*I *921:gpio_in[18] I *D CF_CARAVEL_SOC
*CAP
1 gpio_in[18] 6.38789e-05
2 *921:gpio_in[18] 0.00219915
3 *450:33 0.010034
4 *450:31 0.00783488
5 *450:29 0.00474249
6 *450:27 0.00823348
7 *450:13 0.138414
8 *450:11 0.134924
9 *450:9 0.0275749
10 *450:7 0.0276388
11 *921:gpio_in[18] *472:55 0.000222322
12 *921:gpio_in[18] *539:97 0.000169212
13 *921:gpio_in[18] *739:108 0
14 *921:gpio_in[18] *739:116 0.000343643
15 *921:gpio_in[18] *826:27 0
16 *450:9 *451:9 0.109976
17 *450:9 *763:15 0.00701175
18 *450:13 *541:125 0.00176571
19 *450:13 *542:39 0
20 *450:13 *690:21 0.00018609
21 *450:13 *752:11 0.0361093
22 *450:13 *786:11 0.00021721
23 *450:13 *830:11 0.0043407
24 *450:13 *840:27 0
25 *450:13 *842:23 0
26 *450:13 *860:19 0.0102417
27 *450:27 *921:mask_rev[11] 0.00074509
28 *450:27 *921:mask_rev[9] 8.94556e-05
29 *450:27 *921:porb_l 0.000109971
30 *450:27 *786:11 0.00329197
31 *450:27 *828:11 0.000985442
32 *450:27 *830:11 0.000582603
33 *450:29 *921:mask_rev[7] 0.00138969
34 *450:33 *456:31 0.0531925
35 *450:33 *771:27 0.0291215
36 *115:33 *450:13 0.000111502
37 *359:15 *450:9 0.0131026
38 *359:21 *450:9 0.0005259
39 *359:23 *450:9 0.0202052
40 *386:89 *921:gpio_in[18] 0.000341586
41 *397:71 *921:gpio_in[18] 0.00181654
42 *401:11 *450:13 0.266518
43 *434:15 *450:33 0.0111485
44 *448:9 *450:9 0.000190917
45 *449:9 *450:9 0.158087
46 *449:13 *450:13 0
47 *449:37 *450:29 0.00596353
*RES
1 gpio_in[18] *450:7 5.32143 
2 *450:7 *450:9 1488.14 
3 *450:9 *450:11 4.5 
4 *450:11 *450:13 4020.47 
5 *450:13 *450:27 27.8371 
6 *450:27 *450:29 132.938 
7 *450:29 *450:31 4.5 
8 *450:31 *450:33 503.25 
9 *450:33 *921:gpio_in[18] 32.5472 
*END

*D_NET *451 0.958245
*CONN
*P gpio_in[19] I
*I *921:gpio_in[19] I *D CF_CARAVEL_SOC
*CAP
1 gpio_in[19] 8.62435e-05
2 *921:gpio_in[19] 0.00192235
3 *451:25 0.0107319
4 *451:23 0.00880956
5 *451:21 0.0181504
6 *451:19 0.0193279
7 *451:13 0.129984
8 *451:11 0.128807
9 *451:9 0.0342241
10 *451:7 0.0343104
11 *921:gpio_in[19] *793:27 0.00151719
12 *921:gpio_in[19] *839:197 0.00841493
13 *921:gpio_in[19] *866:17 0.00840978
14 *451:9 *763:15 0.0132028
15 *451:13 *792:11 0.00580174
16 *451:13 *795:19 0
17 *451:13 *796:11 0
18 *451:13 *799:11 0
19 *451:13 *800:11 0
20 *451:13 *801:11 0.0196208
21 *451:13 *805:11 0.0002892
22 *451:13 *806:11 0.000220826
23 *451:13 *807:11 0.0283529
24 *451:13 *834:11 0.0150628
25 *451:19 *453:31 0.00103155
26 *451:21 *467:11 0.0116926
27 *451:21 *815:11 0.00951499
28 *451:21 *863:23 0.0135374
29 *451:25 *457:23 0.00836854
30 *451:25 *550:11 0.000146953
31 *451:25 *793:27 0.0528993
32 *451:25 *815:39 0.00122275
33 *451:25 *866:17 0.0059874
34 *921:gpio_in[0] *451:25 0.0033534
35 *248:49 *451:21 0.000721062
36 *322:215 *921:gpio_in[19] 8.79856e-06
37 *325:129 *451:25 0.000467444
38 *353:11 *451:21 0.00955198
39 *359:15 *451:9 0.0282577
40 *359:21 *451:9 0.00120994
41 *359:23 *451:9 0.0010161
42 *363:19 *451:9 0.000169001
43 *380:13 *451:21 0.00125978
44 *385:11 *451:21 0.106623
45 *430:23 *451:25 0.000295467
46 *436:19 *451:21 0.063586
47 *443:31 *451:25 0.000879195
48 *448:9 *451:9 0.000378277
49 *448:13 *451:13 0
50 *448:33 *451:25 0.038844
51 *450:9 *451:9 0.109976
*RES
1 gpio_in[19] *451:7 5.625 
2 *451:7 *451:9 1042.52 
3 *451:9 *451:11 4.5 
4 *451:11 *451:13 2908.95 
5 *451:13 *451:19 31.7143 
6 *451:19 *451:21 1306.39 
7 *451:21 *451:23 4.5 
8 *451:23 *451:25 538.982 
9 *451:25 *921:gpio_in[19] 32.9041 
*END

*D_NET *452 0.746743
*CONN
*P gpio_in[1] I
*I *921:gpio_in[1] I *D CF_CARAVEL_SOC
*CAP
1 gpio_in[1] 0.00594571
2 *921:gpio_in[1] 0.000680585
3 *452:15 0.0344311
4 *452:13 0.0337505
5 *452:11 0.00759006
6 *452:9 0.0135358
7 *452:11 *463:11 0.0342716
8 *452:11 *474:11 0.000246117
9 *452:15 *466:15 0.0219701
10 *452:15 *469:15 0.00201512
11 *452:15 *479:15 0.264175
12 *452:15 *484:15 8.74791e-05
13 *452:15 *548:11 0.00345514
14 gpio_dm1[0] *452:11 0.00100026
15 *125:11 *452:11 0.0133995
16 *273:9 *452:9 0.00172767
17 *292:15 *452:15 0.000926198
18 *295:15 *452:15 0.271337
19 *299:23 *452:15 0.0314819
20 *309:11 *452:11 0.00017465
21 *336:11 *452:11 0
22 *430:23 *452:15 0
23 *431:15 *452:15 0.00454204
*RES
1 gpio_in[1] *452:9 17.9009 
2 *452:9 *452:11 426.491 
3 *452:11 *452:13 4.5 
4 *452:13 *452:15 2589.27 
5 *452:15 *921:gpio_in[1] 15.3839 
*END

*D_NET *453 1.05242
*CONN
*P gpio_in[20] I
*I *921:gpio_in[20] I *D CF_CARAVEL_SOC
*CAP
1 gpio_in[20] 0.00107349
2 *921:gpio_in[20] 0.0024437
3 *453:49 0.0113464
4 *453:47 0.00951902
5 *453:41 0.0194292
6 *453:39 0.0188129
7 *453:37 0.00178212
8 *453:31 0.00278433
9 *453:25 0.00225815
10 *453:23 0.0035681
11 *453:17 0.0862881
12 *453:15 0.083976
13 *453:13 0.0253172
14 *453:11 0.0263907
15 *453:17 *756:6 0.0156054
16 *453:17 *758:9 0.00957041
17 *453:17 *831:27 0.0120587
18 *453:17 *836:11 0.00895243
19 *453:37 *805:11 0
20 *453:41 *543:31 0
21 *453:41 *737:65 0
22 *453:41 *793:11 0.00327936
23 *453:41 *827:11 7.28057e-06
24 *453:41 *857:23 5.19522e-06
25 *453:47 *462:21 0.000202201
26 *453:47 *827:11 0.000518247
27 *453:47 *857:21 0.000309521
28 *453:49 *454:53 0.0649746
29 *453:49 *541:59 0.00839132
30 *453:49 *546:13 0.000514215
31 *453:49 *552:23 0.000112662
32 *453:49 *784:13 0.0147452
33 *453:49 *825:23 0.0001421
34 *453:49 *844:13 0.000695714
35 gpio_analog_sel[33] *453:25 0.000110498
36 *248:33 *453:47 0.00060175
37 *248:35 *453:41 0.0895244
38 *248:35 *453:47 1.25499e-05
39 *335:25 *453:49 0.00171327
40 *360:15 *453:13 0.08447
41 *362:15 *453:13 0.000694318
42 *363:11 *453:25 0.000826475
43 *365:15 *453:13 0.000203224
44 *374:11 *453:25 0.000559879
45 *380:13 *453:25 0.00020996
46 *385:11 *453:25 0.0054697
47 *389:11 *453:41 0.105093
48 *391:11 *453:37 0.00023828
49 *404:23 *453:13 0
50 *408:11 *453:41 0.00577977
51 *409:15 *453:13 0.0157945
52 *423:11 *453:41 0.00861967
53 *436:19 *453:25 0.00697799
54 *447:21 *453:49 0.0520236
55 *448:13 *453:37 0.00227178
56 *449:13 *453:17 0.229046
57 *449:19 *453:31 0
58 *449:21 *453:41 0.00607004
59 *451:19 *453:31 0.00103155
*RES
1 gpio_in[20] *453:11 24.9018 
2 *453:11 *453:13 799.375 
3 *453:13 *453:15 4.5 
4 *453:15 *453:17 2803.61 
5 *453:17 *453:23 44.4464 
6 *453:23 *453:25 86.0357 
7 *453:25 *453:31 28.8393 
8 *453:31 *453:37 45.8214 
9 *453:37 *453:39 4.5 
10 *453:39 *453:41 1289.24 
11 *453:41 *453:47 24.2411 
12 *453:47 *453:49 640.018 
13 *453:49 *921:gpio_in[20] 39.4732 
*END

*D_NET *454 0.884354
*CONN
*P gpio_in[21] I
*I *921:gpio_in[21] I *D CF_CARAVEL_SOC
*CAP
1 gpio_in[21] 0.000112372
2 *921:gpio_in[21] 0.0024195
3 *454:53 0.0107628
4 *454:51 0.00957667
5 *454:41 0.0282384
6 *454:39 0.0325692
7 *454:25 0.0145488
8 *454:23 0.00982528
9 *454:17 0.0163372
10 *454:15 0.0154966
11 *454:13 0.0139558
12 *454:11 0.0139558
13 *454:9 0.112975
14 *454:7 0.113088
15 *454:9 *673:7 0
16 *454:13 *542:51 0.0608251
17 *454:13 *715:6 0.0105761
18 *454:13 *719:8 0.013597
19 *454:17 *455:13 0.0236139
20 *454:17 *541:127 0.0102357
21 *454:17 *543:39 0.0140882
22 *454:23 *543:37 0.00140871
23 *454:25 *750:11 0.000106304
24 *454:25 *764:11 0.0227478
25 *454:25 *786:11 0.000102658
26 *454:25 *796:11 0
27 *454:39 *756:6 0.00978866
28 *454:39 *763:9 0.000205206
29 *454:39 *764:9 0
30 *454:39 *784:7 7.96807e-06
31 *454:39 *785:9 0.000164162
32 *454:41 *786:11 0.0854577
33 *454:41 *794:11 0.00065473
34 *454:41 *804:11 0.00423151
35 *454:41 *849:15 0.00364686
36 *454:41 *850:23 0.00463568
37 *454:41 *851:15 0.000336552
38 *454:41 *868:15 0.00331298
39 *454:51 *471:25 0.000301106
40 *454:51 *830:11 0.0020346
41 *454:51 *851:15 0
42 *454:51 *860:15 0.00236928
43 *454:53 *546:13 0.0681024
44 *454:53 *784:13 0.0143433
45 *103:15 *454:13 0
46 *116:67 *454:25 0.00286763
47 *206:51 *454:17 0
48 *206:57 *454:23 0.000141947
49 *335:25 *454:53 0.000839113
50 *386:35 *454:51 0
51 *399:11 *454:41 0.0461354
52 *403:11 *454:41 0.00013024
53 *405:11 *454:41 0.000658893
54 *406:11 *454:41 0.00907272
55 *407:11 *454:41 0.00373497
56 *419:29 *921:gpio_in[21] 0
57 *434:11 *454:41 0.00504359
58 *453:49 *454:53 0.0649746
*RES
1 gpio_in[21] *454:7 1.60714 
2 *454:7 *454:9 2292.09 
3 *454:9 *454:11 3.41 
4 *454:11 *454:13 99.0666 
5 *454:13 *454:15 3.41 
6 *454:15 *454:17 521.054 
7 *454:17 *454:23 9.17313 
8 *454:23 *454:25 280.018 
9 *454:25 *454:39 37.6962 
10 *454:39 *454:41 176.04 
11 *454:41 *454:51 43.6836 
12 *454:51 *454:53 644.125 
13 *454:53 *921:gpio_in[21] 39.1696 
*END

*D_NET *455 0.845127
*CONN
*P gpio_in[22] I
*I *921:gpio_in[22] I *D CF_CARAVEL_SOC
*CAP
1 gpio_in[22] 0.112875
2 *921:gpio_in[22] 0.00177147
3 *455:25 0.0123258
4 *455:23 0.0105543
5 *455:21 0.0192128
6 *455:19 0.0243529
7 *455:13 0.022868
8 *455:11 0.017728
9 *455:9 0.00447469
10 *455:7 0.00447469
11 *455:5 0.112875
12 *455:5 *712:7 0
13 *455:9 *542:51 0.0379994
14 *455:9 *543:43 0.0344463
15 *455:9 *720:9 0.00199638
16 *455:9 *807:15 0
17 *455:13 *543:39 0.00934587
18 *455:19 gpio_slow_sel[33] 0.000415535
19 *455:19 *543:37 0.000745764
20 *455:21 *470:11 0.0693233
21 *455:21 *539:183 2.09897e-05
22 *455:21 *693:31 0.000251289
23 *455:21 *693:79 0.00896623
24 *455:21 *693:83 0.00175505
25 *455:21 *737:57 0.00645189
26 *455:21 *763:11 0.00821053
27 *455:25 *462:23 0.073807
28 *455:25 *481:23 0.00730305
29 *455:25 *544:13 0
30 *455:25 *547:13 4.02256e-05
31 *455:25 *749:27 0.0731323
32 gpio_analog_en[33] *455:19 0
33 gpio_ib_mode_sel[37] *455:21 0.000519398
34 *119:23 *455:25 0.00444713
35 *289:23 *455:25 0.000984491
36 *336:63 *455:25 0.00394291
37 *336:67 *455:21 0.000245296
38 *366:11 *455:21 0.011416
39 *369:11 *455:21 1.39269e-05
40 *383:11 *455:21 0.00732901
41 *390:11 *455:21 0.114892
42 *446:19 *455:21 0
43 *446:25 *455:21 0
44 *454:17 *455:13 0.0236139
*RES
1 gpio_in[22] *455:5 2292.03 
2 *455:5 *455:7 3.41 
3 *455:7 *455:9 58.6372 
4 *455:9 *455:11 3.41 
5 *455:11 *455:13 519.232 
6 *455:13 *455:19 18.5418 
7 *455:19 *455:21 1424.33 
8 *455:21 *455:23 4.5 
9 *455:23 *455:25 729.554 
10 *455:25 *921:gpio_in[22] 29.7589 
*END

*D_NET *456 0.755445
*CONN
*P gpio_in[23] I
*I *921:gpio_in[23] I *D CF_CARAVEL_SOC
*CAP
1 gpio_in[23] 0.0021993
2 *921:gpio_in[23] 0.000931894
3 *456:31 0.0128227
4 *456:29 0.0118908
5 *456:27 0.0204412
6 *456:25 0.0204412
7 *456:23 0.00191978
8 *456:19 0.00373803
9 *456:17 0.00181825
10 *456:15 0.00282307
11 *456:13 0.00282307
12 *456:11 0.129522
13 *456:9 0.131721
14 *921:gpio_in[23] *839:189 0
15 *456:11 *539:287 0
16 *456:15 *544:29 0.00837704
17 *456:15 *690:11 1.53439e-05
18 *456:15 *732:6 0.00246577
19 *456:15 *735:11 0.000290883
20 *456:19 *831:27 0.0110312
21 *456:19 *836:11 0.00236117
22 *456:23 *544:21 0.00438812
23 *456:27 *736:23 0.00143223
24 *456:27 *768:11 0.0287401
25 *456:27 *803:11 0.014485
26 *456:27 *821:21 0.00249695
27 *456:27 *832:15 0.00323528
28 *456:31 *459:25 0.00109291
29 *456:31 *460:23 4.04683e-05
30 *456:31 *543:11 0.000192104
31 *456:31 *548:11 7.8789e-05
32 *456:31 *771:27 0.00811269
33 *456:31 *842:11 0.0738711
34 gpio_dm1[35] *456:27 0.000364647
35 *204:33 *456:15 0.00289491
36 *250:35 *456:27 0.00301271
37 *251:27 *456:27 0.028937
38 *295:27 *456:27 0.0104102
39 *296:23 *456:31 0.00341261
40 *322:409 *456:11 0.00563214
41 *368:11 *456:27 4.25921e-05
42 *373:11 *456:27 0.000900135
43 *375:27 *456:19 0.0110295
44 *384:11 *456:27 0.112158
45 *420:11 *456:27 0.00466207
46 *434:15 *456:31 0.0129954
47 *450:33 *456:31 0.0531925
*RES
1 gpio_in[23] *456:9 42.9732 
2 *456:9 *456:11 2652.33 
3 *456:11 *456:13 4.5 
4 *456:13 *456:15 110.196 
5 *456:15 *456:17 4.5 
6 *456:17 *456:19 135.518 
7 *456:19 *456:23 47.3393 
8 *456:23 *456:25 4.5 
9 *456:25 *456:27 1392.91 
10 *456:27 *456:29 4.5 
11 *456:29 *456:31 739.411 
12 *456:31 *921:gpio_in[23] 17.8125 
*END

*D_NET *457 0.868416
*CONN
*P gpio_in[24] I
*I *921:gpio_in[24] I *D CF_CARAVEL_SOC
*CAP
1 gpio_in[24] 0.0039059
2 *921:gpio_in[24] 0.000443108
3 *457:23 0.0107261
4 *457:21 0.0123536
5 *457:11 0.120259
6 *457:9 0.122094
7 *457:9 gpio_slow_sel[24] 0
8 *457:11 *545:15 0.331981
9 *457:11 *693:91 0
10 *457:11 *769:11 0.0314702
11 *457:11 *817:11 0.00366886
12 *457:21 *458:21 0.00198081
13 *457:21 *467:15 0.00219581
14 *457:21 *550:21 0.00145567
15 *457:21 *557:29 0.000791748
16 *457:21 *829:29 6.75178e-05
17 *457:23 *458:23 0.0783764
18 *457:23 *866:17 0.0167874
19 *366:11 *457:11 0
20 *369:23 *457:11 0.0128793
21 *412:11 *457:11 0
22 *426:13 *457:11 0.00329321
23 *437:11 *457:11 0.00297806
24 *437:19 *457:11 0.0392243
25 *443:31 *457:23 0.0244832
26 *448:33 *457:23 0.0386327
27 *451:25 *457:23 0.00836854
*RES
1 gpio_in[24] *457:9 12.3596 
2 *457:9 *457:11 4093.48 
3 *457:11 *457:21 20.3224 
4 *457:21 *457:23 743.107 
5 *457:23 *921:gpio_in[24] 11.1339 
*END

*D_NET *458 0.676036
*CONN
*P gpio_in[25] I
*I *921:gpio_in[25] I *D CF_CARAVEL_SOC
*CAP
1 gpio_in[25] 0.00592238
2 *921:gpio_in[25] 0.000418118
3 *458:23 0.0108475
4 *458:21 0.011125
5 *458:11 0.106815
6 *458:9 0.112042
7 *458:9 gpio_slow_sel[25] 0
8 *458:11 *555:17 0
9 *458:11 *556:43 0
10 *458:11 *809:11 0
11 *458:21 *467:15 2.37173e-05
12 *458:21 *471:25 0.000370421
13 *458:21 *550:21 0.00151081
14 *458:21 *829:29 2.2355e-05
15 *458:21 *865:15 0
16 *458:23 *467:15 0.0162372
17 *458:23 *557:19 0.0808758
18 gpio_analog_sel[33] *458:11 0.00199303
19 *353:19 *458:11 0.0146676
20 *358:19 *458:11 0
21 *363:11 *458:11 0.170232
22 *374:11 *458:11 0.0112617
23 *380:13 *458:11 0.000506893
24 *385:11 *458:11 0.0490892
25 *443:31 *458:23 0.00171721
26 *457:21 *458:21 0.00198081
27 *457:23 *458:23 0.0783764
*RES
1 gpio_in[25] *458:9 17.2037 
2 *458:9 *458:11 3335.16 
3 *458:11 *458:21 15.7975 
4 *458:21 *458:23 772.268 
5 *458:23 *921:gpio_in[25] 10.8304 
*END

*D_NET *459 0.692114
*CONN
*P gpio_in[26] I
*I *921:gpio_in[26] I *D CF_CARAVEL_SOC
*CAP
1 gpio_in[26] 0.000544895
2 *921:gpio_in[26] 0.00086849
3 *459:25 0.0115265
4 *459:23 0.015019
5 *459:13 0.0906239
6 *459:11 0.0868078
7 *459:13 *466:11 0
8 *459:13 *553:25 0.0678516
9 *459:13 *559:31 0
10 *459:23 *460:21 0.0067397
11 *459:23 *466:15 0.000931176
12 *459:23 *468:27 2.7883e-05
13 *459:23 *470:15 0.00093631
14 *459:23 *554:23 0
15 *459:23 *749:25 2.06112e-05
16 *459:25 *460:23 0.0853557
17 *459:25 *842:11 0.0832576
18 gpio_analog_pol[26] *459:13 0.000782865
19 gpio_analog_pol[29] *459:13 0.000834326
20 gpio_analog_sel[30] *459:13 0.00107465
21 gpio_dm0[27] *459:13 0.00185202
22 gpio_dm0[31] *459:13 0.00221225
23 gpio_dm1[32] *459:13 0.00314476
24 gpio_ib_mode_sel[26] *459:13 0.000582478
25 *117:43 *459:13 0.0413561
26 *163:35 *459:13 0
27 *193:63 *459:11 0.000382188
28 *193:63 *459:13 0.128606
29 *204:45 *459:13 0.0264211
30 *206:59 *459:13 0.00570755
31 *291:27 *459:13 0.000236953
32 *292:25 *459:23 0.000914483
33 *322:293 *459:13 0.00768427
34 *432:15 *459:25 0.0187184
35 *456:31 *459:25 0.00109291
*RES
1 gpio_in[26] *459:11 13.5162 
2 *459:11 *459:13 3144.75 
3 *459:13 *459:23 26.2733 
4 *459:23 *459:25 808.411 
5 *459:25 *921:gpio_in[26] 17.2054 
*END

*D_NET *460 0.67758
*CONN
*P gpio_in[27] I
*I *921:gpio_in[27] I *D CF_CARAVEL_SOC
*CAP
1 gpio_in[27] 0.0019098
2 *921:gpio_in[27] 0.000815769
3 *460:23 0.0143195
4 *460:21 0.0155976
5 *460:11 0.0775835
6 *460:9 0.0773993
7 *460:11 *550:23 0.199556
8 *460:11 *550:29 0.00190204
9 *460:11 *812:11 0.00994289
10 *460:21 *466:15 0.00673477
11 *460:21 *861:27 4.37992e-05
12 *460:23 *468:29 0.0180373
13 *460:23 *548:11 0.0482364
14 *460:23 *842:11 0.00174106
15 *284:51 *460:11 0.110895
16 *289:35 *460:11 0.000299897
17 *388:11 *460:21 4.21517e-05
18 *404:11 *460:11 0
19 *410:11 *460:11 0
20 *428:21 *460:23 0.000387086
21 *456:31 *460:23 4.04683e-05
22 *459:23 *460:21 0.0067397
23 *459:25 *460:23 0.0853557
*RES
1 gpio_in[27] *460:9 7.41518 
2 *460:9 *460:11 2959.34 
3 *460:11 *460:21 23.0456 
4 *460:21 *460:23 839.625 
5 *460:23 *921:gpio_in[27] 16.4911 
*END

*D_NET *461 0.722994
*CONN
*P gpio_in[28] I
*I *921:gpio_in[28] I *D CF_CARAVEL_SOC
*CAP
1 gpio_in[28] 0.000970033
2 *921:gpio_in[28] 0.00117153
3 *461:23 0.0145203
4 *461:21 0.0164445
5 *461:11 0.0599669
6 *461:9 0.0578411
7 *461:11 *547:25 0.222276
8 *461:11 *810:11 0.160669
9 *461:21 *472:11 0.000136841
10 *461:21 *547:23 0.0011787
11 *461:21 *559:29 0.00243667
12 *461:21 *855:15 0
13 *461:23 *545:11 0.0924051
14 *461:23 *780:13 0.0129888
15 *238:15 *461:23 0.0146987
16 *238:25 *461:21 0.00265905
17 *248:33 *461:21 0.00013739
18 *294:25 *461:21 3.90458e-05
19 *339:23 *461:21 0.00284914
20 *340:39 *461:23 0.00641051
21 *429:19 *461:23 0.000678839
22 *439:11 *461:11 0
23 *447:17 *461:11 0
24 *449:41 *461:23 0.0525152
*RES
1 gpio_in[28] *461:9 5.57592 
2 *461:9 *461:11 2773.55 
3 *461:11 *461:21 25.485 
4 *461:21 *461:23 874.946 
5 *461:23 *921:gpio_in[28] 22.0446 
*END

*D_NET *462 0.714037
*CONN
*P gpio_in[29] I
*I *921:gpio_in[29] I *D CF_CARAVEL_SOC
*CAP
1 gpio_in[29] 0.00154335
2 *921:gpio_in[29] 0.00170534
3 *462:23 0.0139138
4 *462:21 0.0148744
5 *462:11 0.0459874
6 *462:9 0.0448648
7 *462:11 *548:23 0.205975
8 *462:11 *554:25 0.0330735
9 *462:11 *811:11 0.144708
10 *462:21 *464:21 0.00170111
11 *462:21 *472:11 0.00466188
12 *462:21 *547:23 0.0010596
13 *462:21 *553:23 0
14 *462:21 *827:17 0.000113391
15 *462:23 *464:23 0.094994
16 *462:23 *481:23 0.00677262
17 *462:23 *749:27 0.0120205
18 *119:23 *462:23 0.00772917
19 *248:33 *462:21 0.000200553
20 *289:23 *462:23 0.000371179
21 *289:33 *462:21 0.000101149
22 *336:63 *462:23 0.00365653
23 *447:17 *462:11 0
24 *453:47 *462:21 0.000202201
25 *455:25 *462:23 0.073807
*RES
1 gpio_in[29] *462:9 6.69452 
2 *462:9 *462:11 2583.52 
3 *462:11 *462:21 25.1706 
4 *462:21 *462:23 905.75 
5 *462:23 *921:gpio_in[29] 29.4554 
*END

*D_NET *463 0.784345
*CONN
*P gpio_in[2] I
*I *921:gpio_in[2] I *D CF_CARAVEL_SOC
*CAP
1 gpio_in[2] 0.00696118
2 *921:gpio_in[2] 0.000252732
3 *463:15 0.0340443
4 *463:13 0.0337915
5 *463:11 0.0116412
6 *463:9 0.0186024
7 *463:11 *474:11 0.0503761
8 *463:15 *557:19 0.00226277
9 *463:15 *739:68 0.00295235
10 *463:15 *840:19 0.00423929
11 gpio_dm1[0] *463:11 0.00100026
12 gpio_dm2[1] *463:11 0.00103065
13 *125:11 *463:11 0
14 *293:15 *463:15 0.269723
15 *309:11 *463:11 0.000663646
16 *313:9 *463:9 0
17 *315:9 *463:9 0
18 *346:15 *463:15 0.0133408
19 *350:11 *463:11 0.00020996
20 *408:23 *463:15 0.0421553
21 *441:15 *463:15 0.254315
22 *441:19 *463:15 0.0021127
23 *442:15 *463:15 0.000397606
24 *452:11 *463:11 0.0342716
*RES
1 gpio_in[2] *463:9 18.5996 
2 *463:9 *463:11 617.741 
3 *463:11 *463:13 4.5 
4 *463:13 *463:15 2559.29 
5 *463:15 *921:gpio_in[2] 9.3125 
*END

*D_NET *464 0.672368
*CONN
*P gpio_in[30] I
*I *921:gpio_in[30] I *D CF_CARAVEL_SOC
*CAP
1 gpio_in[30] 0.00260605
2 *921:gpio_in[30] 0.00168427
3 *464:23 0.0136629
4 *464:21 0.0141046
5 *464:11 0.054722
6 *464:9 0.055202
7 *464:11 *541:111 0
8 *464:11 *549:25 0.191823
9 *464:11 *690:23 0.0116285
10 *464:11 *772:11 0.105317
11 *464:21 *749:25 4.19535e-05
12 *464:21 *827:17 0.000113724
13 *464:21 *827:19 0.000193845
14 *464:23 *481:23 0.00675703
15 *464:23 *749:27 0.00116658
16 *464:23 *838:11 0.00957258
17 *289:23 *464:23 0.0981142
18 *289:33 *464:21 0.0010929
19 *336:63 *464:21 0.00421369
20 *336:63 *464:23 0.00365653
21 *402:11 *464:11 0
22 *462:21 *464:21 0.00170111
23 *462:23 *464:23 0.094994
*RES
1 gpio_in[30] *464:9 8.64658 
2 *464:9 *464:11 2394.09 
3 *464:11 *464:21 22.0367 
4 *464:21 *464:23 928.339 
5 *464:23 *921:gpio_in[30] 29.1518 
*END

*D_NET *465 0.59642
*CONN
*P gpio_in[31] I
*I *921:gpio_in[31] I *D CF_CARAVEL_SOC
*CAP
1 gpio_in[31] 0.00316053
2 *921:gpio_in[31] 0.00163592
3 *465:23 0.013479
4 *465:21 0.0144658
5 *465:11 0.074421
6 *465:9 0.0749588
7 *465:11 gpio_vtrip_sel[36] 0
8 *465:11 *472:15 0
9 *465:11 *541:111 0
10 *465:11 *737:41 0.00831697
11 *465:11 *773:11 0.0893516
12 *465:21 *542:15 0
13 *465:21 *553:23 0.00635885
14 *465:21 *860:15 0.0002469
15 *465:21 *864:11 1.35067e-05
16 *465:21 *868:11 0.000137154
17 *465:23 *547:13 0.0992862
18 *465:23 *838:11 0.0210249
19 *119:23 *465:21 0.000368233
20 *162:27 *465:11 0.00201164
21 *207:49 *465:21 0.00486803
22 *249:27 *465:11 0.0819545
23 *289:23 *465:23 0.0992905
24 *289:33 *465:21 0.000670386
25 *336:63 *465:21 1.1672e-05
26 *353:29 *465:21 0.000365863
27 *388:21 *465:21 7.95854e-06
28 *396:11 *465:11 0
29 *402:11 *465:11 0
30 *435:21 *465:21 1.46799e-05
*RES
1 gpio_in[31] *465:9 9.83412 
2 *465:9 *465:11 2202.84 
3 *465:11 *465:21 27.147 
4 *465:21 *465:23 939.018 
5 *465:23 *921:gpio_in[31] 28.5446 
*END

*D_NET *466 0.587638
*CONN
*P gpio_in[32] I
*I *921:gpio_in[32] I *D CF_CARAVEL_SOC
*CAP
1 gpio_in[32] 0.00057954
2 *921:gpio_in[32] 0.000722079
3 *466:15 0.0214399
4 *466:13 0.0207179
5 *466:11 0.0352294
6 *466:9 0.0358089
7 *466:11 *557:31 0.0430537
8 *466:11 *559:31 0.050087
9 *466:11 *693:47 0.00236455
10 *466:11 *693:57 0
11 *466:11 *731:18 0.00607462
12 *466:15 *468:27 9.58979e-05
13 *466:15 *468:29 0.000565028
14 *466:15 *469:15 0.111699
15 *466:15 *479:15 0.0183954
16 *466:15 *548:21 0.00259475
17 *466:15 *858:11 0.00170502
18 *163:35 *466:11 0.0723245
19 *193:63 *466:11 0
20 *244:19 *466:11 0.00523977
21 *286:41 *466:11 0.000167352
22 *291:27 *466:11 0.000102209
23 *292:15 *466:15 0.017049
24 *325:167 *466:11 0.0037974
25 *378:11 *466:11 0
26 *431:15 *466:15 0.108189
27 *452:15 *466:15 0.0219701
28 *459:13 *466:11 0
29 *459:23 *466:15 0.000931176
30 *460:21 *466:15 0.00673477
*RES
1 gpio_in[32] *466:9 4.69232 
2 *466:9 *466:11 1616.34 
3 *466:11 *466:13 3.41 
4 *466:13 *466:15 187.348 
5 *466:15 *921:gpio_in[32] 14.3386 
*END

*D_NET *467 0.587497
*CONN
*P gpio_in[33] I
*I *921:gpio_in[33] I *D CF_CARAVEL_SOC
*CAP
1 gpio_in[33] 0.00657953
2 *921:gpio_in[33] 0.000407674
3 *467:15 0.0194622
4 *467:13 0.0190545
5 *467:11 0.0198991
6 *467:9 0.0264786
7 *467:11 *552:25 0.115888
8 *467:11 *735:23 0.0668768
9 *467:11 *815:11 0.00033138
10 *467:11 *848:23 0.0119916
11 *467:11 *863:23 0.000846172
12 *467:15 *471:25 9.52309e-05
13 *467:15 *471:27 0.106884
14 *467:15 *557:19 0.0170599
15 *467:15 *557:29 0.000409724
16 *467:15 *793:25 0.000236317
17 *467:15 *839:217 2.83381e-05
18 *467:15 *858:21 0.00291905
19 *467:15 *866:17 0.109819
20 *293:15 *467:15 0.00112957
21 *408:21 *467:15 0.00286858
22 *408:23 *467:15 0.000546155
23 *419:11 *467:11 0.00598981
24 *421:11 *467:11 0.0159957
25 *430:21 *467:15 0.000344067
26 *436:17 *467:11 0.00182336
27 *436:19 *467:11 0.00338368
28 *451:21 *467:11 0.0116926
29 *457:21 *467:15 0.00219581
30 *458:21 *467:15 2.37173e-05
31 *458:23 *467:15 0.0162372
*RES
1 gpio_in[33] *467:9 16.1572 
2 *467:9 *467:11 1420.23 
3 *467:11 *467:13 3.41 
4 *467:13 *467:15 180.718 
5 *467:15 *921:gpio_in[33] 9.89214 
*END

*D_NET *468 0.53485
*CONN
*P gpio_in[34] I
*I *921:gpio_in[34] I *D CF_CARAVEL_SOC
*CAP
1 gpio_in[34] 0.00787789
2 *921:gpio_in[34] 0.000831661
3 *468:29 0.0191865
4 *468:27 0.0187591
5 *468:11 0.0281701
6 *468:9 0.0356438
7 *468:9 gpio_slow_sel[34] 0
8 *468:11 *543:31 0.0351478
9 *468:11 *558:25 0.0663898
10 *468:11 *732:10 0.00361436
11 *468:11 *766:11 0.00354277
12 *468:11 *787:11 0.00407051
13 *468:11 *859:23 0.0125641
14 *468:11 *862:23 0.00027853
15 *468:27 *548:11 6.37327e-05
16 *468:27 *749:25 0.0001115
17 *468:29 *470:15 0.000148101
18 *468:29 *548:11 0.00615078
19 *468:29 *771:27 0.00377129
20 *248:35 *468:11 0
21 *292:25 *468:27 2.07485e-05
22 *292:25 *468:29 0.000712662
23 *358:17 *468:9 0.000529269
24 *364:19 *468:11 0.0211408
25 *364:27 *468:11 0.0147228
26 *413:11 *468:11 0.000634419
27 *418:11 *468:11 0.00270742
28 *431:15 *468:29 0.114684
29 *432:15 *468:29 0.11465
30 *459:23 *468:27 2.7883e-05
31 *460:23 *468:29 0.0180373
32 *466:15 *468:27 9.58979e-05
33 *466:15 *468:29 0.000565028
*RES
1 gpio_in[34] *468:9 18.9584 
2 *468:9 *468:11 1226.1 
3 *468:11 *468:27 18.2454 
4 *468:27 *468:29 183.277 
5 *468:29 *921:gpio_in[34] 15.9636 
*END

*D_NET *469 0.444992
*CONN
*P gpio_in[35] I
*I *921:gpio_in[35] I *D CF_CARAVEL_SOC
*CAP
1 gpio_in[35] 0.00455542
2 *921:gpio_in[35] 0.000688941
3 *469:15 0.0273577
4 *469:13 0.0266687
5 *469:11 0.0322483
6 *469:9 0.0368037
7 *469:9 gpio_slow_sel[35] 0.00667816
8 *469:9 *767:17 5.11566e-05
9 *469:11 *539:159 0
10 *469:11 *733:10 0.00366657
11 *469:11 *753:11 0.00684141
12 *469:11 *803:11 0.00607424
13 *469:11 *832:19 0
14 *469:15 *479:15 0.00217294
15 *469:15 *548:21 0.00122692
16 *469:15 *737:117 0.00138955
17 *469:15 *771:25 0.000733582
18 *469:15 *815:39 0.00385127
19 *469:15 *815:49 0.00895503
20 *469:15 *839:157 0.0076204
21 *469:15 *839:169 0.00774095
22 *469:15 *839:189 0.00354975
23 *469:15 *839:197 0.00488529
24 *469:15 *839:209 0.00278075
25 *469:15 *839:217 0.00478337
26 *469:15 *846:13 0.0023368
27 *469:15 *846:33 0.00130077
28 *469:15 *846:37 0.000393274
29 *469:15 *858:11 0.00917007
30 *250:35 *469:11 0.0670109
31 *292:15 *469:15 0.000308382
32 *293:25 *469:15 0.0011133
33 *295:15 *469:15 0.0233618
34 *295:27 *469:11 0.00812416
35 *364:37 *469:15 9.20139e-05
36 *386:55 *469:15 0.00195146
37 *387:11 *469:11 0
38 *420:11 *469:11 0.00962621
39 *431:15 *469:15 0.00516555
40 *452:15 *469:15 0.00201512
41 *466:15 *469:15 0.111699
*RES
1 gpio_in[35] *469:9 15.3268 
2 *469:9 *469:11 1036.52 
3 *469:11 *469:13 3.41 
4 *469:13 *469:15 192.321 
5 *469:15 *921:gpio_in[35] 14.1421 
*END

*D_NET *470 0.397106
*CONN
*P gpio_in[36] I
*I *921:gpio_in[36] I *D CF_CARAVEL_SOC
*CAP
1 gpio_in[36] 0.00442909
2 *921:gpio_in[36] 0.000945389
3 *470:15 0.0361436
4 *470:13 0.0351982
5 *470:11 0.0251723
6 *470:9 0.0296014
7 *470:11 *693:83 0.00321361
8 *470:15 *543:11 0.0255295
9 *470:15 *543:21 9.20139e-05
10 *470:15 *739:108 0.000554024
11 *470:15 *771:27 0.015213
12 *470:15 *847:16 0.0168217
13 *470:15 *847:36 0.000603768
14 *921:gpio_in[17] *470:15 0.000387107
15 *165:23 *470:15 0.00326437
16 *292:25 *470:15 0.000793756
17 *295:25 *470:15 0.00354716
18 *296:23 *470:15 0.0582935
19 *383:11 *470:11 0.00390626
20 *390:21 *470:15 0.000537414
21 *432:15 *470:15 0.000498992
22 *434:15 *470:15 0.0619525
23 *446:19 *470:11 0
24 *455:21 *470:11 0.0693233
25 *459:23 *470:15 0.00093631
26 *468:29 *470:15 0.000148101
*RES
1 gpio_in[36] *470:9 12.2343 
2 *470:9 *470:11 848.911 
3 *470:11 *470:13 3.41 
4 *470:13 *470:15 200.32 
5 *470:15 *921:gpio_in[36] 17.785 
*END

*D_NET *471 0.435946
*CONN
*P gpio_in[37] I
*I *921:gpio_in[37] I *D CF_CARAVEL_SOC
*CAP
1 gpio_in[37] 0.00668386
2 *921:gpio_in[37] 0.000352901
3 *471:27 0.0195386
4 *471:25 0.0213259
5 *471:11 0.0186992
6 *471:9 0.0232429
7 *921:gpio_in[37] *539:61 0
8 *921:gpio_in[37] *826:45 0
9 *471:9 gpio_slow_sel[37] 0.00555495
10 *471:9 *833:9 0
11 *471:11 *737:73 0
12 *471:11 *749:11 0
13 *471:11 *826:11 0.000551644
14 *471:11 *846:39 0.00367606
15 *471:11 *852:27 0.0227455
16 *471:11 *864:15 0.0136676
17 *471:25 *826:27 0.00031816
18 *471:25 *840:19 0.00337383
19 *471:25 *858:21 1.93503e-05
20 *471:25 *867:21 0.000632467
21 *471:27 *557:19 0.00693593
22 *471:27 *866:17 0.00444949
23 *293:15 *471:27 0.00546253
24 *341:18 *471:27 0.00469088
25 *386:11 *471:11 0.00635423
26 *386:35 *471:25 0
27 *408:23 *471:25 9.69189e-05
28 *408:23 *471:27 0.120003
29 *430:21 *471:25 0.00100105
30 *441:19 *471:27 0.00109596
31 *442:15 *471:27 0.0187182
32 *448:31 *471:11 0.00244427
33 *448:31 *471:25 4.926e-05
34 *449:29 *471:11 0.0166109
35 *454:51 *471:25 0.000301106
36 *458:21 *471:25 0.000370421
37 *467:15 *471:25 9.52309e-05
38 *467:15 *471:27 0.106884
*RES
1 gpio_in[37] *471:9 20.1522 
2 *471:9 *471:11 641.875 
3 *471:11 *471:25 21.072 
4 *471:25 *471:27 189.799 
5 *471:27 *921:gpio_in[37] 8.87429 
*END

*D_NET *472 0.585075
*CONN
*P gpio_in[38] I
*I *921:gpio_in[38] I *D CF_CARAVEL_SOC
*I *920:clk I *D counter_macro
*CAP
1 gpio_in[38] 0.00179448
2 *921:gpio_in[38] 7.86532e-05
3 *920:clk 0.00265393
4 *472:55 0.0209047
5 *472:53 0.022242
6 *472:39 0.00865965
7 *472:37 0.00671518
8 *472:27 0.00267404
9 *472:25 0.00668048
10 *472:15 0.0494034
11 *472:13 0.0446875
12 *472:11 0.0147135
13 *472:9 0.0147135
14 *472:7 0.00321048
15 *472:11 *547:23 0.00114589
16 *472:11 *558:23 0.00100405
17 *472:11 *693:163 0.00146608
18 *472:11 *827:17 4.03774e-05
19 *472:11 *827:19 0.0632607
20 *472:11 *852:11 0.000805482
21 *472:15 *546:25 0
22 *472:15 *693:71 0.0134328
23 *472:15 *802:11 0.0532331
24 *472:25 *737:31 0.00450955
25 *472:25 *737:39 4.65519e-05
26 *472:25 *754:11 0.000123945
27 *472:25 *802:11 0.000114863
28 *472:27 *544:25 0.0109739
29 *472:27 *737:31 0.00132334
30 *472:27 *831:27 0
31 *472:27 *836:11 0.00243044
32 *472:37 *732:6 0.00314266
33 *472:37 *733:6 0.00314523
34 *472:39 *732:6 0.0138466
35 *472:39 *735:21 0.00843685
36 *472:39 *737:9 0.0342704
37 *472:55 gpio_out[39] 0.00619147
38 *472:55 *539:63 2.33779e-05
39 *472:55 *541:35 0
40 *472:55 *693:187 0
41 *472:55 *826:27 0.0122692
42 *472:55 *826:45 0.000320402
43 *472:55 *840:19 0.0177553
44 gpio_analog_sel[33] *472:25 0.000635471
45 *921:gpio_in[18] *472:55 0.000222322
46 *206:51 *472:27 0.00994901
47 *249:27 *472:15 0
48 *293:15 *472:55 0.00294117
49 *294:25 *472:11 0.0122073
50 *322:167 *472:55 0.000674004
51 *322:175 *472:55 6.59103e-06
52 *322:255 *472:11 0.00028148
53 *322:259 *472:11 0.000703806
54 *322:303 *472:25 0.000114863
55 *338:63 *472:55 0.00340999
56 *339:23 *472:11 0.0125937
57 *364:39 *472:11 0.000690815
58 *375:27 *472:27 0.000137749
59 *386:35 *472:11 0.00202648
60 *386:55 *472:11 0.000394785
61 *387:9 *472:25 0.00527825
62 *390:23 *472:11 0.00702962
63 *396:11 *472:15 0.014825
64 *396:11 *472:25 0.000110051
65 *397:71 *472:55 0
66 *397:79 *472:55 0.0109599
67 *409:11 *472:15 0.0242423
68 *419:23 *472:55 0.00218631
69 *444:63 *472:55 0.0120929
70 *444:71 *472:55 0.00411823
71 *461:21 *472:11 0.000136841
72 *462:21 *472:11 0.00466188
73 *465:11 *472:15 0
*RES
1 gpio_in[38] *472:7 25.7054 
2 *472:7 *472:9 3.41 
3 *472:9 *472:11 107.787 
4 *472:11 *472:13 3.41 
5 *472:13 *472:15 1392.91 
6 *472:15 *472:25 20.7163 
7 *472:25 *472:27 140.375 
8 *472:27 *472:37 17.196 
9 *472:37 *472:39 54.097 
10 *472:39 *920:clk 48.7314 
11 *472:7 *472:53 23.5707 
12 *472:53 *472:55 105.445 
13 *472:55 *921:gpio_in[38] 4.68679 
*END

*D_NET *473 0.0399498
*CONN
*P gpio_in[39] I
*I *921:gpio_in[39] I *D CF_CARAVEL_SOC
*CAP
1 gpio_in[39] 0.00356358
2 *921:gpio_in[39] 0.00234766
3 *473:15 0.00591124
4 *921:gpio_in[39] *839:143 2.77702e-05
5 *473:15 *783:15 0.00542799
6 *473:15 *784:13 0.016414
7 *473:15 *825:23 0.00625751
*RES
1 gpio_in[39] *473:15 43.7121 
2 *473:15 *921:gpio_in[39] 35.125 
*END

*D_NET *474 0.662141
*CONN
*P gpio_in[3] I
*I *921:gpio_in[3] I *D CF_CARAVEL_SOC
*CAP
1 gpio_in[3] 0.00687799
2 *921:gpio_in[3] 0.00102471
3 *474:15 0.0595859
4 *474:13 0.0585612
5 *474:11 0.0147346
6 *474:9 0.0216126
7 *474:11 *571:31 0.0679361
8 *474:15 *480:15 0.261048
9 *474:15 *539:101 0.0026106
10 *474:15 *543:11 0
11 *474:15 *559:19 0.00219806
12 *474:15 *771:27 0
13 *474:15 *780:13 0.000346535
14 *474:15 *847:16 0.000443584
15 *474:15 *852:19 0.00419626
16 gpio_dm1[0] *474:11 0.00139106
17 gpio_dm2[1] *474:11 0.00143332
18 *92:9 *474:9 8.91131e-05
19 *93:9 *474:9 0
20 *125:11 *474:11 0
21 *169:15 *474:15 0.000235564
22 *209:15 *474:15 0.0134408
23 *213:15 *474:15 0.0193095
24 *294:15 *474:15 0.000231785
25 *309:11 *474:11 0.000683412
26 *314:15 *474:9 0.000162201
27 *314:19 *474:11 1.65923e-05
28 *322:77 *474:15 0.00106865
29 *336:11 *474:11 0
30 *338:71 *474:15 0.00956143
31 *351:11 *474:11 0.00328476
32 *386:207 *474:15 1.17361e-05
33 *434:23 *474:15 0.059422
34 *452:11 *474:11 0.000246117
35 *463:11 *474:11 0.0503761
*RES
1 gpio_in[3] *474:9 18.3897 
2 *474:9 *474:11 833.277 
3 *474:11 *474:13 4.5 
4 *474:13 *474:15 2530.95 
5 *474:15 *921:gpio_in[3] 20.2232 
*END

*D_NET *475 0.0227151
*CONN
*P gpio_in[40] I
*I *921:gpio_in[40] I *D CF_CARAVEL_SOC
*CAP
1 gpio_in[40] 0.00238421
2 *921:gpio_in[40] 0.00239133
3 *475:13 0.00477554
4 *475:13 *477:11 0.000850815
5 *475:13 *783:15 0.00735946
6 *475:13 *784:13 0.00342872
7 *335:25 *475:13 0.00152506
*RES
1 gpio_in[40] *475:13 29.8722 
2 *475:13 *921:gpio_in[40] 35.7321 
*END

*D_NET *476 0.0766171
*CONN
*P gpio_in[41] I
*I *921:gpio_in[41] I *D CF_CARAVEL_SOC
*CAP
1 gpio_in[41] 0.00239922
2 *921:gpio_in[41] 0.00535707
3 *476:17 0.00764477
4 *476:13 0.00468692
5 *921:gpio_in[41] *529:9 0.0103693
6 *921:gpio_in[41] *539:55 0.00406013
7 *921:gpio_in[41] *540:18 0.000875551
8 *921:gpio_in[41] *556:11 0.00166599
9 *921:gpio_in[41] *840:19 0.0105496
10 *476:13 *477:11 0.0114172
11 *476:13 *563:14 0.0114197
12 *476:17 *784:19 3.1737e-05
13 *322:167 *921:gpio_in[41] 0.00406015
14 *338:63 *921:gpio_in[41] 0.000163293
15 *397:79 *921:gpio_in[41] 0.00191648
*RES
1 gpio_in[41] *476:13 36.4098 
2 *476:13 *476:17 36.9279 
3 *476:17 *921:gpio_in[41] 38.1083 
*END

*D_NET *477 0.116895
*CONN
*P gpio_in[42] I
*I *921:gpio_in[42] I *D CF_CARAVEL_SOC
*CAP
1 gpio_in[42] 0.000751124
2 *921:gpio_in[42] 0.00236807
3 *477:11 0.0162674
4 *477:9 0.0146505
5 *477:11 *541:19 0.000841704
6 *477:11 *546:13 0.00750705
7 *477:11 *552:13 0.00643734
8 *477:11 *561:18 0.000840719
9 *477:11 *563:14 0.00848238
10 *477:11 *564:13 0.0236767
11 *477:11 *783:15 0.000485267
12 *477:11 *784:13 0.016509
13 *477:11 *843:11 0.00580973
14 *475:13 *477:11 0.000850815
15 *476:13 *477:11 0.0114172
*RES
1 gpio_in[42] *477:9 14.2404 
2 *477:9 *477:11 87.3918 
3 *477:11 *921:gpio_in[42] 38.535 
*END

*D_NET *478 0.175804
*CONN
*P gpio_in[43] I
*I *921:gpio_in[43] I *D CF_CARAVEL_SOC
*CAP
1 gpio_in[43] 0.00053953
2 *921:gpio_in[43] 0.00252343
3 *478:9 0.016129
4 *478:7 0.0141451
5 *478:9 *560:27 0.000468045
6 *478:9 *561:18 0.0791917
7 gpio_analog_en[40] *921:gpio_in[43] 0
8 gpio_dm1[40] *921:gpio_in[43] 0
9 *300:27 *478:9 4.5231e-05
10 *345:27 *478:9 0.00735474
11 *433:10 *478:9 0.0554076
*RES
1 gpio_in[43] *478:7 11.5439 
2 *478:7 *478:9 125.155 
3 *478:9 *921:gpio_in[43] 40.9636 
*END

*D_NET *479 0.857735
*CONN
*P gpio_in[4] I
*I *921:gpio_in[4] I *D CF_CARAVEL_SOC
*CAP
1 gpio_in[4] 0.00619779
2 *921:gpio_in[4] 0.000677875
3 *479:15 0.033072
4 *479:13 0.0323941
5 *479:11 0.0151226
6 *479:9 0.0213204
7 *479:11 *480:11 0.0839759
8 *479:11 *571:31 0.0766992
9 *479:15 *484:15 0.248514
10 *479:15 *548:11 0.00857751
11 gpio_dm1[0] *479:11 0.00162834
12 gpio_dm2[1] *479:11 0.00167781
13 *178:11 *479:9 0.00131115
14 *220:9 *479:9 0.000818488
15 *299:23 *479:15 0.0291954
16 *309:11 *479:11 0.00117217
17 *314:19 *479:11 0
18 *352:11 *479:11 0.00541434
19 *431:15 *479:15 0.00522333
20 *452:15 *479:15 0.264175
21 *466:15 *479:15 0.0183954
22 *469:15 *479:15 0.00217294
*RES
1 gpio_in[4] *479:9 18.2017 
2 *479:9 *479:11 1030.29 
3 *479:11 *479:13 4.5 
4 *479:13 *479:15 2499.73 
5 *479:15 *921:gpio_in[4] 14.8661 
*END

*D_NET *480 0.896787
*CONN
*P gpio_in[5] I
*I *921:gpio_in[5] I *D CF_CARAVEL_SOC
*CAP
1 gpio_in[5] 0.00666646
2 *921:gpio_in[5] 0.000833224
3 *480:15 0.0324653
4 *480:13 0.0316321
5 *480:11 0.0176796
6 *480:9 0.0243461
7 *480:11 *534:15 0.0996558
8 *480:11 *571:31 0.000246551
9 *480:11 *699:10 0.0105929
10 *480:15 *847:16 0.0361975
11 gpio_dm1[0] *480:11 0.00144768
12 gpio_dm2[1] *480:11 0.0014919
13 *169:15 *480:15 0.00014225
14 *173:9 *480:9 0.00224992
15 *174:9 *480:9 0
16 *178:17 *480:9 4.67141e-05
17 *213:15 *480:15 0.0178112
18 *284:11 *480:11 0
19 *294:15 *480:15 0.258864
20 *309:11 *480:11 0.00137118
21 *314:19 *480:11 0
22 *335:39 *921:gpio_in[5] 0
23 *335:45 *921:gpio_in[5] 0.000300512
24 *338:77 *921:gpio_in[5] 0.000331707
25 *352:11 *480:11 0.00682931
26 *386:207 *480:15 0.000560159
27 *474:15 *480:15 0.261048
28 *479:11 *480:11 0.0839759
*RES
1 gpio_in[5] *480:9 18.9004 
2 *480:9 *480:11 1233.69 
3 *480:11 *480:13 4.5 
4 *480:13 *480:15 2469.75 
5 *480:15 *921:gpio_in[5] 20.9375 
*END

*D_NET *481 0.920268
*CONN
*P gpio_in[6] I
*I *921:gpio_in[6] I *D CF_CARAVEL_SOC
*CAP
1 gpio_in[6] 0.00430766
2 *921:gpio_in[6] 0.00173155
3 *481:23 0.00809355
4 *481:21 0.00648475
5 *481:15 0.0287932
6 *481:13 0.0286705
7 *481:11 0.0319624
8 *481:9 0.03627
9 *921:gpio_in[6] *693:121 0
10 *921:gpio_in[6] *737:127 0
11 *481:11 *535:121 0
12 *481:15 *482:15 0.000249087
13 *481:15 *547:13 0.168478
14 *481:15 *749:27 0
15 *481:15 *837:11 0.0461021
16 *481:23 *838:11 0.033239
17 *89:11 *481:11 0.00010283
18 *119:15 *481:15 0.000336042
19 *119:23 *481:23 0.017715
20 *133:11 *481:11 0.011382
21 *137:11 *481:11 0.00269634
22 *166:11 *481:11 0.000411845
23 *174:11 *481:11 0.000395558
24 *181:11 *481:11 0.00255269
25 *224:19 *481:11 0
26 *289:23 *481:23 0.00728624
27 *307:11 *481:11 0.0856873
28 *327:39 *481:11 0.00500259
29 *336:15 *481:15 0.058242
30 *375:53 *481:11 0.00357587
31 *391:43 *481:11 0
32 *435:27 *481:11 0.0819275
33 *445:23 *481:15 0.22774
34 *455:25 *481:23 0.00730305
35 *462:23 *481:23 0.00677262
36 *464:23 *481:23 0.00675703
*RES
1 gpio_in[6] *481:9 12.1324 
2 *481:9 *481:11 1444.37 
3 *481:11 *481:13 4.5 
4 *481:13 *481:15 2178.55 
5 *481:15 *481:21 9.40107 
6 *481:21 *481:23 52.5115 
7 *481:23 *921:gpio_in[6] 28.2136 
*END

*D_NET *482 1.03719
*CONN
*P gpio_in[7] I
*I *921:gpio_in[7] I *D CF_CARAVEL_SOC
*CAP
1 gpio_in[7] 0.00124324
2 *921:gpio_in[7] 0.00147666
3 *482:15 0.0350162
4 *482:13 0.0335395
5 *482:11 0.0429662
6 *482:9 0.0442094
7 *921:gpio_in[7] *839:209 9.88094e-05
8 *482:9 *790:15 0
9 *482:15 *483:23 0.0150322
10 *482:15 *558:13 0.22824
11 *482:15 *827:19 0.0262977
12 *120:11 *482:11 0
13 *229:11 *482:11 0.00523334
14 *262:11 *482:11 0.165368
15 *268:11 *482:11 0.146301
16 *297:14 *482:15 0.0304657
17 *364:39 *482:15 0.261339
18 *445:23 *482:15 0.000110951
19 *481:15 *482:15 0.000249087
*RES
1 gpio_in[7] *482:9 6.08195 
2 *482:9 *482:11 2237.6 
3 *482:11 *482:13 4.5 
4 *482:13 *482:15 2478.79 
5 *482:15 *921:gpio_in[7] 26.4196 
*END

*D_NET *483 0.947482
*CONN
*P gpio_in[8] I
*I *921:gpio_in[8] I *D CF_CARAVEL_SOC
*CAP
1 gpio_in[8] 0.00683639
2 *921:gpio_in[8] 0.00155065
3 *483:23 0.0338226
4 *483:21 0.0322719
5 *483:19 0.0253083
6 *483:17 0.0261478
7 *483:11 0.0649904
8 *483:9 0.0709873
9 *483:11 *534:15 0
10 *483:11 *701:17 0
11 *483:11 *788:27 0
12 *483:19 *572:28 0.0115413
13 *483:19 *672:15 0
14 *483:19 *683:15 0.00897173
15 *483:19 *698:23 0
16 *483:23 *555:13 0.215777
17 *483:23 *558:13 0.225156
18 *483:23 *828:15 0.0313991
19 *99:11 *483:11 0.0524914
20 *102:11 *483:19 0.000176806
21 *117:11 *483:11 0
22 *119:11 *483:19 0.0738291
23 *153:25 *483:11 0.00033199
24 *280:19 *483:11 0.00800733
25 *297:14 *483:23 0.0226834
26 *316:11 *483:11 0
27 *317:11 *483:11 0
28 *319:11 *483:11 0
29 *445:23 *483:23 0.0201688
30 *482:15 *483:23 0.0150322
*RES
1 gpio_in[8] *483:9 19.4049 
2 *483:9 *483:11 1529.97 
3 *483:11 *483:17 21.8571 
4 *483:17 *483:19 905.679 
5 *483:19 *483:21 4.5 
6 *483:21 *483:23 2390.89 
7 *483:23 *921:gpio_in[8] 26.9018 
*END

*D_NET *484 1.10693
*CONN
*P gpio_in[9] I
*I *921:gpio_in[9] I *D CF_CARAVEL_SOC
*CAP
1 gpio_in[9] 0.00464539
2 *921:gpio_in[9] 0.000742025
3 *484:15 0.0332919
4 *484:13 0.0325499
5 *484:11 0.0444546
6 *484:9 0.0491
7 *484:9 *792:15 0
8 *484:15 *548:11 0.193586
9 *135:11 *484:11 0.0232185
10 *155:11 *484:11 0.00734874
11 *165:15 *484:15 0.000765469
12 *188:11 *484:11 0.000210142
13 *225:19 *484:11 0
14 *256:15 *484:15 0.025393
15 *287:11 *484:11 0.000232063
16 *299:23 *484:15 0.00483787
17 *304:11 *484:11 0.00309421
18 *310:11 *484:11 0.165096
19 *338:19 *484:15 0.0302228
20 *349:11 *484:11 0.000636096
21 *431:15 *484:15 0.0250882
22 *444:11 *484:11 0.213813
23 *452:15 *484:15 8.74791e-05
24 *479:15 *484:15 0.248514
*RES
1 gpio_in[9] *484:9 13.9936 
2 *484:9 *484:11 2626.78 
3 *484:11 *484:13 4.5 
4 *484:13 *484:15 2375.7 
5 *484:15 *921:gpio_in[9] 15.5804 
*END

*D_NET *529 0.381497
*CONN
*P gpio_inp_dis[0] O
*I *921:gpio_inp_dis[0] O *D CF_CARAVEL_SOC
*CAP
1 gpio_inp_dis[0] 0.00118982
2 *921:gpio_inp_dis[0] 7.97861e-05
3 *529:13 0.00542269
4 *529:11 0.00423288
5 *529:9 0.0388394
6 *529:7 0.0389192
7 *529:9 *531:14 0.00564235
8 *529:9 *531:16 0.000444355
9 *529:9 *532:30 0.00835923
10 *529:9 *536:17 0.0168382
11 *529:9 *536:33 0.00349524
12 *529:9 *536:63 0
13 *529:9 *537:12 0.00488828
14 *529:9 *537:14 0.000375961
15 *529:9 *538:17 0.000523118
16 *529:9 *540:18 0.0232458
17 *529:9 *541:27 0.00077617
18 *529:9 *556:11 0.0235488
19 *529:9 *557:11 0.00597169
20 *529:9 *559:11 0.0018698
21 *529:9 *560:11 0.00159245
22 *529:9 *561:12 0.00433552
23 *529:9 *562:119 0
24 *529:9 *563:10 0.00176972
25 *529:9 *567:12 0.000781701
26 *529:9 *567:14 0.00512307
27 *529:9 *568:11 0.00479223
28 *529:9 *569:16 0.00524369
29 *529:9 *570:14 0.000432075
30 *529:9 *571:17 0.00742722
31 *529:9 *572:16 0.00361392
32 *529:9 *572:26 0
33 *529:9 *697:109 1.95404e-05
34 *529:9 *740:79 0.00856697
35 *529:9 *815:49 0
36 *529:9 *840:19 0.0066688
37 *529:13 *749:31 0.0179816
38 gpio_analog_en[0] *529:13 0.00020831
39 gpio_analog_pol[0] gpio_inp_dis[0] 0.00201752
40 gpio_analog_sel[43] *529:9 0.00899599
41 *921:gpio_in[41] *529:9 0.0103693
42 *118:27 *529:9 0
43 *120:11 *529:13 0
44 *125:15 *529:9 0.00358211
45 *322:161 *529:9 0.0168224
46 *322:167 *529:9 0.00363985
47 *338:63 *529:9 0.0046737
48 *346:15 *529:9 0.00251626
49 *353:35 *529:13 0.000304421
50 *397:79 *529:9 0.00917907
51 *397:177 *529:13 0.0193878
52 *408:97 *529:9 0
53 *419:117 *529:9 0
54 *444:15 *529:9 0.0438088
55 *444:37 *529:9 0.0029801
*RES
1 *921:gpio_inp_dis[0] *529:7 4.68679 
2 *529:7 *529:9 242.227 
3 *529:9 *529:11 3.41 
4 *529:11 *529:13 248.446 
5 *529:13 gpio_inp_dis[0] 6.84648 
*END

*D_NET *530 0.690182
*CONN
*P gpio_inp_dis[10] O
*I *921:gpio_inp_dis[10] O *D CF_CARAVEL_SOC
*CAP
1 gpio_inp_dis[10] 0.0049289
2 *921:gpio_inp_dis[10] 0.00110021
3 *530:113 0.0917967
4 *530:111 0.0868678
5 *530:109 0.00621129
6 *530:107 0.00678547
7 *530:93 0.00406913
8 *530:91 0.00458999
9 *530:77 0.00236789
10 *530:75 0.00426469
11 *530:55 0.00543271
12 *530:53 0.00318218
13 *530:43 0.00232449
14 *530:41 0.00320472
15 *530:27 0.00235429
16 *530:25 0.00414367
17 *530:17 0.00451113
18 *530:17 *539:35 0
19 *530:17 *551:49 8.66753e-05
20 *530:17 *562:35 0
21 *530:17 *569:16 0
22 *530:25 *533:30 0.000288298
23 *530:25 *540:18 0.00109491
24 *530:25 *551:49 9.60227e-05
25 *530:25 *562:49 1.90936e-05
26 *530:25 *696:145 0.000771485
27 *530:27 *562:51 0.00586276
28 *530:27 *696:119 6.05161e-06
29 *530:27 *826:63 1.02821e-05
30 *530:41 *535:27 9.97152e-05
31 *530:41 *535:35 4.97144e-05
32 *530:41 *540:18 0.00102823
33 *530:41 *551:73 0.00998405
34 *530:41 *551:77 2.97537e-05
35 *530:41 *562:65 3.06511e-05
36 *530:41 *696:117 7.74644e-05
37 *530:41 *696:133 1.62539e-05
38 *530:43 *533:54 0
39 *530:43 *535:35 0.000995839
40 *530:43 *535:59 9.99644e-06
41 *530:43 *551:79 0.00747204
42 *530:43 *551:93 0.000853589
43 *530:43 *696:103 2.8078e-05
44 *530:43 *740:141 0.0019552
45 *530:53 *551:93 0.000848178
46 *530:53 *740:133 4.43326e-05
47 *530:53 *740:141 0.00110533
48 *530:55 *535:59 0.00028168
49 *530:55 *551:95 2.26132e-05
50 *530:55 *562:91 0.00887995
51 *530:55 *740:123 0
52 *530:55 *740:133 0.00328558
53 *530:55 *741:148 0.0011483
54 *530:55 *826:95 2.28499e-05
55 *530:75 *533:92 0.000127319
56 *530:75 *535:91 0.00196296
57 *530:75 *536:35 0.000563048
58 *530:75 *562:107 0.000120292
59 *530:75 *826:109 3.07351e-06
60 *530:75 *826:117 0.00722452
61 *530:77 *533:94 3.06878e-06
62 *530:77 *535:95 9.99644e-06
63 *530:77 *537:52 0.00021081
64 *530:77 *551:111 1.21258e-05
65 *530:77 *562:109 2.14757e-05
66 *530:77 *696:89 0
67 *530:91 *535:111 0.00635603
68 *530:91 *551:119 1.28166e-05
69 *530:91 *551:121 2.33059e-05
70 *530:93 *535:113 0.0115714
71 *530:93 *551:121 0.000453481
72 *530:107 *551:121 0.00426746
73 *530:113 *567:18 0.0373643
74 *530:113 *831:75 0.00328313
75 gpio_analog_pol[10] gpio_inp_dis[10] 0
76 gpio_analog_sel[10] gpio_inp_dis[10] 0
77 gpio_analog_sel[43] *530:91 0.000496734
78 gpio_analog_sel[43] *530:107 0.000456867
79 gpio_dm0[10] gpio_inp_dis[10] 0
80 *93:11 *530:113 0.165537
81 *98:11 *530:113 0
82 *101:11 *530:113 0
83 *118:115 *530:17 0.00211149
84 *130:11 *530:113 0.00168965
85 *144:11 *530:113 0.00123018
86 *179:11 *530:113 0.0514764
87 *207:19 *530:113 0
88 *223:11 *530:113 0.00207308
89 *247:11 *530:113 0
90 *254:11 *530:113 0.000243114
91 *270:17 *530:113 0.00161534
92 *274:41 *530:113 0.000178748
93 *288:57 *530:113 0.00173022
94 *288:59 *530:113 0.00335075
95 *322:57 *530:93 0.00439455
96 *342:11 *530:113 0.000367398
97 *386:155 *530:41 0.000516731
98 *386:175 *530:43 7.48301e-06
99 *397:95 *530:27 0.00586173
100 *397:111 *530:43 0.00563649
101 *397:151 *530:77 9.95174e-05
102 *397:171 *530:77 0.0017182
103 *397:173 *530:107 3.623e-05
104 *408:61 *530:43 0.00189729
105 *408:61 *530:55 0.0014328
106 *408:63 *530:55 0.00896757
107 *408:79 *530:77 0.00780126
108 *419:93 *530:17 2.30116e-06
109 *419:93 *530:25 0.011882
110 *419:117 *530:41 0.0100881
111 *419:119 *530:43 1.5424e-05
112 *419:137 *530:55 1.21258e-05
113 *419:159 *530:77 0.0098059
114 *419:175 *530:91 0.00639194
115 *419:191 *530:107 0.00426703
116 *419:193 *530:109 0.0185601
117 *444:37 *530:75 0
*RES
1 *921:gpio_inp_dis[10] *530:17 39.8564 
2 *530:17 *530:25 27.8251 
3 *530:25 *530:27 55.5714 
4 *530:27 *530:41 35.0948 
5 *530:41 *530:43 90.2768 
6 *530:43 *530:53 20.9375 
7 *530:53 *530:55 121.696 
8 *530:55 *530:75 35.2417 
9 *530:75 *530:77 95 
10 *530:77 *530:91 27.2765 
11 *530:91 *530:93 108.554 
12 *530:93 *530:107 23.5858 
13 *530:107 *530:109 175.911 
14 *530:109 *530:111 4.5 
15 *530:111 *530:113 2842.92 
16 *530:113 gpio_inp_dis[10] 14.7989 
*END

*D_NET *531 0.641371
*CONN
*P gpio_inp_dis[11] O
*I *921:gpio_inp_dis[11] O *D CF_CARAVEL_SOC
*CAP
1 gpio_inp_dis[11] 0.0031262
2 *921:gpio_inp_dis[11] 0.00353765
3 *531:28 0.100319
4 *531:26 0.0971931
5 *531:24 0.00966681
6 *531:22 0.00982296
7 *531:16 0.00749088
8 *531:14 0.0108724
9 *531:14 *532:14 0.0117032
10 *531:14 *539:25 0
11 *531:14 *540:18 0.00341297
12 *531:14 *541:27 0.00190364
13 *531:14 *551:49 0
14 *531:14 *567:14 0.00288684
15 *531:14 *568:11 0.00310275
16 *531:14 *572:16 0.00176538
17 *531:16 *532:30 0.00136973
18 *531:16 *536:17 0.00256332
19 *531:16 *537:14 0.0183723
20 *531:16 *538:25 0.000750929
21 *531:16 *538:29 0.00458692
22 *531:16 *538:37 0.000386613
23 *531:16 *540:18 0.00324178
24 *531:16 *556:11 0.0023987
25 *531:16 *570:14 0.0101433
26 *531:16 *840:19 0.00024282
27 *531:24 *534:11 0.0267955
28 *531:24 *793:27 0
29 *531:28 *692:23 0.0199031
30 gpio_analog_pol[11] gpio_inp_dis[11] 0.00113238
31 *94:19 *531:28 0
32 *114:11 *531:28 0
33 *118:87 *531:16 0.000314658
34 *123:15 *531:24 0.00962174
35 *169:11 *531:28 0
36 *242:11 *531:28 0
37 *293:15 *531:16 0.0139881
38 *313:11 *531:28 0.199246
39 *322:123 *531:16 0.00258268
40 *322:153 *531:14 1.90936e-05
41 *337:11 *531:28 0
42 *338:35 *531:14 0.000335602
43 *442:15 *531:24 0.0503795
44 *443:31 *531:24 0.00010564
45 *529:9 *531:14 0.00564235
46 *529:9 *531:16 0.000444355
*RES
1 *921:gpio_inp_dis[11] *531:14 37.7054 
2 *531:14 *531:16 394 
3 *531:16 *531:22 11.25 
4 *531:22 *531:24 508.589 
5 *531:24 *531:26 4.5 
6 *531:26 *531:28 3052.69 
7 *531:28 gpio_inp_dis[11] 11.089 
*END

*D_NET *532 0.727227
*CONN
*P gpio_inp_dis[12] O
*I *921:gpio_inp_dis[12] O *D CF_CARAVEL_SOC
*CAP
1 gpio_inp_dis[12] 0.00396907
2 *921:gpio_inp_dis[12] 0.00299225
3 *532:36 0.100738
4 *532:34 0.0967686
5 *532:32 0.00724599
6 *532:30 0.00929537
7 *532:16 0.00729617
8 *532:14 0.00823904
9 *532:14 *533:30 0.000358039
10 *532:14 *535:27 0.000294633
11 *532:14 *539:25 0
12 *532:14 *540:18 0.00284337
13 *532:14 *551:49 0
14 *532:14 *562:49 0
15 *532:14 *826:47 0.000470764
16 *532:14 *826:61 0
17 *532:16 *537:12 0.000683948
18 *532:16 *569:18 0.00182447
19 *532:16 *696:95 0.00397646
20 *532:30 *537:24 0.000257914
21 *532:30 *740:113 6.74815e-05
22 *532:32 *536:63 0.003257
23 *532:32 *540:34 0.0475446
24 *532:32 *569:18 0.0488529
25 *532:32 *826:127 0.00139454
26 *532:36 *568:15 0.000144815
27 gpio_analog_pol[12] gpio_inp_dis[12] 0.0002641
28 gpio_analog_sel[43] *532:30 0.00207208
29 gpio_dm0[12] gpio_inp_dis[12] 0
30 *118:27 *532:32 0.00435697
31 *118:65 *532:16 0.00145135
32 *118:75 *532:16 0.00407022
33 *118:99 *532:16 0.00766324
34 *125:15 *532:16 0.000742516
35 *129:11 *532:36 0.000285653
36 *136:11 *532:36 0.0327556
37 *139:11 *532:36 0
38 *162:11 *532:36 0
39 *171:13 *532:36 0.00274426
40 *225:19 *532:36 0
41 *232:11 *532:36 0.00255904
42 *259:11 *532:36 0.0124985
43 *266:11 *532:36 0.200191
44 *312:19 *532:36 0
45 *315:11 *532:36 0.0287044
46 *325:39 *532:16 0.00675373
47 *325:63 *532:16 2.41665e-05
48 *338:35 *532:14 0.0014033
49 *338:35 *532:16 0.00106438
50 *346:15 *532:30 0.00272506
51 *397:93 *532:14 0.000386075
52 *419:197 *532:36 0.017162
53 *444:37 *532:30 6.53083e-05
54 *444:39 *532:16 0.00840684
55 *444:55 *532:16 0.0189303
56 *529:9 *532:30 0.00835923
57 *531:14 *532:14 0.0117032
58 *531:16 *532:30 0.00136973
*RES
1 *921:gpio_inp_dis[12] *532:14 30.3916 
2 *532:14 *532:16 332.804 
3 *532:16 *532:30 37.4449 
4 *532:30 *532:32 484.357 
5 *532:32 *532:34 4.5 
6 *532:34 *532:36 3248.19 
7 *532:36 gpio_inp_dis[12] 12.8249 
*END

*D_NET *533 0.576277
*CONN
*P gpio_inp_dis[13] O
*I *921:gpio_inp_dis[13] O *D CF_CARAVEL_SOC
*CAP
1 gpio_inp_dis[13] 0.00495195
2 *921:gpio_inp_dis[13] 0.00392951
3 *533:194 0.0104291
4 *533:182 0.122383
5 *533:180 0.122784
6 *533:172 0.0145018
7 *533:158 0.00999112
8 *533:156 0.00446509
9 *533:130 0.00889582
10 *533:128 0.00705533
11 *533:122 0.0263755
12 *533:120 0.0300435
13 *533:114 0.00658665
14 *533:112 0.00166139
15 *533:110 0.00469152
16 *533:108 0.00512713
17 *533:102 0.00130129
18 *533:100 0.00115519
19 *533:94 0.00287323
20 *533:92 0.0041417
21 *533:84 0.00231699
22 *533:70 0.00165568
23 *533:68 0.0038374
24 *533:54 0.00432214
25 *533:52 0.00211144
26 *533:48 0.00450536
27 *533:40 0.00466089
28 *533:30 0.00481509
29 *533:30 *535:27 0
30 *533:30 *539:25 0
31 *533:30 *539:33 0.00211733
32 *533:30 *540:18 0.000906765
33 *533:30 *551:49 0
34 *533:30 *551:59 0.000852557
35 *533:30 *696:145 0.002123
36 *533:30 *826:63 0.000595555
37 *533:40 *541:15 0
38 *533:40 *696:119 2.44318e-05
39 *533:40 *696:133 3.41272e-05
40 *533:40 *740:167 0
41 *533:40 *826:63 0.00188165
42 *533:48 *541:13 0.00191775
43 *533:48 *562:65 1.93629e-05
44 *533:48 *696:117 0.00238154
45 *533:48 *740:165 0.000619742
46 *533:52 *535:35 0.000395602
47 *533:52 *569:18 0
48 *533:52 *696:103 0.000485681
49 *533:52 *740:151 0.00130581
50 *533:54 *569:18 0
51 *533:54 *740:145 0.00302273
52 *533:54 *740:151 0.000671886
53 *533:68 *535:59 0.000859438
54 *533:68 *562:89 3.04033e-05
55 *533:68 *740:141 0.000189503
56 *533:68 *826:93 1.66787e-05
57 *533:70 *551:95 0.00752468
58 *533:70 *740:123 0.0075266
59 *533:84 *537:24 0.000364532
60 *533:84 *826:109 0.000220353
61 *533:92 *535:91 0.000765924
62 *533:92 *537:40 0.00142488
63 *533:92 *562:107 7.86735e-05
64 *533:94 *535:95 0.00858208
65 *533:94 *562:109 1.21258e-05
66 *533:94 *740:113 0
67 *533:94 *826:119 0
68 *533:102 *826:127 0.000101149
69 *533:110 *535:113 0.000205384
70 *533:110 *551:121 0.00347542
71 *533:110 *696:71 0.0120066
72 *533:114 *537:80 0.00174871
73 *533:114 *697:103 0.00543762
74 *533:120 *697:101 0
75 *533:122 *536:75 0.000914704
76 *533:122 *696:57 0.000200642
77 *533:122 *697:87 0
78 *533:122 *741:88 8.95413e-05
79 *533:122 *742:106 0.000831302
80 *533:122 *742:108 0
81 *533:128 *538:93 0
82 *533:128 *741:88 0
83 *533:128 *742:106 0
84 *533:130 *536:117 6.40846e-05
85 *533:130 *537:86 0.00975195
86 *533:130 *538:95 0.00925656
87 *533:130 *538:121 0
88 *533:130 *695:53 0.00028281
89 *533:130 *695:55 0.000159218
90 *533:156 *536:117 0.000835152
91 *533:156 *537:86 7.1588e-05
92 *533:156 *537:100 0.000576463
93 *533:156 *537:108 2.05803e-05
94 *533:156 *538:121 0.000137369
95 *533:156 *695:35 0
96 *533:156 *695:53 0.000955325
97 *533:156 *697:73 0.00247594
98 *533:156 *741:72 0.000557445
99 *533:156 *742:90 0.00282983
100 *533:158 *538:123 0.00393936
101 *533:158 *741:56 0.00065338
102 *533:158 *742:58 0.0017727
103 *533:172 *536:117 9.80322e-05
104 *533:172 *536:121 0.000569536
105 *533:172 *536:133 0.00159981
106 *533:172 *537:108 0
107 *533:172 *537:116 0.000304303
108 *533:172 *538:137 0.00424915
109 *533:172 *697:37 0
110 *533:172 *742:58 0
111 *533:180 *536:143 0.000417577
112 *533:180 *538:137 0.000182139
113 *533:180 *538:139 0.00433787
114 *533:180 *695:35 0
115 *533:180 *696:23 0.000605736
116 *533:180 *697:11 0.00143665
117 gpio_analog_en[13] gpio_inp_dis[13] 0
118 gpio_analog_pol[13] gpio_inp_dis[13] 0.000446859
119 gpio_dm0[13] gpio_inp_dis[13] 0.00277513
120 *93:11 gpio_inp_dis[13] 0
121 *118:37 *533:108 0
122 *118:39 *533:102 0.00063069
123 *118:73 *533:68 0.00166287
124 *125:15 *533:102 0.00270569
125 *138:11 gpio_inp_dis[13] 0
126 *322:65 *533:102 0.00451061
127 *322:89 *533:84 0.0005596
128 *322:89 *533:92 0.00333894
129 *322:101 *533:70 0.00140417
130 *322:101 *533:84 0.00167528
131 *322:113 *533:68 0.00859561
132 *325:51 *533:54 0.00081255
133 *336:31 *533:54 0.000263413
134 *338:29 *533:48 9.31744e-05
135 *338:35 *533:30 0.000116143
136 *386:153 *533:30 0
137 *386:189 *533:68 4.49626e-05
138 *397:95 *533:30 0.000287084
139 *397:109 *533:48 0
140 *408:77 *533:92 0.00208598
141 *408:95 *533:94 0.00021787
142 *419:93 *533:30 1.46617e-05
143 *419:95 *533:30 0.00037421
144 *419:117 *533:48 0.000169797
145 *419:133 *533:68 4.19624e-06
146 *419:157 *533:92 2.06741e-05
147 *444:23 *533:102 0.00101911
148 *530:25 *533:30 0.000288298
149 *530:43 *533:54 0
150 *530:75 *533:92 0.000127319
151 *530:77 *533:94 3.06878e-06
152 *532:14 *533:30 0.000358039
*RES
1 *921:gpio_inp_dis[13] *533:30 49.1868 
2 *533:30 *533:40 35.7404 
3 *533:40 *533:48 31.6777 
4 *533:48 *533:52 21.4911 
5 *533:52 *533:54 50.0268 
6 *533:54 *533:68 42.8785 
7 *533:68 *533:70 70.7679 
8 *533:70 *533:84 42.4546 
9 *533:84 *533:92 23.8856 
10 *533:92 *533:94 81.4464 
11 *533:94 *533:100 13.6786 
12 *533:100 *533:102 55.5714 
13 *533:102 *533:108 15.8036 
14 *533:108 *533:110 133.607 
15 *533:110 *533:112 4.5 
16 *533:112 *533:114 66.4554 
17 *533:114 *533:120 21.7488 
18 *533:120 *533:122 88.6827 
19 *533:122 *533:128 10.7586 
20 *533:128 *533:130 50.3307 
21 *533:130 *533:156 37.4442 
22 *533:156 *533:158 48.6964 
23 *533:158 *533:172 49.3208 
24 *533:172 *533:180 35.02 
25 *533:180 *533:182 399.44 
26 *533:182 *533:194 49.1741 
27 *533:194 gpio_inp_dis[13] 43.4243 
*END

*D_NET *534 0.706851
*CONN
*P gpio_inp_dis[14] O
*I *921:gpio_inp_dis[14] O *D CF_CARAVEL_SOC
*CAP
1 gpio_inp_dis[14] 0.00436913
2 *921:gpio_inp_dis[14] 0.000351828
3 *534:15 0.175674
4 *534:13 0.171305
5 *534:11 0.0165553
6 *534:9 0.0169072
7 *534:11 *557:19 0.0313435
8 *534:15 *699:10 0.00243439
9 *534:15 *744:15 0.0202085
10 gpio_analog_en[14] gpio_inp_dis[14] 0
11 gpio_analog_pol[14] gpio_inp_dis[14] 0.00694864
12 gpio_dm1[0] *534:15 0.000298371
13 *91:11 *534:15 0.050803
14 *97:11 *534:15 0
15 *99:11 *534:15 0
16 *107:11 *534:15 0
17 *152:11 *534:15 0.00244081
18 *160:11 *534:15 0
19 *212:11 *534:15 0
20 *274:11 *534:15 0
21 *284:11 *534:15 0
22 *309:11 *534:15 0.00433554
23 *314:19 *534:15 0
24 *341:18 *534:11 0.0159796
25 *352:11 *534:15 0.00285112
26 *442:15 *534:11 0.00551541
27 *443:31 *534:11 0.0520778
28 *480:11 *534:15 0.0996558
29 *483:11 *534:15 0
30 *531:24 *534:11 0.0267955
*RES
1 *921:gpio_inp_dis[14] *534:9 9.59821 
2 *534:9 *534:11 902.875 
3 *534:11 *534:13 4.5 
4 *534:13 *534:15 4050.83 
5 *534:15 gpio_inp_dis[14] 26.5176 
*END

*D_NET *535 0.899519
*CONN
*P gpio_inp_dis[15] O
*I *921:gpio_inp_dis[15] O *D CF_CARAVEL_SOC
*CAP
1 gpio_inp_dis[15] 1.50146e-05
2 *921:gpio_inp_dis[15] 0.00145761
3 *535:125 0.00720328
4 *535:123 0.00718827
5 *535:121 0.121463
6 *535:119 0.121463
7 *535:117 0.00742222
8 *535:115 0.00749585
9 *535:113 0.0026191
10 *535:111 0.00363207
11 *535:95 0.00241337
12 *535:93 0.00132678
13 *535:91 0.00331907
14 *535:59 0.00932356
15 *535:35 0.0107561
16 *535:27 0.00620924
17 *535:27 *539:11 6.20765e-05
18 *535:27 *539:25 0
19 *535:27 *540:18 0.000228601
20 *535:27 *696:133 0.000112777
21 *535:35 *540:18 0.00151449
22 *535:35 *551:73 0.0100547
23 *535:35 *551:79 0.000923511
24 *535:35 *562:65 0.0101444
25 *535:35 *562:69 0.000377987
26 *535:35 *696:103 0.000995839
27 *535:35 *740:151 0.000731393
28 *535:35 *826:79 0.000611192
29 *535:59 *540:18 0.00093454
30 *535:59 *551:79 1.39841e-05
31 *535:59 *551:93 0.00206309
32 *535:59 *562:81 0.00195866
33 *535:59 *562:89 0.00220799
34 *535:59 *562:91 0.000324033
35 *535:59 *740:141 7.58103e-05
36 *535:59 *740:145 1.39726e-05
37 *535:59 *741:148 0.00588507
38 *535:59 *741:160 0.00197357
39 *535:59 *826:93 0.000866449
40 *535:59 *826:95 0.000167461
41 *535:91 *536:49 0.000152361
42 *535:91 *537:40 0.000162331
43 *535:91 *551:109 0.00175812
44 *535:91 *562:107 0.00202793
45 *535:91 *741:148 0.000108912
46 *535:91 *826:109 0.00187322
47 *535:91 *826:117 0.0020505
48 *535:95 *551:111 0.00980385
49 *535:95 *562:109 2.14757e-05
50 *535:111 *551:119 7.75637e-05
51 *535:111 *551:121 0.00636609
52 *535:113 *537:58 4.57098e-05
53 *535:113 *551:121 0.000260832
54 *535:113 *696:71 0.000136031
55 *535:117 *551:121 0.0036721
56 *535:121 *568:15 0
57 gpio_analog_en[3] *535:121 0.000658531
58 gpio_analog_pol[15] gpio_inp_dis[15] 0
59 gpio_analog_sel[43] *535:59 0.00061638
60 gpio_analog_sel[43] *535:91 0.00191808
61 gpio_analog_sel[43] *535:111 0.000238403
62 gpio_analog_sel[4] *535:121 0.000144274
63 *94:17 *535:121 0.00296161
64 *96:15 *535:125 0.00347409
65 *100:11 *535:121 0.00103275
66 *104:27 *535:121 0.000752949
67 *113:11 *535:121 0.00106033
68 *113:19 *535:121 0.010753
69 *118:73 *535:59 0.000167316
70 *161:13 *535:121 0.00207751
71 *176:11 *535:121 0.00552826
72 *177:11 *535:121 0.00386183
73 *181:11 *535:121 0.0124387
74 *182:19 *535:121 0.229731
75 *202:25 *535:121 0.000497929
76 *260:19 *535:121 0.0656475
77 *288:11 *535:121 0.00875243
78 *299:21 *535:117 0.000136958
79 *307:11 *535:121 0
80 *312:19 *535:121 0.000239879
81 *322:57 *535:113 0.00236936
82 *322:89 *535:91 0.000152361
83 *322:101 *535:59 0.00742121
84 *322:101 *535:91 6.52967e-05
85 *322:113 *535:59 0.000682916
86 *322:123 *535:35 0
87 *325:51 *535:35 3.69406e-05
88 *326:11 *535:121 0.0687649
89 *336:41 *535:35 0
90 *386:155 *535:27 0.0010231
91 *386:159 *535:35 0.00126161
92 *386:189 *535:59 0.000167316
93 *386:201 *535:91 0.000147376
94 *397:109 *535:35 2.86703e-05
95 *397:111 *535:35 0.000907287
96 *397:127 *535:35 4.50033e-05
97 *397:127 *535:59 0.00409438
98 *397:135 *535:91 0.0018408
99 *397:149 *535:91 0.00116084
100 *397:171 *535:95 0.000115141
101 *408:45 *535:35 0.000208827
102 *408:61 *535:59 0.00136966
103 *408:63 *535:59 0.000218284
104 *408:77 *535:91 0.000899317
105 *408:95 *535:95 0.000117245
106 *419:117 *535:27 5.41797e-06
107 *419:117 *535:35 3.623e-05
108 *419:119 *535:35 0.000788701
109 *419:133 *535:59 0.00121636
110 *419:137 *535:59 0.00104465
111 *419:149 *535:59 0.00038767
112 *419:157 *535:91 0.00108963
113 *419:175 *535:111 6.41642e-05
114 *419:177 *535:113 0.0115714
115 *419:191 *535:113 0.000928216
116 *419:193 *535:117 0.0199883
117 *444:37 *535:91 0
118 *444:53 *535:59 0.000104672
119 *481:11 *535:121 0
120 *530:41 *535:27 9.97152e-05
121 *530:41 *535:35 4.97144e-05
122 *530:43 *535:35 0.000995839
123 *530:43 *535:59 9.99644e-06
124 *530:55 *535:59 0.00028168
125 *530:75 *535:91 0.00196296
126 *530:77 *535:95 9.99644e-06
127 *530:91 *535:111 0.00635603
128 *530:93 *535:113 0.0115714
129 *532:14 *535:27 0.000294633
130 *533:30 *535:27 0
131 *533:52 *535:35 0.000395602
132 *533:68 *535:59 0.000859438
133 *533:92 *535:91 0.000765924
134 *533:94 *535:95 0.00858208
135 *533:110 *535:113 0.000205384
*RES
1 *921:gpio_inp_dis[15] *535:27 45.064 
2 *535:27 *535:35 33.8481 
3 *535:35 *535:59 49.1003 
4 *535:59 *535:91 49.6451 
5 *535:91 *535:93 4.5 
6 *535:93 *535:95 92.9464 
7 *535:95 *535:111 27.5086 
8 *535:111 *535:113 134.223 
9 *535:113 *535:115 1.33929 
10 *535:115 *535:117 203.634 
11 *535:117 *535:119 4.5 
12 *535:119 *535:121 4202.16 
13 *535:121 *535:123 4.5 
14 *535:123 *535:125 135.045 
15 *535:125 gpio_inp_dis[15] 4.71429 
*END

*D_NET *536 0.777408
*CONN
*P gpio_inp_dis[16] O
*I *921:gpio_inp_dis[16] O *D CF_CARAVEL_SOC
*CAP
1 gpio_inp_dis[16] 3.88888e-05
2 *921:gpio_inp_dis[16] 0.00377557
3 *536:245 0.00292536
4 *536:243 0.00446396
5 *536:239 0.00364009
6 *536:235 0.00351986
7 *536:231 0.00205571
8 *536:225 0.00622601
9 *536:223 0.00629037
10 *536:217 0.00272918
11 *536:213 0.0066004
12 *536:211 0.00453403
13 *536:209 0.00251057
14 *536:207 0.00419877
15 *536:197 0.00522568
16 *536:195 0.00416166
17 *536:189 0.00420457
18 *536:187 0.00358038
19 *536:185 0.00188277
20 *536:177 0.00631326
21 *536:175 0.0050933
22 *536:169 0.00664236
23 *536:167 0.00597954
24 *536:165 0.00296113
25 *536:163 0.00296113
26 *536:161 0.00801258
27 *536:159 0.00871435
28 *536:153 0.0553538
29 *536:151 0.0547905
30 *536:145 0.0144412
31 *536:143 0.0161744
32 *536:133 0.00419519
33 *536:127 0.00254357
34 *536:121 0.00314247
35 *536:119 0.00292237
36 *536:117 0.00549803
37 *536:89 0.0265119
38 *536:87 0.0218625
39 *536:81 0.00601869
40 *536:79 0.00603243
41 *536:75 0.00646489
42 *536:65 0.0107058
43 *536:63 0.00940964
44 *536:59 0.00461553
45 *536:49 0.00386972
46 *536:35 0.00660934
47 *536:33 0.00487072
48 *536:17 0.00559752
49 *536:17 *538:25 0.000162575
50 *536:17 *538:29 0.000895279
51 *536:17 *538:37 0.000121926
52 *536:17 *539:17 0
53 *536:17 *540:18 0.00187623
54 *536:17 *542:9 0
55 *536:17 *570:14 0.00166804
56 *536:17 *840:19 0.00874405
57 *536:33 *556:11 0.00127568
58 *536:33 *562:89 0
59 *536:33 *567:14 0.00174182
60 *536:33 *568:11 0.00250902
61 *536:33 *572:16 0.00173401
62 *536:33 *741:164 0
63 *536:35 *537:24 2.87555e-06
64 *536:35 *540:34 0.00544229
65 *536:35 *569:18 0.0148463
66 *536:35 *826:109 0
67 *536:49 *537:40 0.000623579
68 *536:59 *540:34 0.00202284
69 *536:59 *562:117 3.16801e-05
70 *536:59 *826:119 0.002019
71 *536:63 *540:34 0.00302044
72 *536:63 *562:119 0.0206055
73 *536:63 *569:18 0.00296738
74 *536:63 *697:109 0.00254829
75 *536:63 *826:119 0.000973791
76 *536:63 *826:127 0.00180829
77 *536:65 *696:65 0
78 *536:75 *696:57 0.00083909
79 *536:79 *696:57 0.00127058
80 *536:81 *538:79 0.0138754
81 *536:81 *695:55 0.00343671
82 *536:87 *538:85 0
83 *536:89 *538:87 0
84 *536:89 *696:35 0.0258797
85 *536:89 *741:74 0.00313146
86 *536:117 *537:86 0.00100618
87 *536:117 *538:121 0.000155051
88 *536:117 *695:35 0.00394906
89 *536:117 *695:53 0.00180761
90 *536:117 *696:31 0.00374877
91 *536:117 *697:73 0.00196858
92 *536:117 *741:72 0.000160129
93 *536:117 *742:90 0
94 *536:121 *697:47 0
95 *536:121 *741:34 0
96 *536:143 *537:108 0.00279553
97 *536:143 *538:137 0.00830029
98 *536:143 *697:37 3.98562e-05
99 *536:143 *740:49 0.000313209
100 *536:145 *537:116 0.013344
101 *536:145 *538:139 0.00148158
102 *536:145 *740:23 0.00731591
103 *536:145 *740:49 0.000494457
104 *536:145 *742:34 0
105 *536:153 *537:118 0.0361114
106 gpio_analog_pol[16] gpio_inp_dis[16] 0
107 gpio_analog_sel[43] *536:63 0.0017438
108 *118:27 *536:63 0.00528468
109 *118:39 *536:63 0.00059766
110 *118:53 *536:49 0.000750258
111 *125:15 *536:33 0.0015579
112 *139:19 *536:161 0.021381
113 *140:375 *536:225 0
114 *230:21 *536:145 1.99901e-06
115 *244:15 *536:151 0.000259182
116 *271:27 *536:153 0.0866105
117 *322:65 *536:63 0.000458508
118 *322:89 *536:49 0.0095856
119 *322:101 *536:35 0.00228572
120 *322:141 *536:17 0.000148457
121 *359:23 *536:245 0.00258211
122 *386:201 *536:49 0
123 *386:205 *536:49 0
124 *391:15 *536:151 0.00069885
125 *397:135 *536:35 0
126 *408:95 *536:49 0.000241191
127 *444:53 *536:33 0.00871995
128 *448:9 *536:245 0.00319504
129 *529:9 *536:17 0.0168382
130 *529:9 *536:33 0.00349524
131 *529:9 *536:63 0
132 *530:75 *536:35 0.000563048
133 *531:16 *536:17 0.00256332
134 *532:32 *536:63 0.003257
135 *533:122 *536:75 0.000914704
136 *533:130 *536:117 6.40846e-05
137 *533:156 *536:117 0.000835152
138 *533:172 *536:117 9.80322e-05
139 *533:172 *536:121 0.000569536
140 *533:172 *536:133 0.00159981
141 *533:180 *536:143 0.000417577
142 *535:91 *536:49 0.000152361
*RES
1 *921:gpio_inp_dis[16] *536:17 42.3926 
2 *536:17 *536:33 45.2 
3 *536:33 *536:35 139.357 
4 *536:35 *536:49 49.7689 
5 *536:49 *536:59 27.7404 
6 *536:59 *536:63 35.3105 
7 *536:63 *536:65 102.125 
8 *536:65 *536:75 48.7407 
9 *536:75 *536:79 6.77207 
10 *536:79 *536:81 169.518 
11 *536:81 *536:87 9.49743 
12 *536:87 *536:89 99.4426 
13 *536:89 *536:117 48.1186 
14 *536:117 *536:119 3.41 
15 *536:119 *536:121 59.0179 
16 *536:121 *536:127 7.44353 
17 *536:127 *536:133 47.2296 
18 *536:133 *536:143 28.1589 
19 *536:143 *536:145 59.7057 
20 *536:145 *536:151 7.91197 
21 *536:151 *536:153 1884.54 
22 *536:153 *536:159 21.4464 
23 *536:159 *536:161 261.5 
24 *536:161 *536:163 4.5 
25 *536:163 *536:165 55.5714 
26 *536:165 *536:167 4.5 
27 *536:167 *536:169 121.857 
28 *536:169 *536:175 21.4464 
29 *536:175 *536:177 90.8929 
30 *536:177 *536:185 46 
31 *536:185 *536:187 4.5 
32 *536:187 *536:189 68.3036 
33 *536:189 *536:195 21.5714 
34 *536:195 *536:197 67.4821 
35 *536:197 *536:207 46.1429 
36 *536:207 *536:209 51.125 
37 *536:209 *536:211 4.5 
38 *536:211 *536:213 86.375 
39 *536:213 *536:217 46.2143 
40 *536:217 *536:223 21.4464 
41 *536:223 *536:225 113.661 
42 *536:225 *536:231 20.2143 
43 *536:231 *536:235 34.375 
44 *536:235 *536:239 45.6964 
45 *536:239 *536:243 36.8036 
46 *536:243 *536:245 65.8393 
47 *536:245 gpio_inp_dis[16] 5.01786 
*END

*D_NET *537 0.731861
*CONN
*P gpio_inp_dis[17] O
*I *921:gpio_inp_dis[17] O *D CF_CARAVEL_SOC
*CAP
1 gpio_inp_dis[17] 6.38789e-05
2 *921:gpio_inp_dis[17] 0.00388902
3 *537:250 0.00652415
4 *537:248 0.00646027
5 *537:246 0.0162556
6 *537:244 0.0176862
7 *537:238 0.00296738
8 *537:230 0.0333455
9 *537:228 0.0331317
10 *537:222 0.00542285
11 *537:220 0.00604986
12 *537:214 0.00658492
13 *537:212 0.00604726
14 *537:204 0.00278051
15 *537:200 0.00287692
16 *537:196 0.00219298
17 *537:190 0.00634267
18 *537:188 0.00632122
19 *537:182 0.00386234
20 *537:180 0.0044452
21 *537:174 0.00763003
22 *537:172 0.00638436
23 *537:170 0.00291535
24 *537:168 0.00393527
25 *537:164 0.00285289
26 *537:156 0.00361746
27 *537:146 0.00453795
28 *537:144 0.00275346
29 *537:142 0.00270409
30 *537:140 0.00270409
31 *537:138 0.00696792
32 *537:136 0.00761706
33 *537:132 0.00246334
34 *537:126 0.0192335
35 *537:124 0.0181522
36 *537:118 0.0226771
37 *537:116 0.0253144
38 *537:108 0.0133982
39 *537:100 0.0118729
40 *537:86 0.0382237
41 *537:84 0.042624
42 *537:80 0.00752465
43 *537:76 0.00418326
44 *537:58 0.00421329
45 *537:56 0.00148448
46 *537:52 0.00329096
47 *537:40 0.00608337
48 *537:26 0.00471632
49 *537:24 0.00256888
50 *537:14 0.00378554
51 *537:12 0.00685451
52 *537:12 *538:37 2.95642e-05
53 *537:12 *540:18 0.00287434
54 *537:12 *542:9 0
55 *537:12 *567:14 0.00250985
56 *537:12 *568:11 0.00279784
57 *537:12 *572:16 0.00250985
58 *537:14 *538:37 5.33005e-05
59 *537:14 *540:18 0.00324178
60 *537:14 *556:11 0.00721079
61 *537:24 *540:34 7.369e-05
62 *537:24 *740:121 0
63 *537:24 *826:109 0.000621854
64 *537:26 *540:34 0
65 *537:26 *562:107 0.00117726
66 *537:26 *740:115 0.00202774
67 *537:26 *740:121 1.33343e-05
68 *537:52 *551:121 0.000286268
69 *537:52 *696:89 0.00584687
70 *537:56 *696:89 0.000236072
71 *537:58 *551:121 0.0024802
72 *537:58 *696:71 0.011662
73 *537:76 *538:73 0.000140137
74 *537:76 *551:121 0.000607012
75 *537:76 *696:67 0.00106952
76 *537:76 *741:120 0
77 *537:80 *695:63 0.000395195
78 *537:80 *696:65 5.51718e-05
79 *537:80 *697:103 0.00027853
80 *537:84 *696:65 6.43761e-05
81 *537:86 *538:87 0
82 *537:86 *695:53 0.00108799
83 *537:86 *695:55 0
84 *537:86 *697:73 0.00056889
85 *537:86 *697:77 0
86 *537:86 *741:72 0.00142934
87 *537:86 *742:90 0.000513058
88 *537:100 *696:31 0.00154244
89 *537:100 *741:56 0
90 *537:108 *538:137 0
91 *537:108 *695:35 0
92 *537:108 *697:73 0.00263062
93 *537:108 *742:58 0.000341207
94 *537:116 *538:137 0.00168645
95 *537:116 *538:139 0.00475379
96 *537:116 *695:27 0.00110512
97 *537:116 *697:37 0.000247229
98 *537:116 *740:49 0.000131496
99 *537:118 *538:147 0.00505971
100 *537:118 *696:15 0
101 *537:136 *667:15 0
102 *537:188 *706:11 0.000589369
103 *537:250 gpio_slow_sel[17] 0
104 gpio_analog_pol[17] gpio_inp_dis[17] 0
105 gpio_dm2[16] *537:238 0.00185557
106 *118:37 *537:52 0
107 *118:99 *537:12 0.000525934
108 *125:15 *537:12 0.00280802
109 *139:19 *537:126 0.0460934
110 *140:113 *537:126 0
111 *140:249 *537:142 0
112 *140:257 *537:142 0
113 *271:27 *537:118 0.000614204
114 *322:57 *537:52 2.24813e-05
115 *322:89 *537:40 0.00967592
116 *322:101 *537:24 9.99644e-06
117 *322:123 *537:12 0.00452476
118 *325:63 *537:12 0.000403482
119 *338:35 *537:12 0.000393045
120 *359:23 *537:250 0.00786913
121 *386:201 *537:40 0
122 *397:135 *537:24 1.74352e-05
123 *397:171 *537:52 0.0016763
124 *403:19 *537:136 0.000611952
125 *408:77 *537:40 2.60254e-05
126 *419:117 *537:12 0
127 *419:177 *537:58 0.0115714
128 *444:55 *537:12 0.000984416
129 *448:9 *537:250 0.00935443
130 *449:9 *537:250 0.00319504
131 *529:9 *537:12 0.00488828
132 *529:9 *537:14 0.000375961
133 *530:77 *537:52 0.00021081
134 *531:16 *537:14 0.0183723
135 *532:16 *537:12 0.000683948
136 *532:30 *537:24 0.000257914
137 *533:84 *537:24 0.000364532
138 *533:92 *537:40 0.00142488
139 *533:114 *537:80 0.00174871
140 *533:130 *537:86 0.00975195
141 *533:156 *537:86 7.1588e-05
142 *533:156 *537:100 0.000576463
143 *533:156 *537:108 2.05803e-05
144 *533:172 *537:108 0
145 *533:172 *537:116 0.000304303
146 *535:91 *537:40 0.000162331
147 *535:113 *537:58 4.57098e-05
148 *536:35 *537:24 2.87555e-06
149 *536:49 *537:40 0.000623579
150 *536:117 *537:86 0.00100618
151 *536:143 *537:108 0.00279553
152 *536:145 *537:116 0.013344
153 *536:153 *537:118 0.0361114
*RES
1 *921:gpio_inp_dis[17] *537:12 33.9835 
2 *537:12 *537:14 172.625 
3 *537:14 *537:24 29.2768 
4 *537:24 *537:26 47.9732 
5 *537:26 *537:40 39.6636 
6 *537:40 *537:52 48.7943 
7 *537:52 *537:56 8.41964 
8 *537:56 *537:58 109.375 
9 *537:58 *537:76 28.8501 
10 *537:76 *537:80 42.9993 
11 *537:80 *537:84 22.5907 
12 *537:84 *537:86 146.743 
13 *537:86 *537:100 20.6179 
14 *537:100 *537:108 48.9007 
15 *537:108 *537:116 38.18 
16 *537:116 *537:118 628.973 
17 *537:118 *537:124 21.8571 
18 *537:124 *537:126 563.857 
19 *537:126 *537:132 42.8036 
20 *537:132 *537:136 23.1429 
21 *537:136 *537:138 132.786 
22 *537:138 *537:140 4.5 
23 *537:140 *537:142 55.375 
24 *537:142 *537:144 4.5 
25 *537:144 *537:146 52.2857 
26 *537:146 *537:156 48.125 
27 *537:156 *537:164 44.4821 
28 *537:164 *537:168 24.6607 
29 *537:168 *537:170 55.5714 
30 *537:170 *537:172 4.5 
31 *537:172 *537:174 129.446 
32 *537:174 *537:180 33.7679 
33 *537:180 *537:182 65.0893 
34 *537:182 *537:188 21.4464 
35 *537:188 *537:190 113.964 
36 *537:190 *537:196 21.8571 
37 *537:196 *537:200 35.2857 
38 *537:200 *537:204 31.7321 
39 *537:204 *537:212 36.9107 
40 *537:212 *537:214 92.7143 
41 *537:214 *537:220 46.0893 
42 *537:220 *537:222 83.6071 
43 *537:222 *537:228 33.7679 
44 *537:228 *537:230 648.554 
45 *537:230 *537:238 47.2143 
46 *537:238 *537:244 37.0536 
47 *537:244 *537:246 331.018 
48 *537:246 *537:248 4.5 
49 *537:248 *537:250 187.411 
50 *537:250 gpio_inp_dis[17] 5.32143 
*END

*D_NET *538 0.771204
*CONN
*P gpio_inp_dis[18] O
*I *921:gpio_inp_dis[18] O *D CF_CARAVEL_SOC
*CAP
1 gpio_inp_dis[18] 0.00276303
2 *921:gpio_inp_dis[18] 0.00078239
3 *538:397 0.00524926
4 *538:387 0.00522037
5 *538:385 0.00348229
6 *538:379 0.00341832
7 *538:369 0.00648688
8 *538:357 0.00592836
9 *538:353 0.00406636
10 *538:347 0.00696137
11 *538:345 0.00784985
12 *538:331 0.00633481
13 *538:329 0.00890521
14 *538:323 0.0120629
15 *538:315 0.040178
16 *538:313 0.0378252
17 *538:307 0.00772226
18 *538:305 0.00431104
19 *538:297 0.00340698
20 *538:289 0.00586765
21 *538:275 0.0147304
22 *538:273 0.0120603
23 *538:267 0.0056936
24 *538:265 0.0056936
25 *538:259 0.0148214
26 *538:257 0.0146464
27 *538:253 0.00278275
28 *538:249 0.00467951
29 *538:245 0.00516612
30 *538:233 0.00512147
31 *538:219 0.00615845
32 *538:217 0.00613486
33 *538:205 0.0044249
34 *538:201 0.00279478
35 *538:195 0.00326356
36 *538:193 0.00765976
37 *538:187 0.0093495
38 *538:179 0.00727836
39 *538:177 0.00627595
40 *538:173 0.00521463
41 *538:169 0.00673917
42 *538:155 0.00635127
43 *538:153 0.00205064
44 *538:147 0.0029668
45 *538:145 0.00297868
46 *538:139 0.0091195
47 *538:137 0.0153512
48 *538:123 0.00845014
49 *538:121 0.00679561
50 *538:95 0.0091635
51 *538:93 0.00457274
52 *538:87 0.0145648
53 *538:85 0.0147094
54 *538:79 0.00964985
55 *538:77 0.0133931
56 *538:73 0.00817093
57 *538:55 0.00654814
58 *538:53 0.00483096
59 *538:43 0.008928
60 *538:41 0.00754934
61 *538:37 0.00290778
62 *538:29 0.00293094
63 *538:25 0.000911761
64 *538:17 0.000957481
65 *538:17 *556:11 0.00161768
66 *538:17 *568:11 0.00293144
67 *538:29 *556:11 0.00181323
68 *538:37 *542:9 0.000530209
69 *538:37 *556:11 0.000418393
70 *538:43 *692:35 0.00238803
71 *538:43 *742:120 0.00620725
72 *538:43 *857:11 0.0157207
73 *538:53 *698:27 0.0128285
74 *538:53 *860:11 0.00273361
75 *538:53 *865:11 0.00253507
76 *538:55 *741:122 0.00173602
77 *538:73 *551:121 0.00163104
78 *538:73 *741:120 0
79 *538:79 *695:55 0.00383479
80 *538:79 *741:98 0
81 *538:93 *741:88 0.000302578
82 *538:95 *695:55 0.0230771
83 *538:121 *695:55 0.000128353
84 *538:121 *697:73 0.00192738
85 *538:121 *741:56 0.000304303
86 *538:121 *742:58 0.000101375
87 *538:121 *742:90 0
88 *538:123 *697:73 0.000917248
89 *538:123 *741:56 0.000264522
90 *538:137 *697:73 3.02799e-05
91 *538:137 *741:56 0.000232538
92 *538:137 *742:58 0.000447682
93 *538:139 *740:31 0.0026978
94 *538:145 *695:25 5.97609e-05
95 *538:195 *685:17 0.00687888
96 *538:219 *682:7 0
97 *538:245 *681:17 0
98 *538:249 *799:15 0
99 *538:257 *800:15 0.000410107
100 *538:259 *677:7 0
101 *538:289 *748:11 0.00258072
102 *538:289 *836:15 0
103 *538:369 *756:10 0
104 *538:397 gpio_slow_sel[18] 0
105 gpio_analog_en[18] gpio_inp_dis[18] 0
106 gpio_analog_pol[18] gpio_inp_dis[18] 0
107 gpio_analog_sel[17] *538:315 0.0312509
108 gpio_dm0[18] gpio_inp_dis[18] 0
109 gpio_dm1[18] *538:397 0
110 *105:31 *538:379 0.00274794
111 *109:31 *538:305 0.00129402
112 *139:19 *538:155 0.00378253
113 *146:21 *538:233 0.00297897
114 *153:31 *538:297 0.00032431
115 *156:15 *538:265 0
116 *187:15 *538:169 0.00866479
117 *189:15 *538:169 0
118 *191:15 *538:233 0.000330908
119 *197:15 *538:289 0.000639961
120 *230:25 *538:153 0.000162764
121 *230:27 gpio_inp_dis[18] 0.000221011
122 *231:15 *538:169 0.000927869
123 *234:15 *538:233 0.000328335
124 *237:23 *538:369 0.000518586
125 *251:15 *538:43 0.0228241
126 *252:15 *538:53 0.0128259
127 *275:15 *538:153 0.000414323
128 *278:15 *538:245 0.00462049
129 *280:23 *538:249 0.00692978
130 *284:23 *538:43 0.0129798
131 *285:15 *538:305 0
132 *290:15 *538:153 0.000290185
133 *293:15 *538:25 0.000411104
134 *317:15 *538:177 0
135 *319:15 *538:169 0
136 *322:123 *538:37 1.93639e-05
137 *402:15 *538:379 0
138 *529:9 *538:17 0.000523118
139 *531:16 *538:25 0.000750929
140 *531:16 *538:29 0.00458692
141 *531:16 *538:37 0.000386613
142 *533:128 *538:93 0
143 *533:130 *538:95 0.00925656
144 *533:130 *538:121 0
145 *533:156 *538:121 0.000137369
146 *533:158 *538:123 0.00393936
147 *533:172 *538:137 0.00424915
148 *533:180 *538:137 0.000182139
149 *533:180 *538:139 0.00433787
150 *536:17 *538:25 0.000162575
151 *536:17 *538:29 0.000895279
152 *536:17 *538:37 0.000121926
153 *536:81 *538:79 0.0138754
154 *536:87 *538:85 0
155 *536:89 *538:87 0
156 *536:117 *538:121 0.000155051
157 *536:143 *538:137 0.00830029
158 *536:145 *538:139 0.00148158
159 *537:12 *538:37 2.95642e-05
160 *537:14 *538:37 5.33005e-05
161 *537:76 *538:73 0.000140137
162 *537:86 *538:87 0
163 *537:108 *538:137 0
164 *537:116 *538:137 0.00168645
165 *537:116 *538:139 0.00475379
166 *537:118 *538:147 0.00505971
*RES
1 *921:gpio_inp_dis[18] *538:17 45.1696 
2 *538:17 *538:25 16.8393 
3 *538:25 *538:29 43.4732 
4 *538:29 *538:37 44.0179 
5 *538:37 *538:41 14.6696 
6 *538:41 *538:43 394 
7 *538:43 *538:53 33.9475 
8 *538:53 *538:55 49.9107 
9 *538:55 *538:73 39.6561 
10 *538:73 *538:77 16.465 
11 *538:77 *538:79 247.839 
12 *538:79 *538:85 8.7047 
13 *538:85 *538:87 49.2654 
14 *538:87 *538:93 8.5966 
15 *538:93 *538:95 46.7086 
16 *538:95 *538:121 33.3753 
17 *538:121 *538:123 54.7679 
18 *538:123 *538:137 45.3114 
19 *538:137 *538:139 47.3478 
20 *538:139 *538:145 8.34437 
21 *538:145 *538:147 64.4821 
22 *538:147 *538:153 9.17313 
23 *538:153 *538:155 46.875 
24 *538:155 *538:169 48.0217 
25 *538:169 *538:173 42.9993 
26 *538:173 *538:177 14.267 
27 *538:177 *538:179 61.4464 
28 *538:179 *538:187 47.1088 
29 *538:187 *538:193 22.5055 
30 *538:193 *538:195 83.9107 
31 *538:195 *538:201 9.10107 
32 *538:201 *538:205 46.035 
33 *538:205 *538:217 23.6136 
34 *538:217 *538:219 77.2321 
35 *538:219 *538:233 41.4923 
36 *538:233 *538:245 46.1252 
37 *538:245 *538:249 14.267 
38 *538:249 *538:253 49.6779 
39 *538:253 *538:257 5.619 
40 *538:257 *538:259 286.089 
41 *538:259 *538:265 9.029 
42 *538:265 *538:267 102.125 
43 *538:267 *538:273 9.029 
44 *538:273 *538:275 230.839 
45 *538:275 *538:289 42.75 
46 *538:289 *538:297 48.2273 
47 *538:297 *538:305 18.6521 
48 *538:305 *538:307 69.9464 
49 *538:307 *538:313 18.758 
50 *538:313 *538:315 961.232 
51 *538:315 *538:323 49.6853 
52 *538:323 *538:329 23.6585 
53 *538:329 *538:331 71.1607 
54 *538:331 *538:345 43.5497 
55 *538:345 *538:347 102.125 
56 *538:347 *538:353 13.353 
57 *538:353 *538:357 46.035 
58 *538:357 *538:369 42.1072 
59 *538:369 *538:379 48.3326 
60 *538:379 *538:385 9.10107 
61 *538:385 *538:387 55.375 
62 *538:387 *538:397 49.5997 
63 *538:397 gpio_inp_dis[18] 43.3604 
*END

*D_NET *539 1.08642
*CONN
*P gpio_inp_dis[19] O
*I *921:gpio_inp_dis[19] O *D CF_CARAVEL_SOC
*CAP
1 gpio_inp_dis[19] 0.000738418
2 *921:gpio_inp_dis[19] 0.000204226
3 *539:435 0.0355072
4 *539:433 0.0347688
5 *539:431 0.00379552
6 *539:429 0.00449529
7 *539:423 0.00385056
8 *539:421 0.0047228
9 *539:407 0.00557144
10 *539:405 0.00434442
11 *539:399 0.00486254
12 *539:397 0.00505548
13 *539:391 0.00326626
14 *539:375 0.00604172
15 *539:373 0.0052379
16 *539:355 0.00797032
17 *539:353 0.00671271
18 *539:347 0.00374264
19 *539:345 0.0034207
20 *539:339 0.00454956
21 *539:337 0.0048715
22 *539:331 0.0124686
23 *539:329 0.0143757
24 *539:315 0.0145262
25 *539:313 0.0123063
26 *539:307 0.0129023
27 *539:305 0.0127656
28 *539:299 0.00906039
29 *539:297 0.00919704
30 *539:291 0.0183135
31 *539:289 0.0179595
32 *539:287 0.00266403
33 *539:271 0.0122331
34 *539:269 0.0103142
35 *539:259 0.00314611
36 *539:257 0.00240098
37 *539:255 0.00229721
38 *539:249 0.00447335
39 *539:227 0.00447949
40 *539:225 0.00264832
41 *539:221 0.00282779
42 *539:211 0.00939454
43 *539:209 0.00691174
44 *539:207 0.00336183
45 *539:191 0.00843454
46 *539:189 0.00507271
47 *539:187 0.00223694
48 *539:185 0.00223694
49 *539:183 0.00164518
50 *539:181 0.0029985
51 *539:175 0.00673179
52 *539:173 0.00768649
53 *539:167 0.00963848
54 *539:165 0.00783826
55 *539:159 0.033877
56 *539:157 0.0333692
57 *539:155 0.00228795
58 *539:153 0.00454897
59 *539:141 0.00619106
60 *539:119 0.00448632
61 *539:107 0.00362476
62 *539:101 0.003559
63 *539:97 0.00194033
64 *539:93 0.00343235
65 *539:75 0.00558318
66 *539:73 0.00421944
67 *539:63 0.0041922
68 *539:61 0.0036755
69 *539:55 0.00808688
70 *539:53 0.00845843
71 *539:43 0.00109083
72 *539:41 0.00162257
73 *539:35 0.00437194
74 *539:33 0.00488709
75 *539:25 0.00406667
76 *539:21 0.00280369
77 *539:17 0.00260418
78 *539:11 0.00427831
79 *539:9 0.00213591
80 *539:11 *569:18 0.0027031
81 *539:11 *696:133 9.92409e-05
82 *539:17 *696:133 0
83 *539:17 *760:29 0
84 *539:21 *861:11 0.0019581
85 *539:25 *551:59 0
86 *539:25 *571:25 0.0016416
87 *539:25 *696:145 0
88 *539:33 *540:18 0.00062635
89 *539:33 *696:145 0.00556059
90 *539:35 *551:35 4.13496e-05
91 *539:35 *551:49 0.00214069
92 *539:35 *562:35 0.000447622
93 *539:35 *696:147 0.00365633
94 *539:43 *858:11 0.00526944
95 *539:53 *696:163 0.000160372
96 *539:55 *571:17 0.000478975
97 *539:55 *840:19 0.00485601
98 *539:61 *826:45 7.40793e-05
99 *539:63 gpio_out[39] 0.00400163
100 *539:63 *541:35 9.71378e-06
101 *539:73 *826:31 0.00290114
102 *539:75 *826:31 0.00930399
103 *539:93 *541:53 9.34345e-05
104 *539:93 *693:187 0.00975746
105 *539:93 *739:116 0.0101327
106 *539:97 *693:173 0
107 *539:97 *739:116 0
108 *539:101 *543:11 0
109 *539:101 *739:108 0.000274382
110 *539:107 *541:65 0.000740367
111 *539:107 *541:73 0.0154662
112 *539:107 *815:47 2.24813e-05
113 *539:107 *826:27 0.00146464
114 *539:119 *541:73 0.000574541
115 *539:119 *556:29 5.25862e-06
116 *539:119 *737:151 0.000623258
117 *539:119 *739:76 0.000456179
118 *539:119 *739:84 0.0021019
119 *539:141 *556:29 0
120 *539:141 *693:113 0.000172538
121 *539:141 *815:21 0
122 *539:141 *826:27 0.00260531
123 *539:141 *840:19 0.00165175
124 *539:153 *541:105 0
125 *539:153 *693:109 0.000544516
126 *539:153 *737:99 0.000294103
127 *539:153 *815:21 0.00175801
128 *539:155 *693:95 0.0136135
129 *539:155 *873:37 0.00185649
130 *539:159 *737:89 0.0115516
131 *539:159 *832:19 0.00530108
132 *539:165 *832:19 0.000774525
133 *539:167 *832:19 0.017484
134 *539:183 *693:31 0.00907568
135 *539:183 *818:11 0.00217573
136 *539:187 *693:27 0.00743023
137 *539:187 *731:14 0.00011307
138 *539:191 *808:21 0
139 *539:221 *808:27 0
140 *539:255 *720:9 0.000727744
141 *539:255 *807:15 0.000206
142 *539:271 *764:23 0
143 *539:287 *722:13 0.000217465
144 *539:329 *678:13 0.000613019
145 *539:421 gpio_oeb[22] 0
146 *539:423 gpio_out[22] 0
147 gpio_analog_pol[19] gpio_inp_dis[19] 0
148 gpio_analog_sel[22] *539:431 0
149 *921:gpio_in[17] *539:101 0.00011307
150 *921:gpio_in[18] *539:97 0.000169212
151 *921:gpio_in[37] *539:61 0
152 *921:gpio_in[41] *539:55 0.00406013
153 *104:35 *539:255 0
154 *104:35 *539:259 0
155 *118:115 *539:35 0
156 *118:187 *539:119 0.00224055
157 *148:17 *539:255 0
158 *212:23 *539:43 0.00113088
159 *237:23 *539:421 0.00103885
160 *238:27 *539:175 0.0128298
161 *248:19 *539:21 0.00196149
162 *285:15 *539:305 0.000731224
163 *292:15 *539:43 0.00527283
164 *293:15 *539:55 0.0183092
165 *322:131 *539:11 0.00792447
166 *322:141 *539:17 0
167 *322:161 *539:41 4.11173e-05
168 *322:167 *539:55 0.0495296
169 *322:173 *539:61 0.000234269
170 *322:175 *539:63 0.031887
171 *322:189 *539:73 9.5664e-05
172 *322:191 *539:75 0.0207254
173 *322:215 *539:101 0.0017925
174 *322:221 *539:107 0.0155131
175 *322:255 *539:141 0.000562822
176 *322:265 *539:153 0.00808478
177 *322:273 *539:155 0.0129685
178 *322:313 *539:187 0.00435612
179 *322:317 *539:207 0
180 *322:481 *539:435 0.0248935
181 *325:69 *539:17 0.000941031
182 *325:97 *539:93 0.00115332
183 *325:129 *539:119 0.000103244
184 *325:137 *539:119 0.000479367
185 *325:137 *539:141 0.000182924
186 *325:145 *539:141 0.000368206
187 *338:63 *539:63 0.000787294
188 *338:81 *539:153 5.79012e-05
189 *362:15 *539:435 0
190 *365:15 *539:435 0
191 *366:11 *539:183 0.00511783
192 *366:15 *539:435 0.0036586
193 *369:11 *539:183 1.18548e-05
194 *386:35 *539:141 2.91521e-05
195 *386:55 *539:141 0.0158346
196 *386:89 *539:93 0.00115045
197 *386:89 *539:97 0.00040239
198 *386:139 *539:35 1.32552e-05
199 *386:153 *539:33 0.000213889
200 *386:155 *539:11 0
201 *386:159 *539:11 0
202 *387:11 *539:159 0.0364034
203 *387:11 *539:165 0.000500457
204 *387:11 *539:167 0
205 *397:25 *539:141 0.00117788
206 *397:39 *539:141 0.0150306
207 *397:55 *539:119 0.000376948
208 *397:71 *539:75 0.00156137
209 *397:79 *539:55 1.39841e-05
210 *404:11 *539:175 0
211 *419:23 *539:119 6.19998e-05
212 *419:31 *539:73 0.00111402
213 *419:79 *539:35 0.000405733
214 *419:117 *539:11 0.00159243
215 *436:23 *539:187 0
216 *444:61 *539:61 5.53931e-05
217 *444:63 *539:63 0.0318436
218 *455:21 *539:183 2.09897e-05
219 *456:11 *539:287 0
220 *469:11 *539:159 0
221 *472:55 *539:63 2.33779e-05
222 *474:15 *539:101 0.0026106
223 *530:17 *539:35 0
224 *531:14 *539:25 0
225 *532:14 *539:25 0
226 *533:30 *539:25 0
227 *533:30 *539:33 0.00211733
228 *535:27 *539:11 6.20765e-05
229 *535:27 *539:25 0
230 *536:17 *539:17 0
*RES
1 *921:gpio_inp_dis[19] *539:9 7.79464 
2 *539:9 *539:11 88.0179 
3 *539:11 *539:17 46.1607 
4 *539:17 *539:21 23.1071 
5 *539:21 *539:25 47.4011 
6 *539:25 *539:33 20.885 
7 *539:33 *539:35 92.9464 
8 *539:35 *539:41 24.6071 
9 *539:41 *539:43 49.8214 
10 *539:43 *539:53 16.5714 
11 *539:53 *539:55 465.054 
12 *539:55 *539:61 11.2225 
13 *539:61 *539:63 49.2685 
14 *539:63 *539:73 38.2761 
15 *539:73 *539:75 196.446 
16 *539:75 *539:93 43.3616 
17 *539:93 *539:97 31.1875 
18 *539:97 *539:101 29.2679 
19 *539:101 *539:107 48.6784 
20 *539:107 *539:119 47.3921 
21 *539:119 *539:141 48.6324 
22 *539:141 *539:153 25.6573 
23 *539:153 *539:155 129.911 
24 *539:155 *539:157 4.5 
25 *539:157 *539:159 994.473 
26 *539:159 *539:165 19.375 
27 *539:165 *539:167 218.58 
28 *539:167 *539:173 44.0357 
29 *539:173 *539:175 160.411 
30 *539:175 *539:181 29.6607 
31 *539:181 *539:183 111.232 
32 *539:183 *539:185 4.5 
33 *539:185 *539:187 72.4107 
34 *539:187 *539:189 4.5 
35 *539:189 *539:191 92.5625 
36 *539:191 *539:207 49.4474 
37 *539:207 *539:209 3.41 
38 *539:209 *539:211 141.589 
39 *539:211 *539:221 48.9926 
40 *539:221 *539:225 4.538 
41 *539:225 *539:227 46.875 
42 *539:227 *539:249 34.1508 
43 *539:249 *539:255 47.7701 
44 *539:255 *539:257 3.41 
45 *539:257 *539:259 48.6964 
46 *539:259 *539:269 9.22953 
47 *539:269 *539:271 193.804 
48 *539:271 *539:287 48.2806 
49 *539:287 *539:289 3.41 
50 *539:289 *539:291 363.804 
51 *539:291 *539:297 7.948 
52 *539:297 *539:299 179.232 
53 *539:299 *539:305 7.948 
54 *539:305 *539:307 255.125 
55 *539:307 *539:313 7.948 
56 *539:313 *539:315 242.982 
57 *539:315 *539:329 27.6307 
58 *539:329 *539:331 239.946 
59 *539:331 *539:337 9.029 
60 *539:337 *539:339 85.7321 
61 *539:339 *539:345 7.948 
62 *539:345 *539:347 62.6607 
63 *539:347 *539:353 9.029 
64 *539:353 *539:355 123.375 
65 *539:355 *539:373 35.9049 
66 *539:373 *539:375 67.5179 
67 *539:375 *539:391 48.7678 
68 *539:391 *539:397 8.45247 
69 *539:397 *539:399 92.4107 
70 *539:399 *539:405 7.948 
71 *539:405 *539:407 80.875 
72 *539:407 *539:421 27.8973 
73 *539:421 *539:423 63.875 
74 *539:423 *539:429 9.029 
75 *539:429 *539:431 76.625 
76 *539:431 *539:433 3.41 
77 *539:433 *539:435 122.56 
78 *539:435 gpio_inp_dis[19] 18.0439 
*END

*D_NET *540 0.380423
*CONN
*P gpio_inp_dis[1] O
*I *921:gpio_inp_dis[1] O *D CF_CARAVEL_SOC
*CAP
1 gpio_inp_dis[1] 0.00471619
2 *921:gpio_inp_dis[1] 0.0383209
3 *540:38 0.011069
4 *540:36 0.00635278
5 *540:34 0.0143377
6 *540:32 0.0149596
7 *540:18 0.0389427
8 *540:18 *551:17 0.00130254
9 *540:18 *551:33 0.00138404
10 *540:18 *551:49 0.00122701
11 *540:18 *551:73 0.000881419
12 *540:18 *562:21 0.00068176
13 *540:18 *562:33 0.00137905
14 *540:18 *562:49 0.00110986
15 *540:18 *562:65 0.000886404
16 *540:18 *567:12 0.000456645
17 *540:18 *569:16 0.00343693
18 *540:18 *570:12 0.00249542
19 *540:18 *571:17 0.000922577
20 *540:18 *572:14 0.000860046
21 *540:18 *696:117 0.000283244
22 *540:18 *696:145 0.000591456
23 *540:18 *696:163 0.000661159
24 *540:18 *740:165 0.000322278
25 *540:18 *826:61 0.000197658
26 *540:18 *826:77 0.000886404
27 *540:18 *840:19 0.00716441
28 *540:32 *696:95 0.00206575
29 *540:32 *741:148 0
30 *540:34 *569:18 0.000719399
31 *540:34 *740:113 0.000727158
32 *540:34 *826:119 0.00668848
33 *540:38 *551:125 0.0359209
34 gpio_analog_pol[1] gpio_inp_dis[1] 0.00653952
35 gpio_analog_sel[43] *540:18 0.00150577
36 *921:gpio_in[41] *540:18 0.000875551
37 *118:27 *540:34 0.00469821
38 *118:65 *540:32 0.00206768
39 *118:97 *540:18 0.000657971
40 *118:129 *540:18 0.00168063
41 *118:145 *540:18 0.0011543
42 *245:11 *540:38 0.000958939
43 *250:11 *540:38 0.00230306
44 *256:11 *540:38 0.0254419
45 *257:11 *540:38 0.000219804
46 *279:11 *540:38 0.000122492
47 *280:11 *540:38 0.000106515
48 *281:9 gpio_inp_dis[1] 0.00372689
49 *296:11 *540:38 0.00402426
50 *322:89 *540:32 9.15842e-06
51 *322:123 *540:18 0.00166319
52 *322:161 *540:18 0.00189369
53 *336:41 *540:18 0.000518407
54 *338:29 *540:18 0.000499335
55 *338:63 *540:18 0.00300025
56 *346:15 *540:18 0.00101217
57 *386:121 *540:18 0.00115929
58 *386:137 *540:18 0.00137407
59 *397:93 *540:18 0.000288264
60 *397:109 *540:18 0.00081251
61 *419:61 *540:18 0.0011543
62 *419:77 *540:18 0.00137407
63 *419:93 *540:18 0.00109491
64 *419:117 *540:18 0.001181
65 *441:11 *540:38 0.000180157
66 *529:9 *540:18 0.0232458
67 *530:25 *540:18 0.00109491
68 *530:41 *540:18 0.00102823
69 *531:14 *540:18 0.00341297
70 *531:16 *540:18 0.00324178
71 *532:14 *540:18 0.00284337
72 *532:32 *540:34 0.0475446
73 *533:30 *540:18 0.000906765
74 *535:27 *540:18 0.000228601
75 *535:35 *540:18 0.00151449
76 *535:59 *540:18 0.00093454
77 *536:17 *540:18 0.00187623
78 *536:35 *540:34 0.00544229
79 *536:59 *540:34 0.00202284
80 *536:63 *540:34 0.00302044
81 *537:12 *540:18 0.00287434
82 *537:14 *540:18 0.00324178
83 *537:24 *540:34 7.369e-05
84 *537:26 *540:34 0
85 *539:33 *540:18 0.00062635
*RES
1 *921:gpio_inp_dis[1] *540:18 49.7602 
2 *540:18 *540:32 41.9011 
3 *540:32 *540:34 510.643 
4 *540:34 *540:36 4.5 
5 *540:36 *540:38 444.705 
6 *540:38 gpio_inp_dis[1] 19.2419 
*END

*D_NET *541 1.06649
*CONN
*P gpio_inp_dis[20] O
*I *921:gpio_inp_dis[20] O *D CF_CARAVEL_SOC
*CAP
1 gpio_inp_dis[20] 0.000112372
2 *921:gpio_inp_dis[20] 0.004554
3 *541:135 0.132681
4 *541:133 0.132569
5 *541:131 0.028637
6 *541:129 0.028637
7 *541:127 0.00234601
8 *541:125 0.00366419
9 *541:115 0.00629133
10 *541:113 0.00497315
11 *541:111 0.0424101
12 *541:109 0.0424101
13 *541:107 0.00450582
14 *541:105 0.00677602
15 *541:97 0.00275948
16 *541:89 0.00294549
17 *541:81 0.00309612
18 *541:73 0.00291866
19 *541:65 0.00451181
20 *541:59 0.00362037
21 *541:57 0.00403906
22 *541:53 0.0036225
23 *541:43 0.00368765
24 *541:41 0.00285031
25 *541:35 0.00719877
26 *541:33 0.00724975
27 *541:27 0.0141757
28 *541:25 0.0164521
29 *541:19 0.00394715
30 *541:17 0.00148636
31 *541:15 0.00253578
32 *541:13 0.00708978
33 *541:13 *740:165 0.00782074
34 *541:15 *740:167 0.00329679
35 *541:19 *546:13 0.00786451
36 *541:19 *564:13 0.000332788
37 *541:27 *556:11 0
38 *541:27 *567:12 0.000438525
39 *541:27 *567:14 0.00958514
40 *541:27 *569:16 0.00289953
41 *541:27 *572:16 0.011464
42 *541:35 gpio_out[39] 0.000800373
43 *541:35 *826:31 0.0118635
44 *541:59 *825:23 0.00192059
45 *541:59 *844:13 0.002757
46 *541:73 *693:139 0
47 *541:73 *737:151 4.22135e-06
48 *541:73 *815:47 0.015556
49 *541:73 *826:27 0.00170279
50 *541:81 *693:131 0.0034205
51 *541:81 *737:143 0.000417718
52 *541:81 *739:76 1.37595e-05
53 *541:89 *693:121 0.0146544
54 *541:89 *737:143 0.0153509
55 *541:89 *739:68 0.000693596
56 *541:89 *826:27 0.00166319
57 *541:89 *873:21 0
58 *541:89 *873:23 0
59 *541:97 *556:37 0.000218221
60 *541:97 *840:19 0.00038303
61 *541:107 *693:95 0.000604298
62 *541:107 *749:25 4.58194e-05
63 *541:107 *815:21 0.000904642
64 *541:107 *824:17 9.41642e-05
65 *541:107 *841:21 9.41642e-05
66 *541:107 *847:36 5.49489e-05
67 *541:111 *690:23 0.00658935
68 *541:111 *820:11 0.0287981
69 *541:125 *752:11 0.000251371
70 *541:127 *542:47 0.00187983
71 *541:127 *737:17 0.00494245
72 *541:127 *737:31 0
73 *541:131 *693:19 0.0270389
74 *541:131 *716:11 0.000346997
75 gpio_analog_pol[20] gpio_inp_dis[20] 0
76 gpio_analog_pol[20] *541:135 0
77 gpio_analog_pol[38] *541:57 0
78 gpio_analog_sel[42] *541:15 0
79 *921:gpio_in[16] *541:73 9.03127e-05
80 *118:113 *541:25 0
81 *118:161 *541:41 2.04825e-05
82 *118:163 *541:43 0.0236967
83 *118:177 *541:53 0.00522831
84 *118:187 *541:81 0.0023652
85 *118:187 *541:97 2.12005e-05
86 *145:19 *541:135 0
87 *160:23 *541:131 0.0172838
88 *163:23 *541:131 0
89 *206:51 *541:127 0
90 *293:15 *541:97 0.00200999
91 *301:17 *541:19 0.000404681
92 *322:175 *541:35 0.00913066
93 *322:207 *541:53 1.03196e-05
94 *322:221 *541:65 0.0007291
95 *322:221 *541:73 4.88644e-05
96 *322:255 *541:89 0
97 *322:273 *541:107 0.00791726
98 *322:299 *541:115 0
99 *325:61 *541:13 0.00102974
100 *325:79 *541:35 0.0161388
101 *325:87 *541:43 0.0236124
102 *325:115 *541:65 0
103 *325:137 *541:81 0.0006146
104 *325:145 *541:89 0.000619335
105 *325:145 *541:97 0.00197746
106 *335:25 *541:19 0.00208931
107 *335:25 *541:59 0.000529384
108 *335:45 *541:97 0.000600788
109 *335:45 *541:105 0.0161339
110 *338:29 *541:13 0
111 *338:63 *541:27 0.00294756
112 *338:63 *541:35 0.000725612
113 *338:81 *541:105 0.00918088
114 *386:97 *541:41 6.6289e-05
115 *386:99 *541:35 0.00528958
116 *392:19 *541:111 0.00691729
117 *397:71 *541:53 0.00502338
118 *402:11 *541:111 0.0768535
119 *419:19 *541:97 6.13602e-05
120 *419:19 *541:105 6.65742e-06
121 *419:37 *541:41 8.93722e-05
122 *444:55 *541:27 0.0627892
123 *449:13 *541:125 0
124 *450:13 *541:125 0.00176571
125 *453:49 *541:59 0.00839132
126 *454:17 *541:127 0.0102357
127 *464:11 *541:111 0
128 *465:11 *541:111 0
129 *472:55 *541:35 0
130 *477:11 *541:19 0.000841704
131 *529:9 *541:27 0.00077617
132 *531:14 *541:27 0.00190364
133 *533:40 *541:15 0
134 *533:48 *541:13 0.00191775
135 *539:63 *541:35 9.71378e-06
136 *539:93 *541:53 9.34345e-05
137 *539:107 *541:65 0.000740367
138 *539:107 *541:73 0.0154662
139 *539:119 *541:73 0.000574541
140 *539:153 *541:105 0
*RES
1 *921:gpio_inp_dis[20] *541:13 41.9143 
2 *541:13 *541:15 50.6696 
3 *541:15 *541:17 4.5 
4 *541:17 *541:19 74.4643 
5 *541:19 *541:25 44.3393 
6 *541:25 *541:27 589.089 
7 *541:27 *541:33 11.2225 
8 *541:33 *541:35 53.016 
9 *541:35 *541:41 11.2225 
10 *541:41 *541:43 222.732 
11 *541:43 *541:53 22.5348 
12 *541:53 *541:57 43.6339 
13 *541:57 *541:59 79.3929 
14 *541:59 *541:65 48.2582 
15 *541:65 *541:73 39.8933 
16 *541:73 *541:81 43.5439 
17 *541:81 *541:89 46.1657 
18 *541:89 *541:97 35.0975 
19 *541:97 *541:105 34.9182 
20 *541:105 *541:107 105.268 
21 *541:107 *541:109 4.5 
22 *541:109 *541:111 1367.41 
23 *541:111 *541:113 4.5 
24 *541:113 *541:115 74.875 
25 *541:115 *541:125 44.2321 
26 *541:125 *541:127 126.107 
27 *541:127 *541:129 4.5 
28 *541:129 *541:131 764.464 
29 *541:131 *541:133 4.5 
30 *541:133 *541:135 2686.88 
31 *541:135 gpio_inp_dis[20] 1.60714 
*END

*D_NET *542 1.12269
*CONN
*P gpio_inp_dis[21] O
*I *921:gpio_inp_dis[21] O *D CF_CARAVEL_SOC
*CAP
1 gpio_inp_dis[21] 0.000112372
2 *921:gpio_inp_dis[21] 0.00191086
3 *542:55 0.11301
4 *542:53 0.112897
5 *542:51 0.00977989
6 *542:49 0.00977989
7 *542:47 0.0194047
8 *542:45 0.0196944
9 *542:39 0.00872134
10 *542:37 0.00892479
11 *542:31 0.0175174
12 *542:29 0.0172287
13 *542:23 0.00797283
14 *542:21 0.00844253
15 *542:15 0.00595019
16 *542:13 0.00527604
17 *542:11 0.0257798
18 *542:9 0.0276907
19 *542:11 *544:13 0.205195
20 *542:11 *570:22 0.00709239
21 *542:11 *760:31 0.000348943
22 *542:11 *868:11 0.045892
23 *542:15 *921:mask_rev[11] 0.00208429
24 *542:15 *559:29 0
25 *542:15 *781:21 0.00278674
26 *542:15 *838:23 0.000134326
27 *542:15 *840:25 1.09232e-05
28 *542:15 *840:27 0.0104452
29 *542:15 *842:21 0.00190996
30 *542:15 *860:15 0
31 *542:15 *860:19 0
32 *542:21 *921:mask_rev[0] 0
33 *542:21 *921:mask_rev[1] 0.000249138
34 *542:23 *785:11 0.0102676
35 *542:23 *804:11 0.00388043
36 *542:23 *853:23 0.0116017
37 *542:29 *793:9 0
38 *542:29 *804:9 0.000321518
39 *542:31 *764:11 0.00814137
40 *542:31 *786:11 0.00327095
41 *542:31 *796:11 0
42 *542:39 *758:9 0.00082713
43 *542:39 *831:27 0.00752276
44 *542:47 *543:39 0.00552624
45 *542:47 *737:17 0.00201995
46 *542:47 *756:6 0.0286313
47 *542:51 *720:9 0.00349303
48 *542:51 *807:15 0
49 *542:55 *670:7 0
50 gpio_analog_pol[21] gpio_inp_dis[21] 0
51 gpio_analog_pol[21] *542:55 0
52 *103:15 *542:51 0
53 *146:25 *542:55 0
54 *336:47 *542:11 0.171324
55 *353:31 *542:11 0.00972083
56 *374:9 *542:45 5.71562e-05
57 *376:9 *542:45 0
58 *397:11 *542:23 0.00338706
59 *399:11 *542:31 0.000651966
60 *407:11 *542:31 0.0184233
61 *430:11 *542:23 0.000147837
62 *431:11 *542:23 0.0352015
63 *432:11 *542:23 0.000282057
64 *434:11 *542:23 0
65 *449:13 *542:39 0.000515459
66 *450:13 *542:39 0
67 *454:13 *542:51 0.0608251
68 *455:9 *542:51 0.0379994
69 *465:21 *542:15 0
70 *536:17 *542:9 0
71 *537:12 *542:9 0
72 *538:37 *542:9 0.000530209
73 *541:127 *542:47 0.00187983
*RES
1 *921:gpio_inp_dis[21] *542:9 34.2054 
2 *542:9 *542:11 1940.75 
3 *542:11 *542:13 4.5 
4 *542:13 *542:15 167.848 
5 *542:15 *542:21 8.5966 
6 *542:21 *542:23 461.554 
7 *542:23 *542:29 7.5156 
8 *542:29 *542:31 505.723 
9 *542:31 *542:37 16.5179 
10 *542:37 *542:39 203.67 
11 *542:39 *542:45 7.55163 
12 *542:45 *542:47 106.687 
13 *542:47 *542:49 3.41 
14 *542:49 *542:51 94.13 
15 *542:51 *542:53 3.41 
16 *542:53 *542:55 2291.48 
17 *542:55 gpio_inp_dis[21] 1.60714 
*END

*D_NET *543 1.07621
*CONN
*P gpio_inp_dis[22] O
*I *921:gpio_inp_dis[22] O *D CF_CARAVEL_SOC
*CAP
1 gpio_inp_dis[22] 0.0042417
2 *921:gpio_inp_dis[22] 0.00110321
3 *543:49 0.00426791
4 *543:47 0.0805788
5 *543:45 0.0805525
6 *543:43 0.00505141
7 *543:41 0.00505141
8 *543:39 0.0254889
9 *543:37 0.0274993
10 *543:31 0.0161585
11 *543:29 0.0142867
12 *543:23 0.0289069
13 *543:21 0.0288325
14 *543:11 0.0563297
15 *543:9 0.0573687
16 *543:11 *771:27 0.209772
17 *543:21 *861:27 6.75178e-05
18 *543:23 *558:25 0.0093208
19 *543:23 *749:11 0.00479925
20 *543:23 *771:11 0.00743461
21 *543:23 *824:11 0.0143396
22 *543:23 *826:11 0
23 *543:23 *855:23 0.00482937
24 *543:23 *861:27 0.0053598
25 *543:29 *817:9 8.00902e-05
26 *543:31 *687:19 0.00363647
27 *543:31 *732:10 0.0060654
28 *543:31 *737:65 0.0174268
29 *543:31 *766:11 0.00287318
30 *543:39 *756:6 0
31 *543:43 *720:9 0.0282409
32 *543:43 *807:15 0
33 *543:47 *709:7 0.0804936
34 gpio_analog_en[33] *543:37 0.000116625
35 gpio_analog_pol[22] gpio_inp_dis[22] 0
36 gpio_analog_pol[22] *543:47 0
37 *165:23 *543:11 0.0121928
38 *206:57 *543:37 0
39 *248:35 *543:31 0
40 *292:25 *543:21 8.89112e-05
41 *296:23 *543:11 0.00875848
42 *322:215 *543:11 0
43 *357:19 *543:31 0
44 *364:27 *543:23 0.024242
45 *364:27 *543:31 0.000198909
46 *375:19 *543:31 0.00698737
47 *388:11 *543:21 6.58704e-05
48 *388:11 *543:23 0.00907615
49 *413:11 *543:23 0.00370206
50 *418:11 *543:23 0.0238476
51 *418:11 *543:31 0.00358481
52 *425:11 *543:23 0.0114951
53 *434:23 *543:11 0.0148726
54 *435:11 *543:23 0
55 *448:31 *543:23 0
56 *449:21 *543:31 0
57 *453:41 *543:31 0
58 *454:17 *543:39 0.0140882
59 *454:23 *543:37 0.00140871
60 *455:9 *543:43 0.0344463
61 *455:13 *543:39 0.00934587
62 *455:19 *543:37 0.000745764
63 *456:31 *543:11 0.000192104
64 *468:11 *543:31 0.0351478
65 *470:15 *543:11 0.0255295
66 *470:15 *543:21 9.20139e-05
67 *474:15 *543:11 0
68 *539:101 *543:11 0
69 *542:47 *543:39 0.00552624
*RES
1 *921:gpio_inp_dis[22] *543:9 19.0268 
2 *543:9 *543:11 1992.5 
3 *543:11 *543:21 12.359 
4 *543:21 *543:23 140.245 
5 *543:23 *543:29 7.11923 
6 *543:29 *543:31 610.304 
7 *543:31 *543:37 12.5963 
8 *543:37 *543:39 91.6657 
9 *543:39 *543:41 3.41 
10 *543:41 *543:43 53.1962 
11 *543:43 *543:45 3.41 
12 *543:45 *543:47 2206.52 
13 *543:47 *543:49 0.535714 
14 *543:49 gpio_inp_dis[22] 85.0268 
*END

*D_NET *544 1.06975
*CONN
*P gpio_inp_dis[23] O
*I *921:gpio_inp_dis[23] O *D CF_CARAVEL_SOC
*CAP
1 gpio_inp_dis[23] 0.0021993
2 *921:gpio_inp_dis[23] 0.00192124
3 *544:33 0.125832
4 *544:31 0.123632
5 *544:29 0.00257007
6 *544:27 0.00257007
7 *544:25 0.00184324
8 *544:23 0.00184324
9 *544:21 0.00275259
10 *544:19 0.00275259
11 *544:17 0.0342309
12 *544:15 0.0342309
13 *544:13 0.0281127
14 *544:11 0.0300339
15 *544:11 *839:39 9.88094e-05
16 *544:13 *553:13 0.213151
17 *544:13 *553:23 0.000203202
18 *544:13 *570:22 0.00352586
19 *544:13 *749:27 0
20 *544:13 *841:11 0.0439347
21 *544:17 *736:39 0
22 *544:17 *779:11 0.00709123
23 *544:17 *788:11 0.0388847
24 *544:25 *836:11 0.00211078
25 *544:29 *735:21 0.00152662
26 *544:33 *693:25 0
27 gpio_analog_pol[23] gpio_inp_dis[23] 0
28 *119:27 *544:17 0.000518377
29 *148:17 *544:33 0
30 *206:51 *544:25 4.74263e-05
31 *207:51 *544:17 0.0502934
32 *294:27 *544:17 0
33 *322:285 *544:17 0.0299772
34 *322:377 *544:33 0.0161659
35 *353:31 *544:13 0.000203759
36 *367:11 *544:17 0.00924925
37 *375:27 *544:25 0.0110769
38 *411:11 *544:17 0.0182297
39 *437:31 *544:29 0
40 *446:25 *544:17 0
41 *455:25 *544:13 0
42 *456:15 *544:29 0.00837704
43 *456:23 *544:21 0.00438812
44 *472:27 *544:25 0.0109739
45 *542:11 *544:13 0.205195
*RES
1 *921:gpio_inp_dis[23] *544:11 32.7946 
2 *544:11 *544:13 2054.11 
3 *544:13 *544:15 4.5 
4 *544:15 *544:17 1408.7 
5 *544:17 *544:19 4.5 
6 *544:19 *544:21 55.5714 
7 *544:21 *544:23 4.5 
8 *544:23 *544:25 136.125 
9 *544:25 *544:27 4.5 
10 *544:27 *544:29 79.3929 
11 *544:29 *544:31 4.5 
12 *544:31 *544:33 2652.03 
13 *544:33 gpio_inp_dis[23] 42.9732 
*END

*D_NET *545 1.15119
*CONN
*P gpio_inp_dis[24] O
*I *921:gpio_inp_dis[24] O *D CF_CARAVEL_SOC
*CAP
1 gpio_inp_dis[24] 0.00397535
2 *921:gpio_inp_dis[24] 0.00113792
3 *545:15 0.100635
4 *545:13 0.0966595
5 *545:11 0.0338989
6 *545:9 0.0350368
7 *545:9 *557:17 0.000157148
8 *545:11 *554:13 0.219351
9 *545:11 *852:19 0.010935
10 *545:15 *724:17 0.00387799
11 *545:15 *817:11 0.00972042
12 gpio_analog_pol[24] gpio_inp_dis[24] 0
13 gpio_analog_pol[43] *545:9 0
14 gpio_analog_sel[24] gpio_inp_dis[24] 0
15 *164:35 *545:11 0.0384697
16 *237:23 gpio_inp_dis[24] 0
17 *238:15 *545:11 0.0064439
18 *253:15 *545:11 0.0215244
19 *296:21 *545:9 4.43299e-05
20 *336:67 *545:15 0.0973178
21 *338:71 *545:11 0.0134139
22 *366:11 *545:15 0
23 *369:11 *545:15 0.0226747
24 *383:11 *545:15 0.00139817
25 *417:11 *545:15 0.0046937
26 *426:13 *545:15 0.00329321
27 *437:11 *545:15 0.00214141
28 *457:11 *545:15 0.331981
29 *461:23 *545:11 0.0924051
*RES
1 *921:gpio_inp_dis[24] *545:9 21.7411 
2 *545:9 *545:11 2091.07 
3 *545:11 *545:13 4.5 
4 *545:13 *545:15 4075.12 
5 *545:15 gpio_inp_dis[24] 12.604 
*END

*D_NET *546 0.923251
*CONN
*P gpio_inp_dis[25] O
*I *921:gpio_inp_dis[25] O *D CF_CARAVEL_SOC
*CAP
1 gpio_inp_dis[25] 0.00349113
2 *921:gpio_inp_dis[25] 0.00238796
3 *546:25 0.139533
4 *546:23 0.139476
5 *546:13 0.045563
6 *546:11 0.044517
7 *546:11 gpio_vtrip_sel[43] 0
8 *546:13 *552:13 0.219086
9 *546:13 *560:19 0.0132032
10 *546:13 *564:13 0.000257889
11 *546:13 *565:13 0.00588054
12 *546:13 *784:13 0.0312406
13 *546:23 *549:23 0
14 *546:23 *552:23 0.000198171
15 *546:23 *785:19 0
16 *546:23 *825:23 0.000387287
17 *546:23 *853:17 0
18 *546:25 *693:91 0
19 *546:25 *761:11 0.00961737
20 *546:25 *813:11 0
21 *546:25 *814:19 0.0180439
22 *546:25 *816:25 0.000702319
23 *546:25 *832:27 0.0216075
24 *546:25 *873:49 0.0991626
25 gpio_ib_mode_sel[32] *546:25 0.000736674
26 *150:31 gpio_inp_dis[25] 0
27 *248:33 *546:23 0.00044534
28 *250:33 *546:23 0.00332951
29 *284:59 *546:25 0
30 *284:67 *546:25 0.00762238
31 *301:17 *546:13 0.000155767
32 *335:25 *546:13 0.0114122
33 *345:15 *546:13 0.00313327
34 *398:11 *546:25 0.00157192
35 *398:19 *546:25 0
36 *409:11 *546:25 0
37 *412:11 *546:25 0
38 *422:11 *546:25 0.0149543
39 *428:21 *546:23 0.000156082
40 *446:27 *546:23 0.000722054
41 *447:21 *546:23 0.000667956
42 *453:49 *546:13 0.000514215
43 *454:53 *546:13 0.0681024
44 *472:15 *546:25 0
45 *477:11 *546:13 0.00750705
46 *541:19 *546:13 0.00786451
*RES
1 *921:gpio_inp_dis[25] *546:11 38.8661 
2 *546:11 *546:13 2072.59 
3 *546:13 *546:23 23.1221 
4 *546:23 *546:25 3338.8 
5 *546:25 gpio_inp_dis[25] 10.9684 
*END

*D_NET *547 0.984202
*CONN
*P gpio_inp_dis[26] O
*I *921:gpio_inp_dis[26] O *D CF_CARAVEL_SOC
*CAP
1 gpio_inp_dis[26] 0.00096372
2 *921:gpio_inp_dis[26] 0.000948079
3 *547:25 0.101053
4 *547:23 0.102152
5 *547:13 0.0341765
6 *547:11 0.033062
7 *547:13 *555:13 0.0169254
8 *547:13 *838:11 0.0496112
9 *547:23 *559:29 5.75583e-06
10 *547:25 *557:31 0
11 *547:25 *693:57 0.00329384
12 *547:25 *810:11 0.0152193
13 gpio_analog_pol[26] gpio_inp_dis[26] 0
14 gpio_dm0[26] gpio_inp_dis[26] 0
15 *119:15 *547:13 0.0818472
16 *289:23 *547:13 0.0248159
17 *325:27 *547:11 0.000791352
18 *325:167 *547:25 0
19 *336:21 *547:11 0.001671
20 *336:67 *547:23 0.000105917
21 *378:11 *547:25 0.0187499
22 *445:23 *547:13 0.00534512
23 *447:17 *547:25 0
24 *455:25 *547:13 4.02256e-05
25 *461:11 *547:25 0.222276
26 *461:21 *547:23 0.0011787
27 *462:21 *547:23 0.0010596
28 *465:23 *547:13 0.0992862
29 *472:11 *547:23 0.00114589
30 *481:15 *547:13 0.168478
*RES
1 *921:gpio_inp_dis[26] *547:11 28.2411 
2 *547:11 *547:13 2151.04 
3 *547:13 *547:23 20.5584 
4 *547:23 *547:25 3131.16 
5 *547:25 gpio_inp_dis[26] 5.49445 
*END

*D_NET *548 0.922687
*CONN
*P gpio_inp_dis[27] O
*I *921:gpio_inp_dis[27] O *D CF_CARAVEL_SOC
*CAP
1 gpio_inp_dis[27] 0.00122541
2 *921:gpio_inp_dis[27] 0.000925514
3 *548:23 0.0928856
4 *548:21 0.0948394
5 *548:11 0.0376759
6 *548:9 0.0354222
7 *548:11 *550:11 0
8 *548:11 *842:11 0.0088876
9 *548:21 *557:29 0.00109472
10 *548:23 gpio_vtrip_sel[33] 0.000248504
11 *548:23 *693:39 0.00195426
12 *548:23 *811:11 0.015146
13 gpio_analog_en[32] *548:23 7.46044e-05
14 gpio_analog_pol[27] gpio_inp_dis[27] 0.000466112
15 gpio_analog_pol[30] *548:23 0.000248504
16 gpio_analog_sel[29] *548:23 0.000248504
17 gpio_analog_sel[32] *548:23 0.000248511
18 gpio_dm0[32] *548:23 0.000148676
19 gpio_dm2[28] *548:23 0.000152462
20 gpio_dm2[34] *548:23 0.00034597
21 gpio_dm2[37] *548:23 0.000394702
22 gpio_holdover[27] *548:23 0.000152462
23 gpio_ib_mode_sel[35] *548:23 0.00034597
24 *165:15 *548:11 0.00783378
25 *256:15 *548:11 0.0126924
26 *292:15 *548:11 4.8029e-05
27 *293:25 *548:21 0.000926748
28 *295:15 *548:11 0.00160428
29 *299:23 *548:11 0.00521677
30 *325:71 *548:11 0.0699413
31 *338:19 *548:11 0.0200162
32 *381:11 *548:23 0.00521492
33 *381:15 *548:23 0.0124582
34 *428:21 *548:11 0.000385432
35 *431:15 *548:11 0.0232722
36 *447:17 *548:23 0
37 *452:15 *548:11 0.00345514
38 *456:31 *548:11 7.8789e-05
39 *460:23 *548:11 0.0482364
40 *462:11 *548:23 0.205975
41 *466:15 *548:21 0.00259475
42 *468:27 *548:11 6.37327e-05
43 *468:29 *548:11 0.00615078
44 *469:15 *548:21 0.00122692
45 *479:15 *548:11 0.00857751
46 *484:15 *548:11 0.193586
*RES
1 *921:gpio_inp_dis[27] *548:9 16.2946 
2 *548:9 *548:11 2149.39 
3 *548:11 *548:21 23.7554 
4 *548:21 *548:23 2927.77 
5 *548:23 gpio_inp_dis[27] 6.29345 
*END

*D_NET *549 1.07728
*CONN
*P gpio_inp_dis[28] O
*I *921:gpio_inp_dis[28] O *D CF_CARAVEL_SOC
*CAP
1 gpio_inp_dis[28] 0.00261018
2 *921:gpio_inp_dis[28] 0.00286354
3 *549:25 0.0528965
4 *549:23 0.0520993
5 *549:13 0.0310409
6 *549:11 0.0320915
7 *549:13 gpio_out[40] 0.000406448
8 *549:13 gpio_out[42] 0.00318532
9 *549:13 *692:27 0.00861296
10 *549:13 *693:193 0.00954661
11 *549:13 *697:115 0.00154611
12 *549:13 *698:27 0.00180941
13 *549:13 *824:23 0.0112679
14 *549:13 *848:11 0.0146212
15 *549:13 *865:11 0.00614937
16 *549:13 *867:11 0.217378
17 *549:23 *848:23 0
18 gpio_analog_pol[28] gpio_inp_dis[28] 0
19 gpio_dm0[43] *549:13 0.000609672
20 *207:31 *549:13 0.171961
21 *238:27 *549:25 0.219756
22 *251:25 *549:23 0.000344341
23 *252:15 *549:13 0.00851514
24 *284:39 *549:13 0.024031
25 *284:49 *549:23 0.00442161
26 *297:22 *549:13 0.00458458
27 *385:15 *549:13 0.00137189
28 *387:21 *549:13 0.00172982
29 *387:21 *549:23 1.05319e-05
30 *402:11 *549:25 0
31 *464:11 *549:25 0.191823
32 *546:23 *549:23 0
*RES
1 *921:gpio_inp_dis[28] *549:11 46.1518 
2 *549:11 *549:13 2188 
3 *549:13 *549:23 19.617 
4 *549:23 *549:25 2764.45 
5 *549:25 gpio_inp_dis[28] 8.88472 
*END

*D_NET *550 0.845568
*CONN
*P gpio_inp_dis[29] O
*I *921:gpio_inp_dis[29] O *D CF_CARAVEL_SOC
*CAP
1 gpio_inp_dis[29] 0.00214317
2 *921:gpio_inp_dis[29] 0.000681882
3 *550:29 0.0030641
4 *550:23 0.040988
5 *550:21 0.0445911
6 *550:11 0.0511311
7 *550:9 0.047289
8 *550:11 *737:127 0.000121926
9 *550:11 *815:39 0.00272661
10 *550:11 *815:49 0.0370735
11 *550:11 *839:197 0.00285873
12 *550:11 *839:209 0.000796488
13 *550:11 *839:217 0.00360435
14 *550:11 *840:11 0.0109012
15 *550:11 *846:13 0.109396
16 *550:11 *858:11 0.00629023
17 *550:21 *557:29 0.000341973
18 *550:21 *771:25 0
19 *550:21 *846:39 0.000319549
20 *550:23 *812:11 0.0139574
21 *550:29 *812:11 0.00359889
22 gpio_analog_pol[29] gpio_inp_dis[29] 0
23 gpio_dm0[29] gpio_inp_dis[29] 0
24 *154:13 gpio_inp_dis[29] 0
25 *289:35 *550:23 0.173427
26 *292:15 *550:11 0.000342288
27 *325:157 *550:21 0
28 *386:35 *550:21 0
29 *430:23 *550:11 0.0853516
30 *451:25 *550:11 0.000146953
31 *457:21 *550:21 0.00145567
32 *458:21 *550:21 0.00151081
33 *460:11 *550:23 0.199556
34 *460:11 *550:29 0.00190204
35 *548:11 *550:11 0
*RES
1 *921:gpio_inp_dis[29] *550:9 13.2589 
2 *550:9 *550:11 2196.21 
3 *550:11 *550:21 27.1929 
4 *550:21 *550:23 2489.98 
5 *550:23 *550:29 49.035 
6 *550:29 gpio_inp_dis[29] 4.39685 
*END

*D_NET *551 0.418632
*CONN
*P gpio_inp_dis[2] O
*I *921:gpio_inp_dis[2] O *D CF_CARAVEL_SOC
*CAP
1 gpio_inp_dis[2] 0.00476576
2 *921:gpio_inp_dis[2] 0.00220874
3 *551:125 0.0139157
4 *551:123 0.0091499
5 *551:121 0.0138043
6 *551:119 0.0139145
7 *551:111 0.0012703
8 *551:109 0.00216578
9 *551:95 0.00226657
10 *551:93 0.00228116
11 *551:79 0.00216081
12 *551:77 0.00118194
13 *551:73 0.00181033
14 *551:59 0.00325091
15 *551:49 0.00500173
16 *551:35 0.00417479
17 *551:33 0.00440227
18 *551:25 0.00422899
19 *551:17 0.00269056
20 *551:17 *562:21 0.00481158
21 *551:25 *562:21 0
22 *551:25 *562:33 8.90583e-05
23 *551:33 *562:33 4.36232e-05
24 *551:33 *696:163 0
25 *551:35 *696:147 0.00184669
26 *551:49 *562:49 0.011914
27 *551:49 *826:61 0.00186609
28 *551:59 *826:63 0.00406834
29 *551:73 *562:51 0.00183977
30 *551:73 *696:119 9.99644e-06
31 *551:79 *562:81 0.00010855
32 *551:79 *696:103 0.00284814
33 *551:93 *562:89 4.65158e-06
34 *551:93 *740:141 8.22793e-06
35 *551:95 *740:123 0.000865176
36 *551:109 *562:107 0.00767742
37 *551:109 *826:117 4.57872e-05
38 *551:111 *562:109 0.00971828
39 *551:121 *696:71 0.00249739
40 *551:121 *696:89 0.000647349
41 *551:121 *741:120 0
42 gpio_analog_en[2] gpio_inp_dis[2] 0.00354919
43 gpio_analog_pol[2] gpio_inp_dis[2] 0.00192529
44 gpio_analog_sel[43] *551:121 0.00335222
45 gpio_dm0[2] gpio_inp_dis[2] 0.0042548
46 *118:137 *551:25 0.0020687
47 *118:145 *551:17 0.000975928
48 *223:17 gpio_inp_dis[2] 0.000574054
49 *245:11 *551:125 0.000958939
50 *250:11 *551:125 0.00221495
51 *279:11 *551:125 0.00236254
52 *280:11 *551:125 0.00811632
53 *281:11 gpio_inp_dis[2] 0.000202273
54 *305:11 gpio_inp_dis[2] 0
55 *316:11 *551:125 0.00154821
56 *321:9 gpio_inp_dis[2] 0.00124029
57 *322:19 *551:125 0.0194928
58 *322:57 *551:121 0.00693127
59 *322:101 *551:95 0.00151414
60 *338:63 *551:17 0.00153626
61 *339:11 *551:125 0.00874732
62 *386:139 *551:35 0.00173012
63 *386:155 *551:73 0.000877974
64 *397:93 *551:49 9.30793e-05
65 *397:127 *551:79 0.00105208
66 *397:127 *551:93 0.00857629
67 *397:149 *551:109 0.00728371
68 *397:173 *551:121 0.00504303
69 *408:61 *551:93 0.00853575
70 *408:77 *551:109 1.39702e-05
71 *419:69 *551:25 0.00120189
72 *419:77 *551:33 0.0129386
73 *419:79 *551:35 0.00487169
74 *419:93 *551:49 1.36181e-05
75 *419:117 *551:73 0.000375675
76 *419:117 *551:77 2.77904e-05
77 *419:133 *551:93 2.33162e-05
78 *419:137 *551:95 0.00510842
79 *419:149 *551:95 0.00214734
80 *419:149 *551:109 5.10621e-05
81 *419:157 *551:109 0.000193126
82 *419:159 *551:111 1.98839e-05
83 *419:175 *551:119 5.66157e-05
84 *419:175 *551:121 1.46911e-05
85 *419:177 *551:121 0.0026625
86 *419:193 *551:121 0.00286494
87 *441:11 *551:125 0.0168232
88 *530:17 *551:49 8.66753e-05
89 *530:25 *551:49 9.60227e-05
90 *530:41 *551:73 0.00998405
91 *530:41 *551:77 2.97537e-05
92 *530:43 *551:79 0.00747204
93 *530:43 *551:93 0.000853589
94 *530:53 *551:93 0.000848178
95 *530:55 *551:95 2.26132e-05
96 *530:77 *551:111 1.21258e-05
97 *530:91 *551:119 1.28166e-05
98 *530:91 *551:121 2.33059e-05
99 *530:93 *551:121 0.000453481
100 *530:107 *551:121 0.00426746
101 *531:14 *551:49 0
102 *532:14 *551:49 0
103 *533:30 *551:49 0
104 *533:30 *551:59 0.000852557
105 *533:70 *551:95 0.00752468
106 *533:110 *551:121 0.00347542
107 *535:35 *551:73 0.0100547
108 *535:35 *551:79 0.000923511
109 *535:59 *551:79 1.39841e-05
110 *535:59 *551:93 0.00206309
111 *535:91 *551:109 0.00175812
112 *535:95 *551:111 0.00980385
113 *535:111 *551:119 7.75637e-05
114 *535:111 *551:121 0.00636609
115 *535:113 *551:121 0.000260832
116 *535:117 *551:121 0.0036721
117 *537:52 *551:121 0.000286268
118 *537:58 *551:121 0.0024802
119 *537:76 *551:121 0.000607012
120 *538:73 *551:121 0.00163104
121 *539:25 *551:59 0
122 *539:35 *551:35 4.13496e-05
123 *539:35 *551:49 0.00214069
124 *540:18 *551:17 0.00130254
125 *540:18 *551:33 0.00138404
126 *540:18 *551:49 0.00122701
127 *540:18 *551:73 0.000881419
128 *540:38 *551:125 0.0359209
*RES
1 *921:gpio_inp_dis[2] *551:17 30.3467 
2 *551:17 *551:25 30.9725 
3 *551:25 *551:33 29.4105 
4 *551:33 *551:35 46.5357 
5 *551:35 *551:49 37.2261 
6 *551:49 *551:59 47.3571 
7 *551:59 *551:73 49.8715 
8 *551:73 *551:77 5.38393 
9 *551:77 *551:79 70.3571 
10 *551:79 *551:93 29.6088 
11 *551:93 *551:95 85.5536 
12 *551:95 *551:109 28.3116 
13 *551:109 *551:111 92.125 
14 *551:111 *551:119 10.0439 
15 *551:119 *551:121 62.2405 
16 *551:121 *551:123 3.41 
17 *551:123 *551:125 637.018 
18 *551:125 gpio_inp_dis[2] 30.9 
*END

*D_NET *552 1.03433
*CONN
*P gpio_inp_dis[30] O
*I *921:gpio_inp_dis[30] O *D CF_CARAVEL_SOC
*CAP
1 gpio_inp_dis[30] 0.00463743
2 *921:gpio_inp_dis[30] 0.00233334
3 *552:25 0.0541893
4 *552:23 0.0505467
5 *552:13 0.0292241
6 *552:11 0.0305627
7 *552:13 *564:13 0.000197845
8 *552:13 *565:13 0.00977408
9 *552:13 *784:13 0.0336958
10 *552:23 *785:19 4.65158e-06
11 *552:23 *862:21 0.000475675
12 *552:25 *735:23 0.00464791
13 *552:25 *737:81 0.026363
14 *552:25 *760:11 0
15 *552:25 *815:11 0.000312168
16 *552:25 *848:23 0.0011294
17 gpio_analog_pol[30] gpio_inp_dis[30] 0.000297076
18 *112:31 gpio_inp_dis[30] 0
19 *156:15 gpio_inp_dis[30] 0.00595474
20 *247:19 *552:25 0
21 *248:19 *552:13 0.234379
22 *248:33 *552:23 0.00178906
23 *293:27 *552:25 0
24 *301:17 *552:13 0.000135407
25 *325:23 *552:13 0.0126094
26 *345:15 *552:13 0.00165038
27 *363:11 *552:25 0
28 *374:11 *552:25 0.00416598
29 *415:11 *552:25 0.151157
30 *419:11 *552:25 0.0066969
31 *421:11 *552:25 0.0227321
32 *428:21 *552:23 1.01912e-05
33 *436:17 *552:25 0.00293851
34 *453:49 *552:23 0.000112662
35 *467:11 *552:25 0.115888
36 *477:11 *552:13 0.00643734
37 *546:13 *552:13 0.219086
38 *546:23 *552:23 0.000198171
*RES
1 *921:gpio_inp_dis[30] *552:11 38.5625 
2 *552:11 *552:13 2220.04 
3 *552:13 *552:23 15.8957 
4 *552:23 *552:25 2373.45 
5 *552:25 gpio_inp_dis[30] 16.2073 
*END

*D_NET *553 0.864155
*CONN
*P gpio_inp_dis[31] O
*I *921:gpio_inp_dis[31] O *D CF_CARAVEL_SOC
*CAP
1 gpio_inp_dis[31] 0.000103398
2 *921:gpio_inp_dis[31] 0.00189979
3 *553:25 0.0770803
4 *553:23 0.0815825
5 *553:13 0.0345245
6 *553:11 0.0318188
7 *553:13 *570:22 0.0092874
8 *553:13 *749:27 0
9 *553:13 *841:11 0.053046
10 *553:23 *825:21 2.11419e-05
11 *553:25 gpio_slow_sel[33] 0.000619306
12 gpio_analog_pol[31] gpio_inp_dis[31] 0.000148858
13 gpio_dm0[31] *553:25 0.00178697
14 gpio_dm0[34] *553:25 0.000391633
15 gpio_dm1[32] *553:25 0.00314618
16 *117:43 *553:25 0.0413575
17 *207:39 *553:13 1.47872e-05
18 *289:33 *553:23 0.000291766
19 *353:29 *553:23 0.00204061
20 *435:23 *553:13 0.237429
21 *459:13 *553:25 0.0678516
22 *462:21 *553:23 0
23 *465:21 *553:23 0.00635885
24 *544:13 *553:13 0.213151
25 *544:13 *553:23 0.000203202
*RES
1 *921:gpio_inp_dis[31] *553:11 32.4911 
2 *553:11 *553:13 2252.89 
3 *553:13 *553:23 27.4985 
4 *553:23 *553:25 2175.92 
5 *553:25 gpio_inp_dis[31] 3.7343 
*END

*D_NET *554 0.876378
*CONN
*P gpio_inp_dis[32] O
*I *921:gpio_inp_dis[32] O *D CF_CARAVEL_SOC
*CAP
1 gpio_inp_dis[32] 0.00174762
2 *921:gpio_inp_dis[32] 0.00116461
3 *554:25 0.0300065
4 *554:23 0.0311119
5 *554:13 0.0349031
6 *554:11 0.0332146
7 *554:13 *559:19 0.239955
8 *554:13 *825:21 4.58194e-05
9 *554:13 *829:29 1.96616e-05
10 *554:13 *852:19 0.0117999
11 *554:13 *857:21 2.72887e-05
12 *554:23 *559:29 0.000374912
13 *554:25 *811:11 0.0657174
14 *554:25 *873:57 0.00126102
15 *164:35 *554:13 0.00635357
16 *249:25 *554:23 0.000896807
17 *250:35 *554:23 0
18 *253:15 *554:13 0.0287891
19 *325:159 *554:25 0.121369
20 *338:71 *554:13 0.0124413
21 *386:207 *554:13 0.00122604
22 *387:11 *554:23 3.96622e-05
23 *390:21 *554:23 0.00148943
24 *410:11 *554:25 0
25 *459:23 *554:23 0
26 *462:11 *554:25 0.0330735
27 *545:11 *554:13 0.219351
*RES
1 *921:gpio_inp_dis[32] *554:11 21.5625 
2 *554:11 *554:13 2312.86 
3 *554:13 *554:23 20.7854 
4 *554:23 *554:25 1591.45 
5 *554:25 gpio_inp_dis[32] 6.84805 
*END

*D_NET *555 0.860948
*CONN
*P gpio_inp_dis[33] O
*I *921:gpio_inp_dis[33] O *D CF_CARAVEL_SOC
*CAP
1 gpio_inp_dis[33] 0.00720037
2 *921:gpio_inp_dis[33] 0.0015731
3 *555:17 0.0263573
4 *555:15 0.0191569
5 *555:13 0.0328726
6 *555:11 0.0344456
7 *555:13 *558:13 0.0156137
8 *555:13 *828:15 0.0291169
9 *555:13 *837:11 0.00564164
10 *555:17 *556:43 0.0967379
11 *555:17 *755:11 0.0347003
12 *555:17 *809:11 0.0044911
13 *555:17 *827:11 0.0700888
14 *555:17 *857:21 0.000544076
15 gpio_analog_pol[33] gpio_inp_dis[33] 0
16 *292:27 *555:17 0.0145785
17 *297:14 *555:13 0.0170722
18 *353:19 *555:17 0
19 *357:17 *555:17 0.000817721
20 *361:11 *555:17 0.00108772
21 *364:39 *555:13 0.000240703
22 *370:11 *555:17 0.00802704
23 *416:11 *555:17 0.00220305
24 *438:19 *555:17 0.0055419
25 *445:23 *555:13 0.200137
26 *458:11 *555:17 0
27 *483:23 *555:13 0.215777
28 *547:13 *555:13 0.0169254
*RES
1 *921:gpio_inp_dis[33] *555:11 27.3304 
2 *555:11 *555:13 2326.41 
3 *555:13 *555:15 4.5 
4 *555:15 *555:17 1406.72 
5 *555:17 gpio_inp_dis[33] 17.4105 
*END

*D_NET *556 0.665124
*CONN
*P gpio_inp_dis[34] O
*I *921:gpio_inp_dis[34] O *D CF_CARAVEL_SOC
*CAP
1 gpio_inp_dis[34] 0.00647066
2 *921:gpio_inp_dis[34] 0.000226007
3 *556:52 6.99871e-06
4 *556:43 0.0351665
5 *556:41 0.0321591
6 *556:37 0.00398006
7 *556:29 0.00648298
8 *556:11 0.0620601
9 *556:9 0.0563269
10 *556:11 *557:11 0.0173185
11 *556:11 *567:14 0.000424167
12 *556:11 *568:11 0.0219387
13 *556:11 *570:14 0.00628865
14 *556:11 *840:19 0.00936388
15 *556:29 *737:143 9.00639e-05
16 *556:29 *739:76 2.43739e-05
17 *556:29 *826:27 0.00202246
18 *556:29 *840:19 0.00529014
19 *556:37 *693:113 2.39329e-05
20 *556:41 *826:27 0.00484803
21 *556:43 *809:11 0.0361965
22 gpio_analog_pol[34] *556:52 0
23 gpio_analog_sel[34] gpio_inp_dis[34] 6.74423e-05
24 *921:gpio_in[10] *556:29 0.00147119
25 *921:gpio_in[41] *556:11 0.00166599
26 *292:27 *556:43 0.00772472
27 *293:15 *556:11 0
28 *322:235 *556:29 0.000804699
29 *325:145 *556:29 0
30 *325:157 *556:41 0.0170756
31 *386:35 *556:41 0.02214
32 *396:9 gpio_inp_dis[34] 0.00431061
33 *397:25 *556:37 0.000287858
34 *397:25 *556:41 6.31694e-05
35 *397:39 *556:29 0.00222164
36 *397:79 *556:11 0.114231
37 *416:11 *556:43 0.0125963
38 *419:19 *556:37 0.000216514
39 *419:19 *556:41 0.00311879
40 *419:23 *556:11 0.0333227
41 *419:23 *556:37 0.00149808
42 *444:55 *556:11 0
43 *444:71 *556:11 0.000354504
44 *458:11 *556:43 0
45 *529:9 *556:11 0.0235488
46 *531:16 *556:11 0.0023987
47 *536:33 *556:11 0.00127568
48 *537:14 *556:11 0.00721079
49 *538:17 *556:11 0.00161768
50 *538:29 *556:11 0.00181323
51 *538:37 *556:11 0.000418393
52 *539:119 *556:29 5.25862e-06
53 *539:141 *556:29 0
54 *541:27 *556:11 0
55 *541:97 *556:37 0.000218221
56 *555:17 *556:43 0.0967379
*RES
1 *921:gpio_inp_dis[34] *556:9 6.88393 
2 *556:9 *556:11 1994.14 
3 *556:11 *556:29 43.4911 
4 *556:29 *556:37 25.1154 
5 *556:37 *556:41 38.5535 
6 *556:41 *556:43 1185.27 
7 *556:43 gpio_inp_dis[34] 18.1367 
8 gpio_inp_dis[34] *556:52 0.0687805 
*END

*D_NET *557 0.590597
*CONN
*P gpio_inp_dis[35] O
*I *921:gpio_inp_dis[35] O *D CF_CARAVEL_SOC
*CAP
1 gpio_inp_dis[35] 0.000672185
2 *921:gpio_inp_dis[35] 0.000209816
3 *557:31 0.0369551
4 *557:29 0.0418386
5 *557:19 0.0440028
6 *557:17 0.0386841
7 *557:11 0.00536764
8 *557:9 0.00534044
9 *557:11 *559:11 0.00033296
10 *557:11 *560:11 0.00136962
11 *557:11 *568:11 0.0343854
12 *557:19 *866:17 0.000436002
13 *557:29 *793:25 0.0021775
14 *557:29 *851:15 3.10403e-05
15 *293:15 *557:11 0
16 *293:15 *557:19 0.000849176
17 *293:25 *557:29 0.000377314
18 *341:18 *557:19 0.0230255
19 *408:21 *557:29 0.00209261
20 *428:11 *557:29 0.000128966
21 *441:15 *557:19 0.00411449
22 *441:19 *557:19 0.00372851
23 *442:15 *557:19 0.0984421
24 *443:31 *557:19 0.0384181
25 *457:21 *557:29 0.000791748
26 *458:23 *557:19 0.0808758
27 *463:15 *557:19 0.00226277
28 *466:11 *557:31 0.0430537
29 *467:15 *557:19 0.0170599
30 *467:15 *557:29 0.000409724
31 *471:27 *557:19 0.00693593
32 *529:9 *557:11 0.00597169
33 *534:11 *557:19 0.0313435
34 *545:9 *557:17 0.000157148
35 *547:25 *557:31 0
36 *548:21 *557:29 0.00109472
37 *550:21 *557:29 0.000341973
38 *556:11 *557:11 0.0173185
*RES
1 *921:gpio_inp_dis[35] *557:9 6.27679 
2 *557:9 *557:11 323.357 
3 *557:11 *557:17 13.375 
4 *557:17 *557:19 2039.73 
5 *557:19 *557:29 29.5208 
6 *557:29 *557:31 1003.73 
7 *557:31 gpio_inp_dis[35] 4.90852 
*END

*D_NET *558 0.772319
*CONN
*P gpio_inp_dis[36] O
*I *921:gpio_inp_dis[36] O *D CF_CARAVEL_SOC
*CAP
1 gpio_inp_dis[36] 0.00685859
2 *921:gpio_inp_dis[36] 0.00151984
3 *558:25 0.0191922
4 *558:23 0.0126389
5 *558:13 0.0323197
6 *558:11 0.0335343
7 gpio_inp_dis[36] *820:9 0.00171798
8 gpio_inp_dis[36] *821:21 0
9 gpio_inp_dis[36] *832:15 0
10 *558:13 *827:19 0.024386
11 *558:13 *828:15 0.00498427
12 *558:23 *825:21 4.09312e-05
13 *558:25 *824:11 0.00503588
14 *558:25 *824:19 0.00216252
15 *558:25 *855:23 0.0230758
16 *558:25 *859:23 1.21637e-05
17 *558:25 *861:27 0.00144788
18 gpio_analog_pol[36] gpio_inp_dis[36] 0
19 gpio_dm0[36] gpio_inp_dis[36] 0
20 *294:25 *558:23 0.00100405
21 *297:14 *558:13 0.0232112
22 *364:37 *558:25 0.000935542
23 *364:39 *558:13 0.0139178
24 *413:11 *558:25 0.0149863
25 *418:11 *558:25 0.00361367
26 *468:11 *558:25 0.0663898
27 *472:11 *558:23 0.00100405
28 *482:15 *558:13 0.22824
29 *483:23 *558:13 0.225156
30 *543:23 *558:25 0.0093208
31 *555:13 *558:13 0.0156137
*RES
1 *921:gpio_inp_dis[36] *558:11 26.7232 
2 *558:11 *558:13 2400.34 
3 *558:13 *558:23 14.14 
4 *558:23 *558:25 826.446 
5 *558:25 gpio_inp_dis[36] 18.7328 
*END

*D_NET *559 0.727625
*CONN
*P gpio_inp_dis[37] O
*I *921:gpio_inp_dis[37] O *D CF_CARAVEL_SOC
*CAP
1 gpio_inp_dis[37] 0.000341579
2 *921:gpio_inp_dis[37] 0.000220656
3 *559:38 0
4 *559:31 0.0212585
5 *559:29 0.0259818
6 *559:19 0.037275
7 *559:17 0.032716
8 *559:11 0.00295505
9 *559:9 0.00266989
10 *559:11 *560:11 0.00767085
11 *559:17 *697:113 0.00114777
12 *559:17 *740:85 0.00114617
13 *559:19 *847:16 0.00395656
14 *559:29 *852:25 0.000754619
15 *559:29 *860:15 0.000109706
16 gpio_analog_pol[37] gpio_inp_dis[37] 6.46448e-05
17 *209:15 *559:19 0.027829
18 *238:15 *559:29 0.000203202
19 *238:25 *559:29 0.00265451
20 *249:25 *559:29 0.00606874
21 *293:15 *559:11 0
22 *294:15 *559:19 0.229628
23 *338:71 *559:19 0.0199034
24 *339:23 *559:29 0.00037098
25 *386:207 *559:19 0.00396912
26 *429:19 *559:29 0.00146933
27 *459:13 *559:31 0
28 *461:21 *559:29 0.00243667
29 *466:11 *559:31 0.050087
30 *474:15 *559:19 0.00219806
31 *529:9 *559:11 0.0018698
32 *542:15 *559:29 0
33 *547:23 *559:29 5.75583e-06
34 *554:13 *559:19 0.239955
35 *554:23 *559:29 0.000374912
36 *557:11 *559:11 0.00033296
*RES
1 *921:gpio_inp_dis[37] *559:9 6.88393 
2 *559:9 *559:11 77.75 
3 *559:11 *559:17 24.6071 
4 *559:17 *559:19 2338.32 
5 *559:19 *559:29 30.5144 
6 *559:29 *559:31 632.161 
7 *559:31 gpio_inp_dis[37] 4.1902 
8 gpio_inp_dis[37] *559:38 0.0494737 
*END

*D_NET *560 0.447346
*CONN
*P gpio_inp_dis[38] O
*I *921:gpio_inp_dis[38] O *D CF_CARAVEL_SOC
*CAP
1 gpio_inp_dis[38] 0.000543378
2 *921:gpio_inp_dis[38] 0.0001546
3 *560:27 0.031848
4 *560:25 0.0315321
5 *560:19 0.00845064
6 *560:17 0.0105768
7 *560:11 0.00440005
8 *560:9 0.002201
9 *560:9 *741:122 0
10 *560:11 *561:12 0.000201166
11 *560:11 *568:11 0.00527848
12 *560:27 *785:27 0.0281372
13 *560:27 *786:23 0.0262992
14 *560:27 *829:35 0.00799378
15 *560:27 *859:11 0.0211398
16 gpio_analog_pol[38] gpio_inp_dis[38] 0
17 gpio_analog_sel[42] *560:25 0.00033463
18 gpio_holdover[42] *560:25 0
19 *252:15 *560:27 0.0568387
20 *284:15 *560:19 0.0296359
21 *293:15 *560:11 0
22 *300:19 *560:19 0.0142642
23 *300:27 *560:27 0.0299517
24 *301:17 *560:19 0.0118743
25 *335:25 *560:19 0.000477949
26 *345:15 *560:19 0.0328863
27 *433:10 *560:27 0.0677986
28 *433:22 *560:27 0.000223549
29 *478:9 *560:27 0.000468045
30 *529:9 *560:11 0.00159245
31 *546:13 *560:19 0.0132032
32 *557:11 *560:11 0.00136962
33 *559:11 *560:11 0.00767085
*RES
1 *921:gpio_inp_dis[38] *560:9 6.16964 
2 *560:9 *560:11 101.982 
3 *560:11 *560:17 43.125 
4 *560:17 *560:19 538.982 
5 *560:19 *560:25 12.4368 
6 *560:25 *560:27 215.959 
7 *560:27 gpio_inp_dis[38] 11.0975 
*END

*D_NET *561 0.427611
*CONN
*P gpio_inp_dis[39] O
*I *921:gpio_inp_dis[39] O *D CF_CARAVEL_SOC
*CAP
1 gpio_inp_dis[39] 0.000674876
2 *921:gpio_inp_dis[39] 0.00100295
3 *561:18 0.0267239
4 *561:16 0.0285398
5 *561:12 0.0034938
6 *561:12 *567:14 0.00118541
7 *561:12 *568:11 0.0010147
8 *561:12 *740:79 0.00625335
9 *561:18 *563:14 0.123816
10 *561:18 *566:13 0.0423696
11 *561:18 *783:15 0.0244933
12 *561:18 *804:23 0.0293164
13 *561:18 *844:13 0.000168246
14 gpio_analog_pol[39] gpio_inp_dis[39] 0
15 gpio_analog_sel[43] *561:12 0.00170505
16 *250:23 *561:18 0.0317141
17 *300:19 *561:18 0.0034615
18 *335:25 *561:18 0.0026091
19 *345:27 *561:18 0.000660982
20 *433:10 *561:18 0.0138393
21 *477:11 *561:18 0.000840719
22 *478:9 *561:18 0.0791917
23 *529:9 *561:12 0.00433552
24 *560:11 *561:12 0.000201166
*RES
1 *921:gpio_inp_dis[39] *561:12 17.337 
2 *561:12 *561:16 39.3564 
3 *561:16 *561:18 238.444 
4 *561:18 gpio_inp_dis[39] 13.3475 
*END

*D_NET *562 0.457072
*CONN
*P gpio_inp_dis[3] O
*I *921:gpio_inp_dis[3] O *D CF_CARAVEL_SOC
*CAP
1 gpio_inp_dis[3] 0.00565152
2 *921:gpio_inp_dis[3] 0.00195877
3 *562:123 0.0183009
4 *562:121 0.0126493
5 *562:119 0.00700874
6 *562:117 0.00735647
7 *562:109 0.00150505
8 *562:107 0.00214452
9 *562:91 0.00218201
10 *562:89 0.00260837
11 *562:81 0.00199704
12 *562:69 0.00200145
13 *562:65 0.00301869
14 *562:51 0.00289813
15 *562:49 0.00298588
16 *562:35 0.00331721
17 *562:33 0.00318515
18 *562:21 0.00351518
19 *562:21 *826:47 0.000277098
20 *562:33 *696:163 0
21 *562:51 *696:119 1.21258e-05
22 *562:65 *696:119 0.00112799
23 *562:65 *696:133 3.4323e-06
24 *562:65 *826:77 0.0101181
25 *562:69 *826:79 0.00455425
26 *562:81 *696:103 0.000310041
27 *562:81 *740:145 0.00160178
28 *562:89 *741:160 0.00451365
29 *562:91 *741:148 0.00106489
30 *562:107 *826:117 0.00760377
31 *562:117 *696:93 0
32 *562:119 *572:26 0.000102718
33 *562:119 *696:89 0.000145785
34 *562:123 *727:15 0.0146444
35 gpio_analog_en[3] gpio_inp_dis[3] 0
36 gpio_analog_pol[3] gpio_inp_dis[3] 0.00189125
37 gpio_analog_sel[43] *562:119 0.00326999
38 gpio_dm0[3] gpio_inp_dis[3] 0
39 *90:11 *562:123 0.000488155
40 *98:9 gpio_inp_dis[3] 0.000246356
41 *118:27 *562:119 0.0108277
42 *118:115 *562:35 0
43 *118:129 *562:33 7.69776e-06
44 *118:137 *562:21 0.000263192
45 *118:145 *562:21 0.00151194
46 *144:11 *562:123 0.00181937
47 *223:11 *562:123 0.00536472
48 *247:11 *562:123 0.00149537
49 *308:11 *562:123 0.000229941
50 *336:41 *562:65 7.13412e-06
51 *336:41 *562:81 0.000213019
52 *338:29 *562:81 0.000212297
53 *386:129 *562:33 4.75152e-06
54 *386:137 *562:33 0.0129246
55 *386:155 *562:51 0.00054388
56 *397:109 *562:65 2.59885e-05
57 *397:127 *562:89 0.00858554
58 *397:133 *562:89 9.2539e-06
59 *397:149 *562:107 2.21794e-05
60 *397:171 *562:117 6.91215e-06
61 *408:61 *562:89 1.8115e-05
62 *408:63 *562:91 1.98839e-05
63 *408:95 *562:117 3.7939e-05
64 *408:97 *562:119 0.0422492
65 *419:69 *562:33 4.48128e-05
66 *419:77 *562:33 0.0130063
67 *419:79 *562:35 0.0025074
68 *419:93 *562:49 0.0119881
69 *419:117 *562:65 4.15592e-05
70 *419:133 *562:89 6.54622e-05
71 *419:137 *562:91 0.00280984
72 *419:149 *562:91 0.00387118
73 *419:149 *562:107 2.04825e-05
74 *419:159 *562:109 0.00976401
75 *419:175 *562:117 9.08056e-05
76 *430:27 *562:123 0.0651099
77 *444:53 *562:89 0
78 *445:19 *562:123 0.0304276
79 *529:9 *562:119 0
80 *530:17 *562:35 0
81 *530:25 *562:49 1.90936e-05
82 *530:27 *562:51 0.00586276
83 *530:41 *562:65 3.06511e-05
84 *530:55 *562:91 0.00887995
85 *530:75 *562:107 0.000120292
86 *530:77 *562:109 2.14757e-05
87 *532:14 *562:49 0
88 *533:48 *562:65 1.93629e-05
89 *533:68 *562:89 3.04033e-05
90 *533:92 *562:107 7.86735e-05
91 *533:94 *562:109 1.21258e-05
92 *535:35 *562:65 0.0101444
93 *535:35 *562:69 0.000377987
94 *535:59 *562:81 0.00195866
95 *535:59 *562:89 0.00220799
96 *535:59 *562:91 0.000324033
97 *535:91 *562:107 0.00202793
98 *535:95 *562:109 2.14757e-05
99 *536:33 *562:89 0
100 *536:59 *562:117 3.16801e-05
101 *536:63 *562:119 0.0206055
102 *537:26 *562:107 0.00117726
103 *539:35 *562:35 0.000447622
104 *540:18 *562:21 0.00068176
105 *540:18 *562:33 0.00137905
106 *540:18 *562:49 0.00110986
107 *540:18 *562:65 0.000886404
108 *551:17 *562:21 0.00481158
109 *551:25 *562:21 0
110 *551:25 *562:33 8.90583e-05
111 *551:33 *562:33 4.36232e-05
112 *551:49 *562:49 0.011914
113 *551:73 *562:51 0.00183977
114 *551:79 *562:81 0.00010855
115 *551:93 *562:89 4.65158e-06
116 *551:109 *562:107 0.00767742
117 *551:111 *562:109 0.00971828
*RES
1 *921:gpio_inp_dis[3] *562:21 49.441 
2 *562:21 *562:33 35.5259 
3 *562:33 *562:35 46.5357 
4 *562:35 *562:49 35.6209 
5 *562:49 *562:51 55.5714 
6 *562:51 *562:65 33.4175 
7 *562:65 *562:69 47.3393 
8 *562:69 *562:81 42.7761 
9 *562:81 *562:89 23.4596 
10 *562:89 *562:91 83.9107 
11 *562:91 *562:107 30.8282 
12 *562:107 *562:109 92.125 
13 *562:109 *562:117 12.6868 
14 *562:117 *562:119 65.7718 
15 *562:119 *562:121 3.41 
16 *562:121 *562:123 844.054 
17 *562:123 gpio_inp_dis[3] 16.1838 
*END

*D_NET *563 0.355348
*CONN
*P gpio_inp_dis[40] O
*I *921:gpio_inp_dis[40] O *D CF_CARAVEL_SOC
*CAP
1 gpio_inp_dis[40] 0.000590904
2 *921:gpio_inp_dis[40] 0.00284567
3 *563:14 0.0219187
4 *563:12 0.0213278
5 *563:10 0.00284567
6 *563:10 *567:14 0.000662096
7 *563:10 *568:11 0.000606222
8 *563:10 *740:79 0.00305281
9 *563:14 *564:13 0.103344
10 *563:14 *566:13 0.00366253
11 *563:14 *695:67 0.00270311
12 *563:14 *804:23 0.000729918
13 *563:14 *844:13 0.0256316
14 gpio_analog_pol[40] gpio_inp_dis[40] 0.000192037
15 gpio_analog_sel[43] *563:10 0.000779808
16 *250:23 *563:14 0.000676904
17 *335:25 *563:14 0.0182899
18 *476:13 *563:14 0.0114197
19 *477:11 *563:14 0.00848238
20 *529:9 *563:10 0.00176972
21 *561:18 *563:14 0.123816
*RES
1 *921:gpio_inp_dis[40] *563:10 47.4617 
2 *563:10 *563:12 3.41 
3 *563:12 *563:14 206.446 
4 *563:14 gpio_inp_dis[40] 13.2761 
*END

*D_NET *564 0.279112
*CONN
*P gpio_inp_dis[41] O
*I *921:gpio_inp_dis[41] O *D CF_CARAVEL_SOC
*CAP
1 gpio_inp_dis[41] 0.000782959
2 *921:gpio_inp_dis[41] 0.00242709
3 *564:13 0.0184895
4 *564:11 0.0201336
5 *564:13 *566:13 0.00201559
6 *564:13 *844:13 0.00139047
7 gpio_analog_pol[41] gpio_inp_dis[41] 0
8 *284:15 *564:13 0.011473
9 *300:19 *564:13 0.0106397
10 *301:17 *564:13 0.0839507
11 *477:11 *564:13 0.0236767
12 *541:19 *564:13 0.000332788
13 *546:13 *564:13 0.000257889
14 *552:13 *564:13 0.000197845
15 *563:14 *564:13 0.103344
*RES
1 *921:gpio_inp_dis[41] *564:11 39.1421 
2 *564:11 *564:13 173.223 
3 *564:13 gpio_inp_dis[41] 14.8475 
*END

*D_NET *565 0.223198
*CONN
*P gpio_inp_dis[42] O
*I *921:gpio_inp_dis[42] O *D CF_CARAVEL_SOC
*CAP
1 gpio_inp_dis[42] 0.000667712
2 *921:gpio_inp_dis[42] 0.00233463
3 *565:13 0.0166238
4 *565:11 0.0182907
5 *565:13 *740:87 0.00185968
6 *565:13 *843:11 0.00584461
7 gpio_analog_pol[42] gpio_inp_dis[42] 0.00022817
8 *248:19 *565:13 0.00491022
9 *301:17 *565:13 0.0858451
10 *302:21 *565:13 0.0601911
11 *325:23 *565:13 0.0106807
12 *433:22 gpio_inp_dis[42] 6.74345e-05
13 *546:13 *565:13 0.00588054
14 *552:13 *565:13 0.00977408
*RES
1 *921:gpio_inp_dis[42] *565:11 37.9279 
2 *565:11 *565:13 135.749 
3 *565:13 gpio_inp_dis[42] 14.8475 
*END

*D_NET *566 0.107434
*CONN
*P gpio_inp_dis[43] O
*I *921:gpio_inp_dis[43] O *D CF_CARAVEL_SOC
*CAP
1 gpio_inp_dis[43] 0.0005234
2 *921:gpio_inp_dis[43] 0.00168079
3 *566:13 0.0185025
4 *566:11 0.0196598
5 *566:11 *837:9 0.00104757
6 *566:11 *866:13 0.00233968
7 *566:13 *804:23 0.00258475
8 gpio_analog_pol[43] gpio_inp_dis[43] 0
9 gpio_analog_sel[43] *566:13 5.97516e-05
10 *250:23 *566:13 0.00224692
11 *252:15 *566:13 0.00922747
12 *301:17 *566:13 0.00151347
13 *561:18 *566:13 0.0423696
14 *563:14 *566:13 0.00366253
15 *564:13 *566:13 0.00201559
*RES
1 *921:gpio_inp_dis[43] *566:11 40.9636 
2 *566:11 *566:13 97.9856 
3 *566:13 gpio_inp_dis[43] 11.5439 
*END

*D_NET *567 0.45397
*CONN
*P gpio_inp_dis[4] O
*I *921:gpio_inp_dis[4] O *D CF_CARAVEL_SOC
*CAP
1 gpio_inp_dis[4] 0.00424645
2 *921:gpio_inp_dis[4] 0.000349834
3 *567:18 0.0362258
4 *567:16 0.0319794
5 *567:14 0.0158691
6 *567:12 0.0162189
7 *567:14 *568:11 0.12624
8 *567:14 *572:16 0.109055
9 *567:14 *740:79 0.00433839
10 *567:14 *826:127 0
11 gpio_analog_pol[4] gpio_inp_dis[4] 0.00085359
12 *93:11 *567:18 0.0185972
13 *130:11 *567:18 0.00200257
14 *144:19 *567:18 0.00699984
15 *184:9 gpio_inp_dis[4] 0.00484337
16 *207:19 *567:18 0
17 *223:19 *567:18 0
18 *246:11 *567:18 0
19 *254:11 *567:18 0.00587795
20 *338:63 *567:12 0.00178936
21 *342:11 *567:18 0.00377939
22 *444:37 *567:14 0.00154391
23 *529:9 *567:12 0.000781701
24 *529:9 *567:14 0.00512307
25 *530:113 *567:18 0.0373643
26 *531:14 *567:14 0.00288684
27 *536:33 *567:14 0.00174182
28 *537:12 *567:14 0.00250985
29 *540:18 *567:12 0.000456645
30 *541:27 *567:12 0.000438525
31 *541:27 *567:14 0.00958514
32 *556:11 *567:14 0.000424167
33 *561:12 *567:14 0.00118541
34 *563:10 *567:14 0.000662096
*RES
1 *921:gpio_inp_dis[4] *567:12 14.7066 
2 *567:12 *567:14 1200.23 
3 *567:14 *567:16 4.5 
4 *567:16 *567:18 1051.24 
5 *567:18 gpio_inp_dis[4] 14.7864 
*END

*D_NET *568 0.453299
*CONN
*P gpio_inp_dis[5] O
*I *921:gpio_inp_dis[5] O *D CF_CARAVEL_SOC
*CAP
1 gpio_inp_dis[5] 0.00383547
2 *921:gpio_inp_dis[5] 9.51898e-05
3 *568:15 0.0366276
4 *568:13 0.0327921
5 *568:11 0.0225776
6 *568:9 0.0226728
7 gpio_inp_dis[5] *782:47 8.30454e-05
8 *568:11 *569:16 0.00288934
9 *568:11 *740:79 0.00465447
10 *568:11 *826:127 0
11 gpio_analog_en[5] gpio_inp_dis[5] 0
12 gpio_analog_pol[5] gpio_inp_dis[5] 0.0030275
13 gpio_dm0[5] gpio_inp_dis[5] 3.90782e-06
14 *129:11 *568:15 0.00405282
15 *132:11 *568:15 0.0362805
16 *137:9 gpio_inp_dis[5] 0.000180777
17 *176:11 *568:15 0.000110498
18 *182:17 gpio_inp_dis[5] 0.000199245
19 *260:19 *568:15 0
20 *266:11 *568:15 0.00590497
21 *281:11 gpio_inp_dis[5] 0.000127681
22 *293:15 *568:11 0
23 *312:19 *568:15 0.0137544
24 *375:43 *568:15 0.00153505
25 *419:197 *568:15 0.0545358
26 *444:37 *568:11 0.00161576
27 *529:9 *568:11 0.00479223
28 *531:14 *568:11 0.00310275
29 *532:36 *568:15 0.000144815
30 *535:121 *568:15 0
31 *536:33 *568:11 0.00250902
32 *537:12 *568:11 0.00279784
33 *538:17 *568:11 0.00293144
34 *556:11 *568:11 0.0219387
35 *557:11 *568:11 0.0343854
36 *560:11 *568:11 0.00527848
37 *561:12 *568:11 0.0010147
38 *563:10 *568:11 0.000606222
39 *567:14 *568:11 0.12624
*RES
1 *921:gpio_inp_dis[5] *568:9 5.86607 
2 *568:9 *568:11 1199.82 
3 *568:11 *568:13 4.5 
4 *568:13 *568:15 1248.87 
5 *568:15 gpio_inp_dis[5] 22.674 
*END

*D_NET *569 0.553658
*CONN
*P gpio_inp_dis[6] O
*I *921:gpio_inp_dis[6] O *D CF_CARAVEL_SOC
*CAP
1 gpio_inp_dis[6] 0.00582356
2 *921:gpio_inp_dis[6] 0.00289842
3 *569:22 0.0253767
4 *569:20 0.0195532
5 *569:18 0.0168497
6 *569:16 0.0197481
7 gpio_inp_dis[6] *782:29 0.000222494
8 *569:16 *570:12 0.0100994
9 *569:16 *572:14 0.000166601
10 *569:18 *696:95 0.0361868
11 *569:18 *696:133 0.00136654
12 *569:18 *740:123 0
13 *569:18 *826:47 0.00617807
14 *569:18 *826:127 0.0346974
15 *569:22 *570:26 0.11819
16 *569:22 *572:28 0.00300165
17 *569:22 *661:19 0.0955058
18 *569:22 *698:23 0.0127157
19 gpio_analog_en[6] gpio_inp_dis[6] 0
20 gpio_analog_pol[6] gpio_inp_dis[6] 0.0042211
21 gpio_dm0[6] gpio_inp_dis[6] 0
22 *92:11 *569:22 0.0077754
23 *118:27 *569:18 0.00435697
24 *118:39 *569:18 0.00252881
25 *118:115 *569:18 1.82549e-05
26 *118:129 *569:16 0
27 *219:11 gpio_inp_dis[6] 0
28 *281:11 gpio_inp_dis[6] 4.93125e-05
29 *336:31 *569:18 0.00531089
30 *337:33 gpio_inp_dis[6] 1.16655e-05
31 *338:35 *569:18 0.0274637
32 *386:155 *569:18 0
33 *397:135 *569:18 0
34 *443:19 *569:22 0.00640747
35 *444:37 *569:18 0.000551534
36 *529:9 *569:16 0.00524369
37 *530:17 *569:16 0
38 *532:16 *569:18 0.00182447
39 *532:32 *569:18 0.0488529
40 *533:52 *569:18 0
41 *533:54 *569:18 0
42 *536:35 *569:18 0.0148463
43 *536:63 *569:18 0.00296738
44 *539:11 *569:18 0.0027031
45 *540:18 *569:16 0.00343693
46 *540:34 *569:18 0.000719399
47 *541:27 *569:16 0.00289953
48 *568:11 *569:16 0.00288934
*RES
1 *921:gpio_inp_dis[6] *569:16 37.3285 
2 *569:16 *569:18 1025.68 
3 *569:18 *569:20 4.5 
4 *569:20 *569:22 1449.53 
5 *569:22 gpio_inp_dis[6] 25.3583 
*END

*D_NET *570 0.651646
*CONN
*P gpio_inp_dis[7] O
*I *921:gpio_inp_dis[7] O *D CF_CARAVEL_SOC
*CAP
1 gpio_inp_dis[7] 0.00589468
2 *921:gpio_inp_dis[7] 0.00235521
3 *570:26 0.0504966
4 *570:24 0.044602
5 *570:22 0.0140999
6 *570:20 0.016003
7 *570:14 0.00613205
8 *570:12 0.00658409
9 *570:12 *572:14 0.0033342
10 *570:12 *696:163 0.000167418
11 *570:14 *571:17 0.000177421
12 *570:14 *571:19 0.0161461
13 *570:22 *760:31 0.0813832
14 *570:22 *868:11 0.0162879
15 *570:26 *572:26 0.000142871
16 *570:26 *572:28 0.000766957
17 *570:26 *661:19 0.000283595
18 *570:26 *698:23 0.00084755
19 *570:26 *745:15 0.00407163
20 gpio_analog_pol[7] gpio_inp_dis[7] 0.00155571
21 *92:11 *570:26 0.0201302
22 *102:19 *570:26 0
23 *118:129 *570:12 0
24 *140:55 *570:26 0.00152365
25 *293:15 *570:14 7.68631e-05
26 *322:161 *570:14 0.00322918
27 *322:163 *570:14 0.000464205
28 *335:13 *570:26 0.0334649
29 *397:79 *570:14 0.00635363
30 *435:23 *570:22 0.0113757
31 *443:11 *570:26 0.125246
32 *443:19 *570:26 0.00922757
33 *529:9 *570:14 0.000432075
34 *531:16 *570:14 0.0101433
35 *536:17 *570:14 0.00166804
36 *540:18 *570:12 0.00249542
37 *542:11 *570:22 0.00709239
38 *544:13 *570:22 0.00352586
39 *553:13 *570:22 0.0092874
40 *556:11 *570:14 0.00628865
41 *569:16 *570:12 0.0100994
42 *569:22 *570:26 0.11819
*RES
1 *921:gpio_inp_dis[7] *570:12 29.8342 
2 *570:12 *570:14 257.643 
3 *570:14 *570:20 35.8393 
4 *570:20 *570:22 770.214 
5 *570:22 *570:24 4.5 
6 *570:24 *570:26 2270.69 
7 *570:26 gpio_inp_dis[7] 17.7379 
*END

*D_NET *571 0.671416
*CONN
*P gpio_inp_dis[8] O
*I *921:gpio_inp_dis[8] O *D CF_CARAVEL_SOC
*CAP
1 gpio_inp_dis[8] 0.00205664
2 *921:gpio_inp_dis[8] 0.00147507
3 *571:39 0.0442178
4 *571:37 0.0421611
5 *571:35 0.00364268
6 *571:33 0.00364268
7 *571:31 0.0149907
8 *571:29 0.0149907
9 *571:27 0.0137916
10 *571:25 0.0149931
11 *571:19 0.00383007
12 *571:17 0.0041037
13 *571:17 *840:19 0.00387427
14 *571:19 *840:19 0.00012071
15 *571:27 *749:27 0.049888
16 gpio_analog_pol[8] gpio_inp_dis[8] 0.000377962
17 gpio_dm1[0] *571:31 0.0015052
18 gpio_dm2[1] *571:31 0.00155093
19 gpio_holdover[7] *571:39 7.77093e-05
20 *119:15 *571:27 0.000859752
21 *167:19 *571:27 0.0196329
22 *206:43 *571:39 0.000891489
23 *208:21 *571:27 0.0882081
24 *220:11 *571:39 0.000397492
25 *261:11 *571:39 0.0413847
26 *283:11 *571:39 0
27 *284:11 *571:31 0
28 *289:23 *571:27 0.000333999
29 *293:15 *571:19 0.00568854
30 *309:11 *571:31 0.000683412
31 *314:19 *571:31 0
32 *322:153 *571:25 0
33 *322:161 *571:19 0.00323244
34 *322:163 *571:19 0.000712417
35 *322:167 *571:17 0.00047119
36 *327:63 *571:39 0.0793024
37 *336:11 *571:31 0
38 *347:11 *571:39 0.0107088
39 *351:11 *571:31 0.0042363
40 *391:51 *571:39 0.00345233
41 *436:27 *571:39 0.0182538
42 *474:11 *571:31 0.0679361
43 *479:11 *571:31 0.0766992
44 *480:11 *571:31 0.000246551
45 *529:9 *571:17 0.00742722
46 *539:25 *571:25 0.0016416
47 *539:55 *571:17 0.000478975
48 *540:18 *571:17 0.000922577
49 *570:14 *571:17 0.000177421
50 *570:14 *571:19 0.0161461
*RES
1 *921:gpio_inp_dis[8] *571:17 26.4767 
2 *571:17 *571:19 151.679 
3 *571:19 *571:25 31.5893 
4 *571:25 *571:27 863.446 
5 *571:27 *571:29 4.5 
6 *571:29 *571:31 955.768 
7 *571:31 *571:33 4.5 
8 *571:33 *571:35 55.5714 
9 *571:35 *571:37 4.5 
10 *571:37 *571:39 1515.71 
11 *571:39 gpio_inp_dis[8] 8.28468 
*END

*D_NET *572 0.725189
*CONN
*P gpio_inp_dis[9] O
*I *921:gpio_inp_dis[9] O *D CF_CARAVEL_SOC
*CAP
1 gpio_inp_dis[9] 0.00564599
2 *921:gpio_inp_dis[9] 0.000695683
3 *572:28 0.082721
4 *572:26 0.0773234
5 *572:16 0.0133449
6 *572:14 0.0137923
7 *572:14 *696:163 0.00100521
8 *572:16 *740:79 0.00611625
9 *572:16 *826:127 0
10 *572:28 *661:19 0.00129131
11 *572:28 *672:15 0.0136455
12 *572:28 *683:15 0.00921191
13 *572:28 *698:23 0.00761809
14 gpio_analog_en[9] gpio_inp_dis[9] 0
15 gpio_analog_pol[9] gpio_inp_dis[9] 0.000262122
16 gpio_dm0[0] *572:28 0
17 gpio_dm0[9] gpio_inp_dis[9] 0
18 *92:11 *572:28 0.0611764
19 *102:11 *572:28 0.0453667
20 *102:19 *572:28 0.00189031
21 *106:19 *572:28 0.00843622
22 *110:19 *572:28 0.0859518
23 *119:11 *572:28 0.010669
24 *125:15 *572:16 0.0911671
25 *140:41 *572:28 0.000119924
26 *226:11 *572:28 0.00881065
27 *335:13 *572:26 0.000144959
28 *350:11 *572:28 0
29 *443:19 *572:28 0.0237377
30 *444:37 *572:16 0.00153612
31 *444:55 *572:16 0.00344966
32 *483:19 *572:28 0.0115413
33 *529:9 *572:16 0.00361392
34 *529:9 *572:26 0
35 *531:14 *572:16 0.00176538
36 *536:33 *572:16 0.00173401
37 *537:12 *572:16 0.00250985
38 *540:18 *572:14 0.000860046
39 *541:27 *572:16 0.011464
40 *562:119 *572:26 0.000102718
41 *567:14 *572:16 0.109055
42 *569:16 *572:14 0.000166601
43 *569:22 *572:28 0.00300165
44 *570:12 *572:14 0.0033342
45 *570:26 *572:26 0.000142871
46 *570:26 *572:28 0.000766957
*RES
1 *921:gpio_inp_dis[9] *572:14 18.7978 
2 *572:14 *572:16 1025.27 
3 *572:16 *572:26 13.6301 
4 *572:26 *572:28 464.106 
5 *572:28 gpio_inp_dis[9] 16.9405 
*END

*D_NET *661 0.539366
*CONN
*P gpio_oeb[0] O
*I *921:gpio_oeb[0] O *D CF_CARAVEL_SOC
*CAP
1 gpio_oeb[0] 0.00583205
2 *921:gpio_oeb[0] 0.00102206
3 *661:19 0.0227538
4 *661:17 0.0169218
5 *661:15 0.0292363
6 *661:13 0.0302584
7 *661:15 *672:11 0.143134
8 *661:15 *687:11 5.06781e-05
9 *661:19 *672:15 0.00916052
10 *661:19 *698:23 0.0490705
11 *661:19 *743:15 0.0356429
12 *661:19 *745:15 0.00369111
13 gpio_ib_mode_sel[0] gpio_oeb[0] 0
14 *92:11 *661:19 0.00796446
15 *116:61 *661:13 6.75178e-05
16 *116:63 *661:13 7.06369e-05
17 *117:39 *661:13 0.00284107
18 *117:39 *661:15 0.0740599
19 *140:55 *661:19 0.00152194
20 *160:23 *661:13 0.00146388
21 *160:23 *661:15 0.000416162
22 *205:53 *661:15 0.000859476
23 *247:9 gpio_oeb[0] 0.00033086
24 *443:19 *661:19 0.00591603
25 *569:22 *661:19 0.0955058
26 *570:26 *661:19 0.000283595
27 *572:28 *661:19 0.00129131
*RES
1 *921:gpio_oeb[0] *661:13 16.1319 
2 *661:13 *661:15 227.742 
3 *661:15 *661:17 3.41 
4 *661:17 *661:19 1242.34 
5 *661:19 gpio_oeb[0] 16.8403 
*END

*D_NET *662 0.508922
*CONN
*P gpio_oeb[10] O
*I *920:count_oeb[2] O *D counter_macro
*CAP
1 gpio_oeb[10] 0.000115012
2 *920:count_oeb[2] 1.3106e-05
3 *662:11 0.0785995
4 *662:9 0.0784845
5 *662:7 0.047605
6 *662:5 0.0476181
7 *398:23 *662:11 0.256487
*RES
1 *920:count_oeb[2] *662:5 0.267857 
2 *662:5 *662:7 963.661 
3 *662:7 *662:9 3.41 
4 *662:9 *662:11 397.289 
5 *662:11 gpio_oeb[10] 0.386183 
*END

*D_NET *663 0.364416
*CONN
*P gpio_oeb[11] O
*I *920:count_oeb[3] O *D counter_macro
*CAP
1 gpio_oeb[11] 1.6097e-05
2 *920:count_oeb[3] 1.3106e-05
3 *663:11 0.1246
4 *663:9 0.124584
5 *663:7 0.0575949
6 *663:5 0.057608
7 *663:11 *723:21 0
8 gpio_ib_mode_sel[11] *663:11 0
9 *274:239 *663:11 0
10 *399:23 *663:11 0
*RES
1 *920:count_oeb[3] *663:5 0.267857 
2 *663:5 *663:7 1166.45 
3 *663:7 *663:9 3.41 
4 *663:9 *663:11 395.344 
5 *663:11 gpio_oeb[11] 0.05405 
*END

*D_NET *664 0.541899
*CONN
*P gpio_oeb[12] O
*I *920:count_oeb[4] O *D counter_macro
*CAP
1 gpio_oeb[12] 0.00290301
2 *920:count_oeb[4] 1.3106e-05
3 *664:11 0.0780715
4 *664:9 0.0751685
5 *664:7 0.0673385
6 *664:5 0.0673516
7 *326:35 *664:11 0
8 *400:23 gpio_oeb[12] 0.000794618
9 *400:23 *664:11 0.250258
*RES
1 *920:count_oeb[4] *664:5 0.267857 
2 *664:5 *664:7 1363.77 
3 *664:7 *664:9 3.41 
4 *664:9 *664:11 387.009 
5 *664:11 gpio_oeb[12] 7.16358 
*END

*D_NET *665 0.419912
*CONN
*P gpio_oeb[13] O
*I *920:count_oeb[5] O *D counter_macro
*CAP
1 gpio_oeb[13] 0.000103814
2 *920:count_oeb[5] 1.3106e-05
3 *665:11 0.122503
4 *665:9 0.1224
5 *665:7 0.08695
6 *665:5 0.0869631
7 gpio_ib_mode_sel[13] *665:11 0.000537699
8 *140:329 *665:11 0.000440876
9 *401:15 *665:11 0
*RES
1 *920:count_oeb[5] *665:5 0.267857 
2 *665:5 *665:7 1763.88 
3 *665:7 *665:9 3.41 
4 *665:9 *665:11 391.452 
5 *665:11 gpio_oeb[13] 0.348583 
*END

*D_NET *666 0.623861
*CONN
*P gpio_oeb[14] O
*I *920:count_oeb[6] O *D counter_macro
*CAP
1 gpio_oeb[14] 0.00312425
2 *920:count_oeb[6] 1.3106e-05
3 *666:11 0.0861771
4 *666:9 0.0830528
5 *666:7 0.106399
6 *666:5 0.106412
7 *666:11 *798:23 0.00560317
8 gpio_ib_mode_sel[14] gpio_oeb[14] 0.000402661
9 *281:31 *666:11 0.232677
*RES
1 *920:count_oeb[6] *666:5 0.267857 
2 *666:5 *666:7 2159.73 
3 *666:7 *666:9 3.41 
4 *666:9 *666:11 383.117 
5 *666:11 gpio_oeb[14] 7.24505 
*END

*D_NET *667 0.442797
*CONN
*P gpio_oeb[15] O
*I *920:count_oeb[7] O *D counter_macro
*CAP
1 gpio_oeb[15] 8.83825e-05
2 *920:count_oeb[7] 1.3106e-05
3 *667:15 0.104285
4 *667:13 0.104197
5 *667:11 0.108641
6 *667:9 0.108641
7 *667:7 0.00845905
8 *667:5 0.00847215
9 *667:7 *806:19 0
10 *667:11 *668:11 0
11 gpio_ib_mode_sel[15] gpio_oeb[15] 0
12 *140:131 *667:15 0
13 *403:19 *667:15 0
14 *537:136 *667:15 0
*RES
1 *920:count_oeb[7] *667:5 0.267857 
2 *667:5 *667:7 170.732 
3 *667:7 *667:9 3.41 
4 *667:9 *667:11 349.57 
5 *667:11 *667:13 3.41 
6 *667:13 *667:15 2120.27 
7 *667:15 gpio_oeb[15] 1.60714 
*END

*D_NET *668 0.392275
*CONN
*P gpio_oeb[16] O
*I *920:count_oeb[8] O *D counter_macro
*CAP
1 gpio_oeb[16] 0.104038
2 *920:count_oeb[8] 1.3106e-05
3 *668:13 0.104038
4 *668:11 0.0833299
5 *668:9 0.0833299
6 *668:7 0.0087561
7 *668:5 0.00876921
8 *668:11 *669:11 0
9 gpio_ib_mode_sel[16] gpio_oeb[16] 0
10 *667:11 *668:11 0
*RES
1 *920:count_oeb[8] *668:5 0.267857 
2 *668:5 *668:7 176.804 
3 *668:7 *668:9 3.41 
4 *668:9 *668:11 267.847 
5 *668:11 *668:13 3.41 
6 *668:13 gpio_oeb[16] 2115.35 
*END

*D_NET *669 0.366029
*CONN
*P gpio_oeb[17] O
*I *920:count_oeb[9] O *D counter_macro
*CAP
1 gpio_oeb[17] 0.103765
2 *920:count_oeb[9] 1.3106e-05
3 *669:13 0.103765
4 *669:11 0.0701691
5 *669:9 0.0701691
6 *669:7 0.00906697
7 *669:5 0.00908008
8 *669:11 *671:11 0
9 gpio_ib_mode_sel[17] gpio_oeb[17] 0
10 *190:19 *669:7 0
11 *668:11 *669:11 0
*RES
1 *920:count_oeb[9] *669:5 0.267857 
2 *669:5 *669:7 182.875 
3 *669:7 *669:9 3.41 
4 *669:9 *669:11 225.616 
5 *669:11 *669:13 3.41 
6 *669:13 gpio_oeb[17] 2109.28 
*END

*D_NET *670 0.330022
*CONN
*P gpio_oeb[18] O
*I *920:count_oeb[10] O *D counter_macro
*CAP
1 gpio_oeb[18] 0.00312589
2 *920:count_oeb[10] 1.3106e-05
3 *670:13 0.00312589
4 *670:11 0.0477843
5 *670:9 0.0477843
6 *670:7 0.0785264
7 *670:5 0.0785395
8 *670:11 *673:13 0
9 gpio_ib_mode_sel[18] gpio_oeb[18] 0
10 *146:25 *670:7 0.0711222
11 *234:19 *670:7 0
12 *542:55 *670:7 0
*RES
1 *920:count_oeb[10] *670:5 0.267857 
2 *670:5 *670:7 2228.34 
3 *670:7 *670:9 3.41 
4 *670:9 *670:11 153.981 
5 *670:11 *670:13 3.41 
6 *670:13 gpio_oeb[18] 63.8125 
*END

*D_NET *671 0.271453
*CONN
*P gpio_oeb[19] O
*I *920:count_oeb[11] O *D counter_macro
*CAP
1 gpio_oeb[19] 0.103478
2 *920:count_oeb[11] 1.3106e-05
3 *671:13 0.103478
4 *671:11 0.0225961
5 *671:9 0.0225961
6 *671:7 0.007646
7 *671:5 0.00765911
8 *671:11 *685:21 0
9 gpio_ib_mode_sel[19] gpio_oeb[19] 0
10 *278:19 *671:7 0.00398611
11 *669:11 *671:11 0
*RES
1 *920:count_oeb[11] *671:5 0.267857 
2 *671:5 *671:7 188.946 
3 *671:7 *671:9 3.41 
4 *671:9 *671:11 72.2578 
5 *671:11 *671:13 3.41 
6 *671:13 gpio_oeb[19] 2103.21 
*END

*D_NET *672 0.514923
*CONN
*P gpio_oeb[1] O
*I *921:gpio_oeb[1] O *D CF_CARAVEL_SOC
*CAP
1 gpio_oeb[1] 0.00627671
2 *921:gpio_oeb[1] 0.000453618
3 *672:15 0.0263487
4 *672:13 0.020072
5 *672:11 0.0232485
6 *672:9 0.0237021
7 *672:11 *683:11 0.139924
8 *672:11 *687:11 0.00175784
9 *672:15 *683:15 0.0373079
10 *672:15 *698:23 0.0324886
11 *672:15 *743:15 0.0356442
12 gpio_ib_mode_sel[1] gpio_oeb[1] 0
13 *116:55 *672:11 0.00058428
14 *140:41 *672:15 0.0011625
15 *160:21 *672:9 0
16 *205:53 *672:11 1.14892e-05
17 *483:19 *672:15 0
18 *572:28 *672:15 0.0136455
19 *661:15 *672:11 0.143134
20 *661:19 *672:15 0.00916052
*RES
1 *921:gpio_oeb[1] *672:9 11.1064 
2 *672:9 *672:11 226.985 
3 *672:11 *672:13 3.41 
4 *672:13 *672:15 1038.34 
5 *672:15 gpio_oeb[1] 17.0721 
*END

*D_NET *673 0.244782
*CONN
*P gpio_oeb[20] O
*I *920:count_oeb[12] O *D counter_macro
*CAP
1 gpio_oeb[20] 0.000112372
2 *920:count_oeb[12] 1.3106e-05
3 *673:15 0.00349093
4 *673:13 0.0127256
5 *673:7 0.118887
6 *673:5 0.109553
7 gpio_ib_mode_sel[20] gpio_oeb[20] 0
8 gpio_ib_mode_sel[20] *673:15 0
9 *454:9 *673:7 0
10 *670:11 *673:13 0
*RES
1 *920:count_oeb[12] *673:5 0.267857 
2 *673:5 *673:7 2222.27 
3 *673:7 *673:13 36.7747 
4 *673:13 *673:15 68.7321 
5 *673:15 gpio_oeb[20] 1.60714 
*END

*D_NET *674 0.233748
*CONN
*P gpio_oeb[21] O
*I *920:count_oeb[13] O *D counter_macro
*CAP
1 gpio_oeb[21] 0.000112372
2 *920:count_oeb[13] 1.3106e-05
3 *674:15 0.0999788
4 *674:13 0.103669
5 *674:7 0.0168822
6 *674:5 0.0130927
7 *674:13 *680:13 0
8 gpio_ib_mode_sel[21] gpio_oeb[21] 0
9 gpio_ib_mode_sel[21] *674:15 0
*RES
1 *920:count_oeb[13] *674:5 0.267857 
2 *674:5 *674:7 263.018 
3 *674:7 *674:13 19.1904 
4 *674:13 *674:15 2027.98 
5 *674:15 gpio_oeb[21] 1.60714 
*END

*D_NET *675 0.322268
*CONN
*P gpio_oeb[22] O
*I *920:count_oeb[14] O *D counter_macro
*CAP
1 gpio_oeb[22] 0.0930727
2 *920:count_oeb[14] 1.3106e-05
3 *675:13 0.0930727
4 *675:11 0.0108192
5 *675:9 0.0108192
6 *675:7 0.00374342
7 *675:5 0.00375653
8 gpio_oeb[22] *706:7 0.0717378
9 *675:11 *758:13 0.0352331
10 gpio_ib_mode_sel[22] gpio_oeb[22] 0
11 *279:15 *675:11 0
12 *539:421 gpio_oeb[22] 0
*RES
1 *920:count_oeb[14] *675:5 0.267857 
2 *675:5 *675:7 72.9821 
3 *675:7 *675:9 3.41 
4 *675:9 *675:11 54.6015 
5 *675:11 *675:13 3.41 
6 *675:13 gpio_oeb[22] 2219.17 
*END

*D_NET *676 0.2911
*CONN
*P gpio_oeb[23] O
*I *920:count_oeb[15] O *D counter_macro
*CAP
1 gpio_oeb[23] 0.00221644
2 *920:count_oeb[15] 1.3106e-05
3 *676:15 0.106361
4 *676:13 0.104145
5 *676:11 0.0296705
6 *676:9 0.0296705
7 *676:7 0.00334668
8 *676:5 0.00335978
9 *676:11 *758:13 0
10 *278:15 *676:11 0.00510021
11 *322:349 *676:15 0.00721765
*RES
1 *920:count_oeb[15] *676:5 0.267857 
2 *676:5 *676:7 66.9107 
3 *676:7 *676:9 3.41 
4 *676:9 *676:11 96.8325 
5 *676:11 *676:13 3.41 
6 *676:13 *676:15 2183.46 
7 *676:15 gpio_oeb[23] 42.9732 
*END

*D_NET *677 0.492226
*CONN
*P gpio_oeb[24] O
*I *921:gpio_oeb[24] O *D CF_CARAVEL_SOC
*CAP
1 gpio_oeb[24] 0.010183
2 *921:gpio_oeb[24] 1.27254e-05
3 *677:15 0.0987607
4 *677:13 0.0885776
5 *677:11 0.108675
6 *677:9 0.108675
7 *677:7 0.0326103
8 *677:5 0.032623
9 gpio_oeb[24] gpio_vtrip_sel[24] 0
10 gpio_ib_mode_sel[24] gpio_oeb[24] 0
11 *322:341 *677:15 0.0121095
12 *413:26 gpio_oeb[24] 0
13 *538:259 *677:7 0
*RES
1 *921:gpio_oeb[24] *677:5 0.267857 
2 *677:5 *677:7 652.804 
3 *677:7 *677:9 3.41 
4 *677:9 *677:11 348.633 
5 *677:11 *677:13 3.41 
6 *677:13 *677:15 1857.98 
7 *677:15 gpio_oeb[24] 30.5987 
*END

*D_NET *678 0.414385
*CONN
*P gpio_oeb[25] O
*I *921:gpio_oeb[25] O *D CF_CARAVEL_SOC
*CAP
1 gpio_oeb[25] 0.00288111
2 *921:gpio_oeb[25] 8.72033e-05
3 *678:13 0.120915
4 *678:11 0.118034
5 *678:9 0.0856454
6 *678:7 0.0857326
7 gpio_ib_mode_sel[25] gpio_oeb[25] 0.000477436
8 *404:11 gpio_oeb[25] 0
9 *410:11 gpio_oeb[25] 0
10 *539:329 *678:13 0.000613019
*RES
1 *921:gpio_oeb[25] *678:7 1.60714 
2 *678:7 *678:9 1729.88 
3 *678:9 *678:11 3.41 
4 *678:11 *678:13 376.523 
5 *678:13 gpio_oeb[25] 34.2127 
*END

*D_NET *679 0.527619
*CONN
*P gpio_oeb[26] O
*I *921:gpio_oeb[26] O *D CF_CARAVEL_SOC
*CAP
1 gpio_oeb[26] 0.0109914
2 *921:gpio_oeb[26] 8.89429e-05
3 *679:17 0.0679264
4 *679:15 0.056935
5 *679:13 0.0696071
6 *679:11 0.0696071
7 *679:9 0.0209701
8 *679:7 0.021059
9 gpio_oeb[26] gpio_vtrip_sel[26] 0
10 gpio_oeb[26] *795:23 0.000344424
11 *679:13 *720:9 0
12 *679:13 *807:15 0.00796596
13 gpio_dm0[16] *679:9 0
14 gpio_ib_mode_sel[26] gpio_oeb[26] 5.69761e-05
15 *102:23 *679:13 0.17494
16 *147:17 *679:13 0.0154054
17 *280:27 *679:17 0
18 *286:29 *679:9 0
19 *324:15 *679:13 0
20 *399:23 gpio_oeb[26] 0.011721
*RES
1 *921:gpio_oeb[26] *679:7 1.60714 
2 *679:7 *679:9 406.911 
3 *679:9 *679:11 3.41 
4 *679:11 *679:13 349.354 
5 *679:13 *679:15 3.41 
6 *679:15 *679:17 1155.52 
7 *679:17 gpio_oeb[26] 39.7653 
*END

*D_NET *680 0.394287
*CONN
*P gpio_oeb[27] O
*I *921:gpio_oeb[27] O *D CF_CARAVEL_SOC
*CAP
1 gpio_oeb[27] 0.00794692
2 *921:gpio_oeb[27] 8.72033e-05
3 *680:17 0.0410692
4 *680:15 0.0331223
5 *680:13 0.114131
6 *680:11 0.114131
7 *680:9 0.0334284
8 *680:7 0.0335156
9 gpio_ib_mode_sel[27] gpio_oeb[27] 0.000631703
10 *322:333 *680:17 0.00483419
11 *398:23 gpio_oeb[27] 0.01139
12 *674:13 *680:13 0
*RES
1 *921:gpio_oeb[27] *680:7 1.60714 
2 *680:7 *680:9 669.804 
3 *680:9 *680:11 3.41 
4 *680:11 *680:13 365.353 
5 *680:13 *680:15 3.41 
6 *680:15 *680:17 694.696 
7 *680:17 gpio_oeb[27] 29.7496 
*END

*D_NET *681 0.36918
*CONN
*P gpio_oeb[28] O
*I *921:gpio_oeb[28] O *D CF_CARAVEL_SOC
*CAP
1 gpio_oeb[28] 0.00298219
2 *921:gpio_oeb[28] 0.0027812
3 *681:21 0.125827
4 *681:19 0.122845
5 *681:17 0.0555384
6 *681:15 0.0556319
7 *681:9 0.00287474
8 gpio_ib_mode_sel[28] gpio_oeb[28] 0
9 gpio_ib_mode_sel[28] *681:21 0
10 *197:15 gpio_oeb[28] 0
11 *197:15 *681:21 0
12 *202:27 *681:15 0.000543613
13 *316:15 *681:15 0.00015539
14 *538:245 *681:17 0
*RES
1 *921:gpio_oeb[28] *681:9 47.2679 
2 *681:9 *681:15 7.65973 
3 *681:15 *681:17 1126.98 
4 *681:17 *681:19 3.41 
5 *681:19 *681:21 389.747 
6 *681:21 gpio_oeb[28] 6.11862 
*END

*D_NET *682 0.353255
*CONN
*P gpio_oeb[29] O
*I *921:gpio_oeb[29] O *D CF_CARAVEL_SOC
*CAP
1 gpio_oeb[29] 0.00105127
2 *921:gpio_oeb[29] 1.27254e-05
3 *682:11 0.127586
4 *682:9 0.126535
5 *682:7 0.0487121
6 *682:5 0.0487248
7 gpio_oeb[29] *810:11 0.000103132
8 gpio_ib_mode_sel[29] gpio_oeb[29] 0.000229873
9 gpio_ib_mode_sel[29] *682:11 0
10 *446:11 gpio_oeb[29] 0.000299594
11 *538:219 *682:7 0
*RES
1 *921:gpio_oeb[29] *682:5 0.267857 
2 *682:5 *682:7 979.446 
3 *682:7 *682:9 3.41 
4 *682:9 *682:11 399.08 
5 *682:11 gpio_oeb[29] 12.8478 
*END

*D_NET *683 0.494001
*CONN
*P gpio_oeb[2] O
*I *921:gpio_oeb[2] O *D CF_CARAVEL_SOC
*CAP
1 gpio_oeb[2] 0.00660612
2 *921:gpio_oeb[2] 0.000419538
3 *683:15 0.0280811
4 *683:13 0.021475
5 *683:11 0.0260905
6 *683:9 0.02651
7 *683:11 *687:11 0.101567
8 *683:11 *688:11 0.00161698
9 *683:11 *693:19 0.000518255
10 *683:11 *744:11 0.0112314
11 *95:17 *683:11 0
12 *102:19 *683:15 0.0039762
13 *110:11 *683:15 0
14 *116:55 *683:11 0.0297327
15 *119:11 *683:15 0.00171585
16 *139:17 *683:11 0
17 *140:41 *683:15 0.00116078
18 *150:11 *683:15 0.00179894
19 *160:15 *683:11 0.00668324
20 *205:53 *683:11 0
21 *206:17 *683:15 0.000590181
22 *288:53 *683:15 0.00124538
23 *392:31 *683:11 0.0275654
24 *483:19 *683:15 0.00897173
25 *572:28 *683:15 0.00921191
26 *672:11 *683:11 0.139924
27 *672:15 *683:15 0.0373079
*RES
1 *921:gpio_oeb[2] *683:9 10.4993 
2 *683:9 *683:11 221.94 
3 *683:11 *683:13 3.41 
4 *683:13 *683:15 834.946 
5 *683:15 gpio_oeb[2] 17.2601 
*END

*D_NET *684 0.338235
*CONN
*P gpio_oeb[30] O
*I *921:gpio_oeb[30] O *D CF_CARAVEL_SOC
*CAP
1 gpio_oeb[30] 0.00297286
2 *921:gpio_oeb[30] 8.72033e-05
3 *684:21 0.0543394
4 *684:19 0.0513665
5 *684:17 0.0287709
6 *684:15 0.0287709
7 *684:13 0.075119
8 *684:11 0.075119
9 *684:9 0.0104262
10 *684:7 0.0105134
11 *684:21 *768:17 0
12 *684:21 *813:17 0
13 gpio_ib_mode_sel[30] gpio_oeb[30] 0.000607724
14 *323:15 *684:21 0
15 *402:11 gpio_oeb[30] 0.00014202
*RES
1 *921:gpio_oeb[30] *684:7 1.60714 
2 *684:7 *684:9 201.696 
3 *684:9 *684:11 3.41 
4 *684:11 *684:13 242.551 
5 *684:13 *684:15 3.41 
6 *684:15 *684:17 582.982 
7 *684:17 *684:19 3.41 
8 *684:19 *684:21 158.413 
9 *684:21 gpio_oeb[30] 6.51342 
*END

*D_NET *685 0.326583
*CONN
*P gpio_oeb[31] O
*I *921:gpio_oeb[31] O *D CF_CARAVEL_SOC
*CAP
1 gpio_oeb[31] 0.00315859
2 *921:gpio_oeb[31] 0.0027812
3 *685:21 0.130976
4 *685:19 0.127818
5 *685:17 0.0254266
6 *685:15 0.0255634
7 *685:9 0.00291801
8 gpio_ib_mode_sel[31] gpio_oeb[31] 0
9 *202:27 *685:15 0.000825017
10 *316:15 *685:15 0.000237036
11 *538:195 *685:17 0.00687888
12 *671:11 *685:21 0
*RES
1 *921:gpio_oeb[31] *685:9 47.2679 
2 *685:9 *685:15 8.09213 
3 *685:15 *685:17 547.768 
4 *685:17 *685:19 3.41 
5 *685:19 *685:21 404.882 
6 *685:21 gpio_oeb[31] 6.23142 
*END

*D_NET *686 0.432414
*CONN
*P gpio_oeb[32] O
*I *921:gpio_oeb[32] O *D CF_CARAVEL_SOC
*CAP
1 gpio_oeb[32] 6.41512e-05
2 *921:gpio_oeb[32] 0.00179546
3 *686:11 0.0564464
4 *686:9 0.0581777
5 *686:11 *801:15 0.0343437
6 *686:11 *802:15 0
7 *686:11 *803:15 0.00065471
8 gpio_ib_mode_sel[32] *686:11 0.00114486
9 *230:25 *686:11 0.0213969
10 *244:15 *686:11 0
11 *277:23 *686:11 0.16833
12 *286:35 *686:11 0.0165394
13 *403:15 *686:11 0.0735212
*RES
1 *921:gpio_oeb[32] *686:9 32.5529 
2 *686:9 *686:11 416.461 
3 *686:11 gpio_oeb[32] 0.198183 
*END

*D_NET *687 0.625639
*CONN
*P gpio_oeb[33] O
*I *921:gpio_oeb[33] O *D CF_CARAVEL_SOC
*CAP
1 gpio_oeb[33] 0.00615962
2 *921:gpio_oeb[33] 0.000346128
3 *687:19 0.0108283
4 *687:17 0.00620652
5 *687:11 0.0462329
6 *687:9 0.0450412
7 gpio_oeb[33] gpio_vtrip_sel[33] 0.00398313
8 gpio_oeb[33] *736:37 0.000651809
9 *687:11 *688:11 0.253808
10 *687:11 *693:19 0.0215435
11 *687:17 *688:11 0.000694471
12 *687:19 *732:10 0.0133468
13 *687:19 *766:11 0.00265781
14 *687:19 *787:11 0.000234583
15 gpio_ib_mode_sel[33] gpio_oeb[33] 0.00070135
16 *115:33 *687:17 0.00217677
17 *116:63 *687:17 0.000292746
18 *117:39 *687:17 2.8185e-05
19 *160:15 *687:11 0.0225176
20 *160:23 *687:11 0.0792255
21 *160:23 *687:17 0.00107564
22 *284:57 gpio_oeb[33] 0
23 *291:25 *687:17 0.000506244
24 *357:19 *687:19 0
25 *393:21 *687:17 0.000367715
26 *543:31 *687:19 0.00363647
27 *661:15 *687:11 5.06781e-05
28 *672:11 *687:11 0.00175784
29 *683:11 *687:11 0.101567
*RES
1 *921:gpio_oeb[33] *687:9 9.07071 
2 *687:9 *687:11 401.206 
3 *687:11 *687:17 9.55603 
4 *687:17 *687:19 170.125 
5 *687:19 gpio_oeb[33] 18.2275 
*END

*D_NET *688 0.829463
*CONN
*P gpio_oeb[34] O
*I *921:gpio_oeb[34] O *D CF_CARAVEL_SOC
*CAP
1 gpio_oeb[34] 0.00494482
2 *921:gpio_oeb[34] 0.000335173
3 *688:15 0.00983834
4 *688:13 0.00489351
5 *688:11 0.0445042
6 *688:9 0.0448394
7 *688:11 *693:19 0.0283312
8 *688:11 *705:21 1.20192e-05
9 *688:11 *716:11 0.0492565
10 *688:11 *736:21 0.00311367
11 *688:11 *737:9 0.000827009
12 *688:11 *744:11 0.239289
13 *688:15 *733:10 0.0287893
14 *688:15 *753:11 0.0292662
15 gpio_ib_mode_sel[34] gpio_oeb[34] 0.00251484
16 *115:15 *688:11 0.00340404
17 *115:33 *688:11 0.00217367
18 *160:15 *688:11 0.000501807
19 *163:23 *688:11 0.00351676
20 *163:33 *688:11 0.00360643
21 *291:15 *688:11 0.00379041
22 *291:25 *688:11 0.000569173
23 *365:11 *688:15 0
24 *392:9 gpio_oeb[34] 0.00137281
25 *393:23 *688:11 0.053116
26 *420:11 *688:15 0.00600775
27 *424:18 gpio_oeb[34] 1.7754e-05
28 *437:31 *688:11 0.00451247
29 *683:11 *688:11 0.00161698
30 *687:11 *688:11 0.253808
31 *687:17 *688:11 0.000694471
*RES
1 *921:gpio_oeb[34] *688:9 9.285 
2 *688:9 *688:11 415.439 
3 *688:11 *688:13 3.41 
4 *688:13 *688:15 359.554 
5 *688:15 gpio_oeb[34] 15.0903 
*END

*D_NET *689 0.653201
*CONN
*P gpio_oeb[35] O
*I *921:gpio_oeb[35] O *D CF_CARAVEL_SOC
*CAP
1 gpio_oeb[35] 0.0045201
2 *921:gpio_oeb[35] 0.000890801
3 *689:15 0.0137667
4 *689:13 0.00924662
5 *689:11 0.0470436
6 *689:9 0.0479344
7 gpio_oeb[35] gpio_vtrip_sel[35] 0.000285507
8 gpio_oeb[35] *821:21 0.000386884
9 *689:11 *691:11 0.00147747
10 *689:11 *705:21 0.0223249
11 *689:11 *705:33 4.73891e-05
12 *689:11 *745:11 0.13753
13 *689:11 *764:21 0.0125318
14 *689:11 *782:15 0.0040781
15 *689:15 *734:15 0.0435629
16 *689:15 *762:11 0.000421252
17 *689:15 *833:11 0.0433694
18 gpio_ib_mode_sel[35] gpio_oeb[35] 0.00195235
19 *98:15 *689:11 0.0203278
20 *99:15 *689:11 0.020323
21 *101:15 *689:11 0.0331626
22 *114:23 *689:11 0.137387
23 *141:29 *689:11 0.0127329
24 *142:15 *689:11 0.00694556
25 *193:61 *689:11 0.000379721
26 *286:35 *689:11 0.00161929
27 *407:19 *689:11 0.0282172
28 *440:19 *689:15 0.000736203
*RES
1 *921:gpio_oeb[35] *689:9 17.785 
2 *689:9 *689:11 421.709 
3 *689:11 *689:13 3.41 
4 *689:13 *689:15 560.518 
5 *689:15 gpio_oeb[35] 14.0782 
*END

*D_NET *690 0.773451
*CONN
*P gpio_oeb[36] O
*I *921:gpio_oeb[36] O *D CF_CARAVEL_SOC
*CAP
1 gpio_oeb[36] 0.00194553
2 *921:gpio_oeb[36] 0.000227041
3 *690:30 0
4 *690:23 0.0151534
5 *690:21 0.0172378
6 *690:11 0.033759
7 *690:9 0.0299561
8 *690:11 *699:6 0.0216787
9 *690:11 *733:6 0.0239781
10 *690:11 *739:6 0.00365843
11 *690:11 *740:11 0.000427239
12 *690:11 *741:6 0.00439011
13 *690:21 *733:6 0.000148863
14 *690:21 *735:21 0.00347413
15 *690:21 *736:21 0.00100446
16 *690:23 *772:11 0.0376822
17 *690:23 *820:11 0.0287995
18 gpio_ib_mode_sel[36] gpio_oeb[36] 0.00304918
19 *162:15 *690:11 0.252496
20 *162:25 *690:21 0.00528137
21 *163:33 *690:21 6.50001e-05
22 *204:33 *690:11 0.251864
23 *204:43 *690:21 0.000430564
24 *392:19 *690:23 0.0183243
25 *449:13 *690:21 0
26 *450:13 *690:21 0.00018609
27 *456:15 *690:11 1.53439e-05
28 *464:11 *690:23 0.0116285
29 *541:111 *690:23 0.00658935
*RES
1 *921:gpio_oeb[36] *690:9 6.27679 
2 *690:9 *690:11 2386.38 
3 *690:11 *690:21 27.0291 
4 *690:21 *690:23 743.268 
5 *690:23 gpio_oeb[36] 8.58627 
6 gpio_oeb[36] *690:30 0.0762162 
*END

*D_NET *691 0.845136
*CONN
*P gpio_oeb[37] O
*I *921:gpio_oeb[37] O *D CF_CARAVEL_SOC
*CAP
1 gpio_oeb[37] 0.00177144
2 *921:gpio_oeb[37] 0.000786878
3 *691:15 0.0199126
4 *691:13 0.0181412
5 *691:11 0.0363197
6 *691:9 0.0371066
7 *691:11 *705:21 0.0425808
8 *691:11 *745:11 0.251709
9 *691:11 *782:15 0
10 *691:11 *832:37 0.00319946
11 *691:11 *832:39 6.95307e-05
12 *691:15 *789:19 0.0386199
13 *691:15 *812:11 0.0613516
14 gpio_ib_mode_sel[32] *691:11 4.8817e-05
15 gpio_ib_mode_sel[37] gpio_oeb[37] 0.00116456
16 *117:39 *691:11 9.53406e-06
17 *141:29 *691:11 0.0148962
18 *193:61 *691:11 0.000934108
19 *203:15 *691:11 0.277897
20 *205:53 *691:11 0.000441432
21 *205:57 *691:15 0.000734934
22 *286:35 *691:11 0.00209208
23 *289:35 *691:15 0.00762788
24 *404:11 *691:15 0.0122789
25 *407:19 *691:11 0.0139462
26 *427:18 gpio_oeb[37] 1.7754e-05
27 *689:11 *691:11 0.00147747
*RES
1 *921:gpio_oeb[37] *691:9 15.9636 
2 *691:9 *691:11 438.284 
3 *691:11 *691:13 3.41 
4 *691:13 *691:15 944.839 
5 *691:15 gpio_oeb[37] 7.80528 
*END

*D_NET *692 0.790166
*CONN
*P gpio_oeb[38] O
*I *921:gpio_oeb[38] O *D CF_CARAVEL_SOC
*CAP
1 gpio_oeb[38] 0.000251763
2 *921:gpio_oeb[38] 0.000376405
3 *692:35 0.0435284
4 *692:33 0.043368
5 *692:27 0.0118334
6 *692:25 0.0117421
7 *692:23 0.0317366
8 *692:21 0.0319662
9 *692:15 0.0105069
10 *692:13 0.0188877
11 *692:9 0.00898674
12 *692:9 *740:21 0.00024661
13 *692:13 *698:13 0.00955758
14 *692:13 *833:23 0.00381518
15 *692:27 *697:115 0.00649367
16 *692:27 *698:27 0.0061052
17 *692:27 *848:11 0.055753
18 *692:27 *857:11 0.000886532
19 *692:27 *860:11 0.00056478
20 *692:27 *863:11 0.000155086
21 *692:27 *867:11 0.0262284
22 *692:33 gpio_oeb[43] 0
23 *692:35 gpio_out[42] 0.000819512
24 *692:35 *693:193 0.023148
25 *692:35 *695:75 0.042713
26 *692:35 *697:115 0.0269887
27 *692:35 *740:171 0.00546716
28 *692:35 *742:120 0.00157649
29 *692:35 *848:11 0.0116471
30 *692:35 *857:11 0.0312029
31 *692:35 *863:11 0.0337567
32 gpio_analog_en[38] *692:35 0.000202805
33 gpio_ib_mode_sel[38] gpio_oeb[38] 0
34 gpio_ib_mode_sel[43] *692:33 0
35 *120:15 *692:35 0.0267982
36 *159:15 *692:13 0.00662972
37 *161:15 *692:13 0.0126045
38 *165:11 *692:15 0.00817892
39 *165:11 *692:23 0
40 *169:11 *692:23 0
41 *183:17 *692:13 0
42 *195:11 *692:15 0.0328494
43 *202:25 *692:13 3.25379e-05
44 *204:31 *692:13 0.000152412
45 *207:31 *692:35 0.00944072
46 *222:19 *692:23 0
47 *241:11 *692:23 0
48 *251:15 *692:27 0
49 *251:15 *692:35 0.000150297
50 *252:15 *692:35 0.0122439
51 *267:23 *692:23 0.00693555
52 *274:125 *692:13 0.000145807
53 *277:11 *692:15 0.0482091
54 *284:23 *692:35 0.0309767
55 *297:22 *692:35 0.0315825
56 *313:11 *692:23 0.0121375
57 *385:15 *692:35 0.00176061
58 *387:23 *692:35 0.0167676
59 *445:11 *692:23 0.0011536
60 *531:28 *692:23 0.0199031
61 *538:43 *692:35 0.00238803
62 *549:13 *692:27 0.00861296
*RES
1 *921:gpio_oeb[38] *692:9 8.67786 
2 *692:9 *692:13 45.3998 
3 *692:13 *692:15 602.562 
4 *692:15 *692:21 12.4107 
5 *692:21 *692:23 949.696 
6 *692:23 *692:25 4.5 
7 *692:25 *692:27 614.143 
8 *692:27 *692:33 9.0975 
9 *692:33 *692:35 256.604 
10 *692:35 gpio_oeb[38] 7.45464 
*END

*D_NET *693 1.06718
*CONN
*P gpio_oeb[39] O
*I *921:gpio_oeb[39] O *D CF_CARAVEL_SOC
*CAP
1 gpio_oeb[39] 0.000310298
2 *921:gpio_oeb[39] 0.000121027
3 *693:193 0.00960319
4 *693:191 0.012337
5 *693:187 0.00736048
6 *693:173 0.00630908
7 *693:163 0.00537993
8 *693:139 0.0117196
9 *693:131 0.00933039
10 *693:121 0.00582337
11 *693:113 0.00564784
12 *693:109 0.00259824
13 *693:95 0.00772185
14 *693:93 0.00594605
15 *693:91 0.0319428
16 *693:89 0.0324357
17 *693:83 0.00499163
18 *693:81 0.00454529
19 *693:79 0.0033966
20 *693:77 0.00415833
21 *693:71 0.00345694
22 *693:69 0.0032658
23 *693:63 0.00227257
24 *693:61 0.00286228
25 *693:57 0.00256382
26 *693:53 0.0015257
27 *693:47 0.00341424
28 *693:45 0.00380188
29 *693:39 0.00245703
30 *693:37 0.00380063
31 *693:31 0.00338622
32 *693:29 0.00148616
33 *693:27 0.00658585
34 *693:25 0.00731825
35 *693:19 0.0434723
36 *693:17 0.0431269
37 *693:11 0.0020786
38 *693:9 0.0018126
39 *693:11 *699:6 0.000231446
40 *693:11 *741:6 0.00183608
41 *693:11 *742:6 0.000144017
42 *693:19 *716:11 0.00464127
43 *693:27 *731:14 0.000626506
44 *693:27 *808:25 0
45 *693:27 *833:23 0.00282722
46 *693:31 *818:11 0.00194501
47 *693:39 gpio_vtrip_sel[33] 0.000249927
48 *693:79 *763:11 0.000220133
49 *693:91 *823:13 0.00322297
50 *693:91 *873:49 0
51 *693:95 *781:17 0.000218685
52 *693:95 *829:29 9.58632e-05
53 *693:95 *855:21 0.000218409
54 *693:95 *873:37 0.00185963
55 *693:109 *737:99 0.000247732
56 *693:109 *737:117 0.00799794
57 *693:109 *739:60 0
58 *693:121 *826:27 0.00146878
59 *693:121 *873:21 0
60 *693:131 *840:19 0.000436957
61 *693:139 *737:151 0
62 *693:163 *739:92 0.000105542
63 *693:163 *815:47 0.000119886
64 *693:163 *852:11 0.000254433
65 *693:173 *739:108 0.000396806
66 *693:187 gpio_out[39] 0.00038708
67 *693:187 *737:181 0.00611723
68 *693:187 *739:116 0.00116585
69 *693:191 *826:27 0
70 *693:191 *839:189 0
71 *693:193 *848:11 0.00963203
72 *693:193 *867:11 0.0102943
73 gpio_ib_mode_sel[39] gpio_oeb[39] 0
74 *921:gpio_in[16] *693:139 0
75 *921:gpio_in[17] *693:173 0
76 *921:gpio_in[6] *693:121 0
77 *97:15 *693:11 0.00381935
78 *116:55 *693:19 0.00111797
79 *118:179 *693:173 0.000361075
80 *118:185 *693:131 0.000196058
81 *118:187 *693:113 0.000804847
82 *118:187 *693:131 2.14757e-05
83 *118:205 *693:109 0.000452383
84 *160:15 *693:19 0.108499
85 *204:33 *693:11 0.0102664
86 *207:31 *693:193 0.0089341
87 *238:27 *693:63 0.00388654
88 *252:15 *693:193 0.00101529
89 *293:15 *693:131 0.00276408
90 *293:15 *693:173 0.000493485
91 *297:22 *693:193 0.00506976
92 *322:215 *693:173 0.000406625
93 *322:221 *693:163 0.000139694
94 *322:265 *693:109 0.00738475
95 *322:273 *693:95 0.000131992
96 *322:307 *693:37 0.00119241
97 *322:313 *693:27 0.000357752
98 *325:97 *693:187 0
99 *325:115 *693:163 0
100 *325:129 *693:139 0
101 *325:137 *693:131 9.22222e-06
102 *325:145 *693:113 0.000902401
103 *325:149 *693:113 7.20217e-06
104 *338:77 *693:109 0
105 *339:23 *693:163 0.000777321
106 *364:39 *693:163 0.000289405
107 *369:11 *693:31 0.00953994
108 *381:11 *693:39 0.000142401
109 *383:11 *693:79 0.00192772
110 *385:15 *693:193 0.0465396
111 *386:77 *693:163 0.000553835
112 *386:89 *693:187 0
113 *393:23 *693:19 0.233985
114 *397:25 *693:113 0.000103851
115 *397:39 *693:113 0.000135623
116 *397:39 *693:121 0
117 *397:71 *693:187 0.00362922
118 *398:19 *693:91 0.0148113
119 *404:11 *693:63 0
120 *409:11 *693:71 0.0134311
121 *412:11 *693:91 0.00526863
122 *419:23 *693:113 0.00314553
123 *422:11 *693:91 0.00101804
124 *444:71 *693:173 0.000201981
125 *446:19 *693:79 0
126 *446:19 *693:83 0
127 *447:17 *693:39 0
128 *455:21 *693:31 0.000251289
129 *455:21 *693:79 0.00896623
130 *455:21 *693:83 0.00175505
131 *457:11 *693:91 0
132 *466:11 *693:47 0.00236455
133 *466:11 *693:57 0
134 *470:11 *693:83 0.00321361
135 *472:11 *693:163 0.00146608
136 *472:15 *693:71 0.0134328
137 *472:55 *693:187 0
138 *539:93 *693:187 0.00975746
139 *539:97 *693:173 0
140 *539:141 *693:113 0.000172538
141 *539:153 *693:109 0.000544516
142 *539:155 *693:95 0.0136135
143 *539:183 *693:31 0.00907568
144 *539:187 *693:27 0.00743023
145 *541:73 *693:139 0
146 *541:81 *693:131 0.0034205
147 *541:89 *693:121 0.0146544
148 *541:107 *693:95 0.000604298
149 *541:131 *693:19 0.0270389
150 *544:33 *693:25 0
151 *546:25 *693:91 0
152 *547:25 *693:57 0.00329384
153 *548:23 *693:39 0.00195426
154 *549:13 *693:193 0.00954661
155 *556:37 *693:113 2.39329e-05
156 *683:11 *693:19 0.000518255
157 *687:11 *693:19 0.0215435
158 *688:11 *693:19 0.0283312
159 *692:35 *693:193 0.023148
*RES
1 *921:gpio_oeb[39] *693:9 6.27679 
2 *693:9 *693:11 97.0536 
3 *693:11 *693:17 15.1964 
4 *693:17 *693:19 2291.91 
5 *693:19 *693:25 20.6607 
6 *693:25 *693:27 143.875 
7 *693:27 *693:29 4.5 
8 *693:29 *693:31 116.696 
9 *693:31 *693:37 41.9821 
10 *693:37 *693:39 51.125 
11 *693:39 *693:45 17.75 
12 *693:45 *693:47 84.8214 
13 *693:47 *693:53 12 
14 *693:53 *693:57 45.6071 
15 *693:57 *693:61 23.1071 
16 *693:61 *693:63 48.6964 
17 *693:63 *693:69 18.1607 
18 *693:69 *693:71 167.696 
19 *693:71 *693:77 21.4464 
20 *693:77 *693:79 109.652 
21 *693:79 *693:81 0.946429 
22 *693:81 *693:83 126.473 
23 *693:83 *693:89 16.5179 
24 *693:89 *693:91 756.625 
25 *693:91 *693:93 4.5 
26 *693:93 *693:95 155.375 
27 *693:95 *693:109 45.1783 
28 *693:109 *693:113 40.7679 
29 *693:113 *693:121 42.3786 
30 *693:121 *693:131 46.7232 
31 *693:131 *693:139 49.2779 
32 *693:139 *693:163 34.4233 
33 *693:163 *693:173 49.5714 
34 *693:173 *693:187 45.8942 
35 *693:187 *693:191 47.8564 
36 *693:191 *693:193 76.5097 
37 *693:193 gpio_oeb[39] 7.99036 
*END

*D_NET *694 0.488602
*CONN
*P gpio_oeb[3] O
*I *921:gpio_oeb[3] O *D CF_CARAVEL_SOC
*CAP
1 gpio_oeb[3] 0.00628763
2 *921:gpio_oeb[3] 0
3 *694:10 0.0161345
4 *694:8 0.00984691
5 *694:6 0.025653
6 *694:4 0.025653
7 *694:6 *699:6 0.132951
8 *694:6 *727:11 0.0271351
9 *694:6 *738:11 0.00334703
10 *694:6 *740:11 0.115293
11 *694:6 *741:6 0.00176203
12 *694:6 *743:11 0.00338385
13 *694:10 *727:15 4.22135e-06
14 *694:10 *738:15 0.0507742
15 gpio_ib_mode_sel[3] gpio_oeb[3] 0
16 *90:11 *694:10 0.00458628
17 *157:37 *694:6 0.000597312
18 *161:15 *694:6 0.00312164
19 *162:15 *694:6 0.0241149
20 *183:17 *694:6 0.000407573
21 *241:11 gpio_oeb[3] 0.000129322
22 *247:11 *694:10 0.0281473
23 *267:23 gpio_oeb[3] 0.000129293
24 *274:65 *694:10 0.000424919
25 *315:25 *694:6 0.00332062
26 *333:17 *694:6 0.000123019
27 *391:33 *694:10 0.00205206
28 *436:23 *694:6 0.00322185
*RES
1 *921:gpio_oeb[3] *694:4 3.41 
2 *694:4 *694:6 218.085 
3 *694:6 *694:8 3.41 
4 *694:8 *694:10 623.661 
5 *694:10 gpio_oeb[3] 16.4611 
*END

*D_NET *695 0.499251
*CONN
*P gpio_oeb[40] O
*I *921:gpio_oeb[40] O *D CF_CARAVEL_SOC
*CAP
1 gpio_oeb[40] 0.000118843
2 *921:gpio_oeb[40] 0.00326512
3 *695:75 0.0198195
4 *695:73 0.0202695
5 *695:67 0.00196919
6 *695:65 0.00140037
7 *695:63 0.00673828
8 *695:61 0.0127586
9 *695:55 0.0380021
10 *695:53 0.0349553
11 *695:35 0.0164419
12 *695:33 0.0141185
13 *695:27 0.00695777
14 *695:25 0.0071585
15 *695:17 0.00411602
16 *695:17 *740:21 0.00403498
17 *695:17 *789:23 0
18 *695:25 *696:21 0
19 *695:25 *742:32 0.000983742
20 *695:27 *740:23 0.00884367
21 *695:33 *740:29 0.000297536
22 *695:35 *696:31 0.00148927
23 *695:35 *740:57 0.00751985
24 *695:35 *741:72 0
25 *695:53 *696:31 0.000842142
26 *695:53 *696:35 0.000162222
27 *695:53 *741:72 0
28 *695:53 *741:74 0.000951747
29 *695:53 *742:90 0.000734906
30 *695:55 *696:43 0
31 *695:55 *741:98 0.00384253
32 *695:55 *741:112 0
33 *695:55 *742:96 4.71804e-05
34 *695:61 *696:57 0
35 *695:61 *742:118 0
36 *695:63 *696:65 0
37 *695:63 *697:103 0.0064759
38 *695:67 *844:13 0.0117835
39 *695:75 *742:120 0.0320422
40 *120:15 *695:75 0.112074
41 *251:15 *695:75 0.0215589
42 *300:19 *695:67 0.0117818
43 *533:130 *695:53 0.00028281
44 *533:130 *695:55 0.000159218
45 *533:156 *695:35 0
46 *533:156 *695:53 0.000955325
47 *533:180 *695:35 0
48 *536:81 *695:55 0.00343671
49 *536:117 *695:35 0.00394906
50 *536:117 *695:53 0.00180761
51 *537:80 *695:63 0.000395195
52 *537:86 *695:53 0.00108799
53 *537:86 *695:55 0
54 *537:108 *695:35 0
55 *537:116 *695:27 0.00110512
56 *538:79 *695:55 0.00383479
57 *538:95 *695:55 0.0230771
58 *538:121 *695:55 0.000128353
59 *538:145 *695:25 5.97609e-05
60 *563:14 *695:67 0.00270311
61 *692:35 *695:75 0.042713
*RES
1 *921:gpio_oeb[40] *695:17 49.1189 
2 *695:17 *695:25 6.7564 
3 *695:25 *695:27 191.375 
4 *695:27 *695:33 8.84883 
5 *695:33 *695:35 62.5946 
6 *695:35 *695:53 29.3098 
7 *695:53 *695:55 130.337 
8 *695:55 *695:61 25.208 
9 *695:61 *695:63 153.277 
10 *695:63 *695:65 4.5 
11 *695:65 *695:67 111.429 
12 *695:67 *695:73 16.3832 
13 *695:73 *695:75 176.754 
14 *695:75 gpio_oeb[40] 5.38321 
*END

*D_NET *696 0.392552
*CONN
*P gpio_oeb[41] O
*I *921:gpio_oeb[41] O *D CF_CARAVEL_SOC
*CAP
1 gpio_oeb[41] 0.00225836
2 *921:gpio_oeb[41] 0.00289192
3 *696:163 0.00521555
4 *696:147 0.00465482
5 *696:145 0.00301037
6 *696:133 0.002463
7 *696:119 0.00333812
8 *696:117 0.00407111
9 *696:103 0.00281113
10 *696:101 0.00110412
11 *696:95 0.00546075
12 *696:93 0.00543591
13 *696:89 0.00222268
14 *696:71 0.00343609
15 *696:69 0.00136479
16 *696:67 0.00403504
17 *696:65 0.00548
18 *696:57 0.00742023
19 *696:43 0.0267629
20 *696:41 0.0221386
21 *696:35 0.0117166
22 *696:33 0.0104186
23 *696:31 0.0153837
24 *696:29 0.0158445
25 *696:23 0.00558354
26 *696:21 0.00600585
27 *696:15 0.00382797
28 *696:15 *742:32 7.05814e-05
29 *696:21 *742:32 0
30 *696:23 *697:11 0.0135968
31 *696:31 *740:57 0.00750098
32 *696:31 *741:72 0.000739754
33 *696:35 *741:72 0.000299962
34 *696:43 *697:85 0.0022627
35 *696:43 *697:87 0
36 *696:43 *741:112 0.00159947
37 *696:67 *741:122 0.0003876
38 *696:89 *826:119 0.000590844
39 *696:95 *740:95 0.00261183
40 *696:103 *740:145 7.49387e-06
41 *696:103 *740:151 0.00355539
42 *696:119 *826:63 5.52302e-05
43 *696:133 *740:167 0
44 *696:133 *826:77 2.04825e-05
45 *696:163 *826:47 0.000635606
46 *118:39 *696:95 0.00293804
47 *118:57 *696:95 0.00208005
48 *118:65 *696:95 0.000369617
49 *118:75 *696:95 0.00731741
50 *118:87 *696:101 0.000103841
51 *118:97 *696:117 0.00109485
52 *118:129 *696:163 0.00026109
53 *125:15 *696:95 0.0001515
54 *322:57 *696:89 0.00199118
55 *322:141 *696:133 4.25619e-05
56 *325:51 *696:101 0
57 *338:29 *696:117 0.000910448
58 *386:139 *696:147 0.0111603
59 *386:153 *696:145 0.000165451
60 *386:155 *696:119 0
61 *386:155 *696:133 0
62 *386:159 *696:119 0.00148556
63 *397:109 *696:117 4.37237e-05
64 *397:109 *696:133 0.000156518
65 *408:95 *696:89 0.000315165
66 *419:93 *696:145 3.39834e-06
67 *419:93 *696:147 0.00197904
68 *419:117 *696:133 1.41231e-05
69 *444:23 *696:95 1.00073e-05
70 *444:37 *696:95 0.000683647
71 *444:53 *696:95 0.00104049
72 *530:25 *696:145 0.000771485
73 *530:27 *696:119 6.05161e-06
74 *530:41 *696:117 7.74644e-05
75 *530:41 *696:133 1.62539e-05
76 *530:43 *696:103 2.8078e-05
77 *530:77 *696:89 0
78 *532:16 *696:95 0.00397646
79 *533:30 *696:145 0.002123
80 *533:40 *696:119 2.44318e-05
81 *533:40 *696:133 3.41272e-05
82 *533:48 *696:117 0.00238154
83 *533:52 *696:103 0.000485681
84 *533:110 *696:71 0.0120066
85 *533:122 *696:57 0.000200642
86 *533:180 *696:23 0.000605736
87 *535:27 *696:133 0.000112777
88 *535:35 *696:103 0.000995839
89 *535:113 *696:71 0.000136031
90 *536:65 *696:65 0
91 *536:75 *696:57 0.00083909
92 *536:79 *696:57 0.00127058
93 *536:89 *696:35 0.0258797
94 *536:117 *696:31 0.00374877
95 *537:52 *696:89 0.00584687
96 *537:56 *696:89 0.000236072
97 *537:58 *696:71 0.011662
98 *537:76 *696:67 0.00106952
99 *537:80 *696:65 5.51718e-05
100 *537:84 *696:65 6.43761e-05
101 *537:100 *696:31 0.00154244
102 *537:118 *696:15 0
103 *539:11 *696:133 9.92409e-05
104 *539:17 *696:133 0
105 *539:25 *696:145 0
106 *539:33 *696:145 0.00556059
107 *539:35 *696:147 0.00365633
108 *539:53 *696:163 0.000160372
109 *540:18 *696:117 0.000283244
110 *540:18 *696:145 0.000591456
111 *540:18 *696:163 0.000661159
112 *540:32 *696:95 0.00206575
113 *551:33 *696:163 0
114 *551:35 *696:147 0.00184669
115 *551:73 *696:119 9.99644e-06
116 *551:79 *696:103 0.00284814
117 *551:121 *696:71 0.00249739
118 *551:121 *696:89 0.000647349
119 *562:33 *696:163 0
120 *562:51 *696:119 1.21258e-05
121 *562:65 *696:119 0.00112799
122 *562:65 *696:133 3.4323e-06
123 *562:81 *696:103 0.000310041
124 *562:117 *696:93 0
125 *562:119 *696:89 0.000145785
126 *569:18 *696:95 0.0361868
127 *569:18 *696:133 0.00136654
128 *570:12 *696:163 0.000167418
129 *572:14 *696:163 0.00100521
130 *695:25 *696:21 0
131 *695:35 *696:31 0.00148927
132 *695:53 *696:31 0.000842142
133 *695:53 *696:35 0.000162222
134 *695:55 *696:43 0
135 *695:61 *696:57 0
136 *695:63 *696:65 0
*RES
1 *921:gpio_oeb[41] *696:15 49.175 
2 *696:15 *696:21 9.53347 
3 *696:21 *696:23 165.875 
4 *696:23 *696:29 8.4885 
5 *696:29 *696:31 73.5707 
6 *696:31 *696:33 0.191133 
7 *696:33 *696:35 56.8136 
8 *696:35 *696:41 10.9027 
9 *696:41 *696:43 76.751 
10 *696:43 *696:57 49.508 
11 *696:57 *696:65 28.469 
12 *696:65 *696:67 83.7589 
13 *696:67 *696:69 4.5 
14 *696:69 *696:71 112.661 
15 *696:71 *696:89 48.4984 
16 *696:89 *696:93 6.75 
17 *696:93 *696:95 339.786 
18 *696:95 *696:101 12.7679 
19 *696:101 *696:103 49.8214 
20 *696:103 *696:117 33.2127 
21 *696:117 *696:119 50.2321 
22 *696:119 *696:133 44.8036 
23 *696:133 *696:145 29.3721 
24 *696:145 *696:147 104.857 
25 *696:147 *696:163 42.1304 
26 *696:163 gpio_oeb[41] 32.6339 
*END

*D_NET *697 0.389277
*CONN
*P gpio_oeb[42] O
*I *921:gpio_oeb[42] O *D CF_CARAVEL_SOC
*CAP
1 gpio_oeb[42] 0.000320432
2 *921:gpio_oeb[42] 0.00115932
3 *697:115 0.0101197
4 *697:113 0.0122533
5 *697:109 0.00457772
6 *697:103 0.00336631
7 *697:101 0.0058873
8 *697:95 0.00954343
9 *697:93 0.00560683
10 *697:87 0.0172552
11 *697:85 0.0205895
12 *697:77 0.0128678
13 *697:73 0.0133277
14 *697:47 0.0063758
15 *697:45 0.00242657
16 *697:39 0.00609823
17 *697:37 0.00862983
18 *697:11 0.013853
19 *697:9 0.0119277
20 *697:11 *740:31 0
21 *697:37 *740:49 0.0011025
22 *697:37 *742:48 0.00014301
23 *697:37 *742:58 3.35973e-05
24 *697:39 *741:26 0
25 *697:45 *741:32 0
26 *697:47 *741:34 0.00408737
27 *697:47 *742:58 0.00182955
28 *697:73 *741:56 0.00104254
29 *697:73 *741:74 0.000140288
30 *697:73 *742:58 0.00551038
31 *697:73 *742:90 0.0012573
32 *697:77 *741:74 0.00912788
33 *697:77 *742:90 0.000108583
34 *697:85 *741:88 0.00214681
35 *697:85 *742:96 9.99401e-05
36 *697:95 *742:108 0.00201132
37 *697:109 *740:79 0.0133371
38 *697:113 *740:85 0.000643223
39 *697:115 gpio_out[42] 0.0143107
40 *697:115 *698:27 0.029589
41 *697:115 *741:126 0.026026
42 *697:115 *742:120 0.00198661
43 *697:115 *848:11 0.0104386
44 *697:115 *857:11 0.000782475
45 *697:115 *863:11 0.000725643
46 *697:115 *867:11 0.00124747
47 gpio_analog_sel[43] *697:109 0.00213782
48 gpio_dm0[43] *697:115 0.00235656
49 *118:27 *697:109 0.00178373
50 *125:15 *697:109 0.00218027
51 *207:31 *697:115 0.00476426
52 *252:15 *697:115 0.00279641
53 *322:39 *697:109 0.000305826
54 *529:9 *697:109 1.95404e-05
55 *533:114 *697:103 0.00543762
56 *533:120 *697:101 0
57 *533:122 *697:87 0
58 *533:156 *697:73 0.00247594
59 *533:172 *697:37 0
60 *533:180 *697:11 0.00143665
61 *536:63 *697:109 0.00254829
62 *536:117 *697:73 0.00196858
63 *536:121 *697:47 0
64 *536:143 *697:37 3.98562e-05
65 *537:80 *697:103 0.00027853
66 *537:86 *697:73 0.00056889
67 *537:86 *697:77 0
68 *537:108 *697:73 0.00263062
69 *537:116 *697:37 0.000247229
70 *538:121 *697:73 0.00192738
71 *538:123 *697:73 0.000917248
72 *538:137 *697:73 3.02799e-05
73 *549:13 *697:115 0.00154611
74 *559:17 *697:113 0.00114777
75 *692:27 *697:115 0.00649367
76 *692:35 *697:115 0.0269887
77 *695:63 *697:103 0.0064759
78 *696:23 *697:11 0.0135968
79 *696:43 *697:85 0.0022627
80 *696:43 *697:87 0
*RES
1 *921:gpio_oeb[42] *697:9 21.2143 
2 *697:9 *697:11 282 
3 *697:11 *697:37 43.4793 
4 *697:37 *697:39 113.661 
5 *697:39 *697:45 8.52453 
6 *697:45 *697:47 56.5893 
7 *697:47 *697:73 44.2793 
8 *697:73 *697:77 49.3541 
9 *697:77 *697:85 22.0815 
10 *697:85 *697:87 56.7854 
11 *697:87 *697:93 8.99297 
12 *697:93 *697:95 99.0893 
13 *697:95 *697:101 20.8479 
14 *697:101 *697:103 79.6607 
15 *697:103 *697:109 27.4781 
16 *697:109 *697:113 46.6421 
17 *697:113 *697:115 89.6979 
18 *697:115 gpio_oeb[42] 8.31179 
*END

*D_NET *698 0.439118
*CONN
*P gpio_oeb[43] O
*I *921:gpio_oeb[43] O *D CF_CARAVEL_SOC
*CAP
1 gpio_oeb[43] 0.00038978
2 *921:gpio_oeb[43] 0.00611765
3 *698:27 0.0159761
4 *698:25 0.0155863
5 *698:23 0.0227989
6 *698:21 0.0271246
7 *698:15 0.0182122
8 *698:13 0.0200041
9 *698:13 *789:23 0.000525164
10 *698:21 gpio_vtrip_sel[3] 3.84854e-05
11 *698:27 *741:126 0.0066279
12 *698:27 *742:120 0.00227406
13 *698:27 *848:11 0.0061888
14 *698:27 *867:11 0.0128128
15 gpio_dm0[43] *698:27 0.000530551
16 *92:11 *698:23 0.000770885
17 *106:9 *698:21 0.000135306
18 *120:15 *698:27 0.00222456
19 *159:15 *698:13 0.00624297
20 *196:11 *698:15 0.0324271
21 *204:31 *698:13 0
22 *230:11 *698:15 0
23 *252:15 *698:27 0.0252212
24 *274:125 *698:13 0.000141343
25 *283:11 *698:15 0.0502626
26 *337:39 *698:13 0.000809091
27 *443:19 *698:23 0.0030449
28 *483:19 *698:23 0
29 *538:53 *698:27 0.0128285
30 *549:13 *698:27 0.00180941
31 *569:22 *698:23 0.0127157
32 *570:26 *698:23 0.00084755
33 *572:28 *698:23 0.00761809
34 *661:19 *698:23 0.0490705
35 *672:15 *698:23 0.0324886
36 *692:13 *698:13 0.00955758
37 *692:27 *698:27 0.0061052
38 *692:33 gpio_oeb[43] 0
39 *697:115 *698:27 0.029589
*RES
1 *921:gpio_oeb[43] *698:13 30.8307 
2 *698:13 *698:15 627.911 
3 *698:15 *698:21 16.0195 
4 *698:21 *698:23 923.589 
5 *698:23 *698:25 3.41 
6 *698:25 *698:27 101.012 
7 *698:27 gpio_oeb[43] 9.06179 
*END

*D_NET *699 0.436439
*CONN
*P gpio_oeb[4] O
*I *921:gpio_oeb[4] O *D CF_CARAVEL_SOC
*CAP
1 gpio_oeb[4] 0.00733761
2 *921:gpio_oeb[4] 0
3 *699:10 0.0164484
4 *699:8 0.00911079
5 *699:6 0.0224598
6 *699:4 0.0224598
7 gpio_oeb[4] gpio_vtrip_sel[4] 0
8 *699:6 *700:6 0.00229727
9 *699:6 *741:6 0.113051
10 *699:6 *742:6 0.000362904
11 *699:10 *700:10 0.0101762
12 *699:10 *744:15 0.0197918
13 gpio_ib_mode_sel[4] gpio_oeb[4] 0
14 *183:17 *699:6 0.00629139
15 *204:33 *699:6 0.0283865
16 *206:19 *699:10 0.00455459
17 *314:19 *699:10 0
18 *337:19 *699:10 0
19 *352:11 *699:10 0.00582235
20 *480:11 *699:10 0.0105929
21 *534:15 *699:10 0.00243439
22 *690:11 *699:6 0.0216787
23 *693:11 *699:6 0.000231446
24 *694:6 *699:6 0.132951
*RES
1 *921:gpio_oeb[4] *699:4 3.41 
2 *699:4 *699:6 210.446 
3 *699:6 *699:8 3.41 
4 *699:8 *699:10 426.946 
5 *699:10 gpio_oeb[4] 18.2847 
*END

*D_NET *700 0.356401
*CONN
*P gpio_oeb[5] O
*I *921:gpio_oeb[5] O *D CF_CARAVEL_SOC
*CAP
1 gpio_oeb[5] 0.00751461
2 *921:gpio_oeb[5] 0
3 *700:10 0.012059
4 *700:8 0.00454438
5 *700:6 0.0221073
6 *700:4 0.0221073
7 *700:6 *701:11 0.12551
8 *700:6 *742:6 0.110443
9 *700:10 *744:15 3.75428e-05
10 gpio_ib_mode_sel[5] gpio_oeb[5] 0.000343566
11 *97:15 *700:6 0.0151729
12 *139:17 *700:6 0.000391968
13 *183:17 *700:6 0.012311
14 *314:19 *700:10 0.00610255
15 *337:19 *700:10 0.00156102
16 *351:11 *700:10 0.00372088
17 *699:6 *700:6 0.00229727
18 *699:10 *700:10 0.0101762
*RES
1 *921:gpio_oeb[5] *700:4 3.41 
2 *700:4 *700:6 205.401 
3 *700:6 *700:8 3.41 
4 *700:8 *700:10 225.375 
5 *700:10 gpio_oeb[5] 18.5793 
*END

*D_NET *701 0.241999
*CONN
*P gpio_oeb[6] O
*I *921:gpio_oeb[6] O *D CF_CARAVEL_SOC
*CAP
1 gpio_oeb[6] 0.00695219
2 *921:gpio_oeb[6] 0.000116902
3 *701:17 0.00805438
4 *701:11 0.0345665
5 *701:9 0.0335812
6 *701:11 *744:11 0.0172361
7 gpio_ib_mode_sel[6] gpio_oeb[6] 0.00326072
8 *139:17 *701:11 0.0100326
9 *241:17 gpio_oeb[6] 0
10 *280:19 *701:17 0.000321403
11 *316:11 *701:17 0.00236757
12 *483:11 *701:17 0
13 *700:6 *701:11 0.12551
*RES
1 *921:gpio_oeb[6] *701:9 5.64214 
2 *701:9 *701:11 198.663 
3 *701:11 *701:17 36.695 
4 *701:17 gpio_oeb[6] 15.7755 
*END

*D_NET *702 0.21189
*CONN
*P gpio_oeb[7] O
*I *921:gpio_oeb[7] O *D CF_CARAVEL_SOC
*CAP
1 gpio_oeb[7] 0.000128076
2 *921:gpio_oeb[7] 8.72033e-05
3 *702:13 0.067214
4 *702:11 0.0670859
5 *702:9 0.037869
6 *702:7 0.0379562
7 *702:13 *834:15 0
8 gpio_ib_mode_sel[7] *702:13 0.000774475
9 *140:181 *702:13 0.000775243
*RES
1 *921:gpio_oeb[7] *702:7 1.60714 
2 *702:7 *702:9 759.661 
3 *702:9 *702:11 3.41 
4 *702:11 *702:13 209.195 
5 *702:13 gpio_oeb[7] 0.43005 
*END

*D_NET *703 0.309952
*CONN
*P gpio_oeb[8] O
*I *920:count_oeb[0] O *D counter_macro
*CAP
1 gpio_oeb[8] 4.40919e-05
2 *920:count_oeb[0] 1.3106e-05
3 *703:11 0.127162
4 *703:9 0.127118
5 *703:7 0.027801
6 *703:5 0.0278141
7 *703:11 *835:15 0
8 gpio_ib_mode_sel[8] *703:11 0
*RES
1 *920:count_oeb[0] *703:5 0.267857 
2 *703:5 *703:7 562.339 
3 *703:7 *703:9 3.41 
4 *703:9 *703:11 401.181 
5 *703:11 gpio_oeb[8] 0.14805 
*END

*D_NET *704 0.335885
*CONN
*P gpio_oeb[9] O
*I *920:count_oeb[1] O *D counter_macro
*CAP
1 gpio_oeb[9] 0.00154377
2 *920:count_oeb[1] 1.3106e-05
3 *704:11 0.123854
4 *704:9 0.12231
5 *704:7 0.0375274
6 *704:5 0.0375405
7 *704:11 *836:15 0
8 gpio_ib_mode_sel[9] gpio_oeb[9] 0.000578841
9 gpio_ib_mode_sel[9] *704:11 0.0125183
10 *268:11 gpio_oeb[9] 0
11 *311:11 gpio_oeb[9] 0
*RES
1 *920:count_oeb[1] *704:5 0.267857 
2 *704:5 *704:7 759.661 
3 *704:7 *704:9 3.41 
4 *704:9 *704:11 396.053 
5 *704:11 gpio_oeb[9] 12.9511 
*END

*D_NET *705 1.01311
*CONN
*P gpio_out[0] O
*I *921:gpio_out[0] O *D CF_CARAVEL_SOC
*CAP
1 gpio_out[0] 0.00561553
2 *921:gpio_out[0] 0.120517
3 *705:39 0.0227327
4 *705:37 0.0171172
5 *705:35 0.0257354
6 *705:33 0.0262306
7 *705:21 0.121013
8 gpio_out[0] gpio_vtrip_sel[0] 0
9 *705:21 *736:21 5.0145e-05
10 *705:21 *745:11 0.000944559
11 *705:21 *764:21 0.000992407
12 *705:21 *831:31 0.0161344
13 *705:21 *832:39 0.0483041
14 *705:33 *745:11 4.73891e-05
15 *705:39 *716:15 0.0855287
16 gpio_dm2[0] gpio_out[0] 0
17 gpio_holdover[0] gpio_out[0] 0
18 *104:31 *705:35 0
19 *114:23 *705:21 0.0181383
20 *117:39 *705:21 0.0368624
21 *193:37 *705:35 0.0809801
22 *193:61 *705:21 9.40346e-05
23 *203:15 *705:21 0.0498477
24 *205:53 *705:21 0.0482723
25 *205:53 *705:35 0.0182069
26 *226:11 *705:39 0.00127983
27 *246:9 gpio_out[0] 0
28 *247:11 *705:39 0
29 *283:15 *705:35 0.00653877
30 *286:35 *705:21 0.0325251
31 *308:11 *705:39 0.013493
32 *322:317 *705:21 0
33 *392:23 *705:21 0.0357209
34 *407:19 *705:21 0.00344084
35 *442:11 *705:39 0.102514
36 *445:19 *705:39 0.00926999
37 *688:11 *705:21 1.20192e-05
38 *689:11 *705:21 0.0223249
39 *689:11 *705:33 4.73891e-05
40 *691:11 *705:21 0.0425808
*RES
1 *921:gpio_out[0] *705:21 49.4917 
2 *705:21 *705:33 14.6881 
3 *705:33 *705:35 797.732 
4 *705:35 *705:37 4.5 
5 *705:37 *705:39 1257.97 
6 *705:39 gpio_out[0] 16.0444 
*END

*D_NET *706 0.404619
*CONN
*P gpio_out[10] O
*I *920:count[2] O *D counter_macro
*CAP
1 gpio_out[10] 5.15572e-05
2 *920:count[2] 1.3106e-05
3 *706:11 0.135345
4 *706:9 0.135293
5 *706:7 0.0307879
6 *706:5 0.030801
7 *706:11 *794:15 0
8 gpio_dm2[10] *706:11 0
9 gpio_holdover[10] *706:11 0
10 gpio_oeb[22] *706:7 0.0717378
11 *537:188 *706:11 0.000589369
*RES
1 *920:count[2] *706:5 0.267857 
2 *706:5 *706:7 950.911 
3 *706:7 *706:9 3.41 
4 *706:9 *706:11 428.422 
5 *706:11 gpio_out[10] 0.173117 
*END

*D_NET *707 0.555389
*CONN
*P gpio_out[11] O
*I *920:count[3] O *D counter_macro
*CAP
1 gpio_out[11] 0.00322464
2 *920:count[3] 1.3106e-05
3 *707:11 0.085161
4 *707:9 0.0819364
5 *707:7 0.0566192
6 *707:5 0.0566323
7 *707:7 gpio_out[22] 0
8 gpio_holdover[11] gpio_out[11] 0.000266625
9 *355:15 gpio_out[11] 0
10 *355:15 *707:11 0.271535
*RES
1 *920:count[3] *707:5 0.267857 
2 *707:5 *707:7 1148.23 
3 *707:7 *707:9 3.41 
4 *707:9 *707:11 420.088 
5 *707:11 gpio_out[11] 7.28265 
*END

*D_NET *708 0.6317
*CONN
*P gpio_out[12] O
*I *920:count[4] O *D counter_macro
*CAP
1 gpio_out[12] 0.00252661
2 *920:count[4] 1.3106e-05
3 *708:11 0.0838277
4 *708:9 0.0813011
5 *708:7 0.0428279
6 *708:5 0.042841
7 gpio_out[12] *796:15 0
8 *708:11 *796:15 0
9 gpio_analog_sel[22] *708:7 0.106056
10 gpio_holdover[12] gpio_out[12] 0.00194429
11 gpio_holdover[12] *708:11 0.270361
*RES
1 *920:count[4] *708:5 0.267857 
2 *708:5 *708:7 1351.62 
3 *708:7 *708:9 3.41 
4 *708:9 *708:11 418.142 
5 *708:11 gpio_out[12] 6.84398 
*END

*D_NET *709 0.472575
*CONN
*P gpio_out[13] O
*I *920:count[5] O *D counter_macro
*CAP
1 gpio_out[13] 0.137766
2 *920:count[5] 1.3106e-05
3 *709:14 0
4 *709:9 0.137766
5 *709:7 0.0582609
6 *709:5 0.058274
7 gpio_out[13] *797:23 0
8 gpio_analog_pol[22] *709:7 0
9 gpio_dm2[13] gpio_out[13] 0
10 gpio_holdover[13] gpio_out[13] 0
11 *357:23 gpio_out[13] 0
12 *543:47 *709:7 0.0804936
*RES
1 *920:count[5] *709:5 0.267857 
2 *709:5 *709:7 1751.73 
3 *709:7 *709:9 3.41 
4 *709:9 gpio_out[13] 422.585 
5 gpio_out[13] *709:14 0.0762162 
*END

*D_NET *710 0.646145
*CONN
*P gpio_out[14] O
*I *920:count[6] O *D counter_macro
*CAP
1 gpio_out[14] 0.00288459
2 *920:count[6] 1.3106e-05
3 *710:11 0.0830308
4 *710:9 0.0801462
5 *710:7 0.105642
6 *710:5 0.105655
7 gpio_analog_en[22] *710:7 0
8 gpio_dm1[22] *710:7 0
9 *105:31 *710:11 0
10 *358:23 gpio_out[14] 0.000797317
11 *358:23 *710:11 0.267977
*RES
1 *920:count[6] *710:5 0.267857 
2 *710:5 *710:7 2146.38 
3 *710:7 *710:9 3.41 
4 *710:9 *710:11 414.25 
5 *710:11 gpio_out[14] 7.13852 
*END

*D_NET *711 0.46413
*CONN
*P gpio_out[15] O
*I *920:count[7] O *D counter_macro
*CAP
1 gpio_out[15] 8.83825e-05
2 *920:count[7] 1.3106e-05
3 *711:15 0.00541165
4 *711:13 0.00532327
5 *711:11 0.119071
6 *711:9 0.119071
7 *711:7 0.107569
8 *711:5 0.107582
9 *711:11 *712:11 0
10 gpio_holdover[15] gpio_out[15] 0
*RES
1 *920:count[7] *711:5 0.267857 
2 *711:5 *711:7 2185.23 
3 *711:7 *711:9 3.41 
4 *711:9 *711:11 383.081 
5 *711:11 *711:13 3.41 
6 *711:13 *711:15 105.768 
7 *711:15 gpio_out[15] 1.60714 
*END

*D_NET *712 0.412962
*CONN
*P gpio_out[16] O
*I *920:count[8] O *D counter_macro
*CAP
1 gpio_out[16] 0.00552136
2 *920:count[8] 1.3106e-05
3 *712:13 0.00552136
4 *712:11 0.0936793
5 *712:9 0.0936793
6 *712:7 0.107267
7 *712:5 0.10728
8 gpio_holdover[16] gpio_out[16] 0
9 *455:5 *712:7 0
10 *711:11 *712:11 0
*RES
1 *920:count[8] *712:5 0.267857 
2 *712:5 *712:7 2179.16 
3 *712:7 *712:9 3.41 
4 *712:9 *712:11 301.43 
5 *712:11 *712:13 3.41 
6 *712:13 gpio_out[16] 112.991 
*END

*D_NET *713 0.387086
*CONN
*P gpio_out[17] O
*I *920:count[9] O *D counter_macro
*CAP
1 gpio_out[17] 0.0985778
2 *920:count[9] 1.3106e-05
3 *713:13 0.0985778
4 *713:11 0.0807036
5 *713:9 0.0807036
6 *713:7 0.0142487
7 *713:5 0.0142618
8 gpio_holdover[17] gpio_out[17] 0
9 *192:15 *713:11 0
*RES
1 *920:count[9] *713:5 0.267857 
2 *713:5 *713:7 287.911 
3 *713:7 *713:9 3.41 
4 *713:9 *713:11 259.199 
5 *713:11 *713:13 3.41 
6 *713:13 gpio_out[17] 2004.24 
*END

*D_NET *714 0.342706
*CONN
*P gpio_out[18] O
*I *920:count[10] O *D counter_macro
*CAP
1 gpio_out[18] 0.105257
2 *920:count[10] 1.3106e-05
3 *714:13 0.105257
4 *714:11 0.0585149
5 *714:9 0.0585149
6 *714:7 0.00756784
7 *714:5 0.00758095
8 gpio_holdover[18] gpio_out[18] 0
*RES
1 *920:count[10] *714:5 0.267857 
2 *714:5 *714:7 152.518 
3 *714:7 *714:9 3.41 
4 *714:9 *714:11 187.564 
5 *714:11 *714:13 3.41 
6 *714:13 gpio_out[18] 2139.63 
*END

*D_NET *715 0.298357
*CONN
*P gpio_out[19] O
*I *920:count[11] O *D counter_macro
*CAP
1 gpio_out[19] 0.112977
2 *920:count[11] 0
3 *715:8 0.112977
4 *715:6 0.029028
5 *715:4 0.029028
6 *715:6 *719:8 0.00377129
7 gpio_holdover[19] gpio_out[19] 0
8 *454:13 *715:6 0.0105761
*RES
1 *920:count[11] *715:4 3.41 
2 *715:4 *715:6 105.877 
3 *715:6 *715:8 3.41 
4 *715:8 gpio_out[19] 2294.46 
*END

*D_NET *716 0.871554
*CONN
*P gpio_out[1] O
*I *921:gpio_out[1] O *D CF_CARAVEL_SOC
*CAP
1 gpio_out[1] 0.00558119
2 *921:gpio_out[1] 0.000422138
3 *716:15 0.0207688
4 *716:13 0.0151876
5 *716:11 0.0340488
6 *716:9 0.0344709
7 gpio_out[1] gpio_vtrip_sel[1] 0.000666761
8 *716:9 *808:27 0
9 *716:11 *744:11 0.00477732
10 *716:15 *727:15 0.0232981
11 *716:15 *788:55 0.00882125
12 gpio_dm2[1] gpio_out[1] 0
13 gpio_holdover[1] gpio_out[1] 0
14 *115:15 *716:11 0.000733361
15 *163:23 *716:11 0.270385
16 *247:11 *716:15 0
17 *288:9 gpio_out[1] 0
18 *291:15 *716:11 0.00116833
19 *308:11 *716:15 0.0141047
20 *393:23 *716:11 0.262864
21 *445:19 *716:15 0.0344823
22 *541:131 *716:11 0.000346997
23 *688:11 *716:11 0.0492565
24 *693:19 *716:11 0.00464127
25 *705:39 *716:15 0.0855287
*RES
1 *921:gpio_out[1] *716:9 10.5268 
2 *716:9 *716:11 2599.95 
3 *716:11 *716:13 4.5 
4 *716:13 *716:15 1049.42 
5 *716:15 gpio_out[1] 16.2543 
*END

*D_NET *717 0.264789
*CONN
*P gpio_out[20] O
*I *920:count[12] O *D counter_macro
*CAP
1 gpio_out[20] 0.000112372
2 *920:count[12] 1.3106e-05
3 *717:15 0.0047011
4 *717:13 0.00458873
5 *717:11 0.0194892
6 *717:9 0.0194892
7 *717:7 0.108191
8 *717:5 0.108204
9 gpio_holdover[20] gpio_out[20] 0
10 gpio_holdover[20] *717:15 0
*RES
1 *920:count[12] *717:5 0.267857 
2 *717:5 *717:7 2197.38 
3 *717:7 *717:9 3.41 
4 *717:9 *717:11 63.5377 
5 *717:11 *717:13 3.41 
6 *717:13 *717:15 93.625 
7 *717:15 gpio_out[20] 1.60714 
*END

*D_NET *718 0.238632
*CONN
*P gpio_out[21] O
*I *920:count[13] O *D counter_macro
*CAP
1 gpio_out[21] 0.00229127
2 *920:count[13] 1.3106e-05
3 *718:13 0.00866771
4 *718:7 0.117012
5 *718:5 0.110648
6 gpio_holdover[21] gpio_out[21] 0
*RES
1 *920:count[13] *718:5 0.267857 
2 *718:5 *718:7 2247.16 
3 *718:7 *718:13 28.1267 
4 *718:13 gpio_out[21] 45.4464 
*END

*D_NET *719 0.249803
*CONN
*P gpio_out[22] O
*I *920:count[14] O *D counter_macro
*CAP
1 gpio_out[22] 0.112932
2 *920:count[14] 0.00328465
3 *719:8 0.116217
4 *454:13 *719:8 0.013597
5 *539:423 gpio_out[22] 0
6 *707:7 gpio_out[22] 0
7 *715:6 *719:8 0.00377129
*RES
1 *920:count[14] *719:8 27.8024 
2 *719:8 gpio_out[22] 2293.85 
*END

*D_NET *720 0.285758
*CONN
*P gpio_out[23] O
*I *920:count[15] O *D counter_macro
*CAP
1 gpio_out[23] 0.00220829
2 *920:count[15] 6.738e-05
3 *720:13 0.112747
4 *720:11 0.110539
5 *720:9 0.0091937
6 *720:7 0.00926108
7 *720:9 *807:15 0.00493534
8 gpio_holdover[23] gpio_out[23] 0
9 *103:15 *720:9 0.00234725
10 *147:17 *720:9 0
11 *322:359 *720:13 0
12 *322:371 *720:13 0
13 *455:9 *720:9 0.00199638
14 *539:255 *720:9 0.000727744
15 *542:51 *720:9 0.00349303
16 *543:43 *720:9 0.0282409
17 *679:13 *720:9 0
*RES
1 *920:count[15] *720:7 4.68679 
2 *720:7 *720:9 63.2134 
3 *720:9 *720:11 3.41 
4 *720:11 *720:13 2249.04 
5 *720:13 gpio_out[23] 42.9732 
*END

*D_NET *721 0.345526
*CONN
*P gpio_out[24] O
*I *921:gpio_out[24] O *D CF_CARAVEL_SOC
*CAP
1 gpio_out[24] 0.000301645
2 *921:gpio_out[24] 7.8492e-05
3 *721:13 0.0398455
4 *721:11 0.0395439
5 *721:9 0.124476
6 *721:7 0.124555
7 *721:13 gpio_vtrip_sel[24] 5.91089e-05
8 *721:13 *756:10 0.0166666
9 gpio_ib_mode_sel[24] *721:13 0
*RES
1 *921:gpio_out[24] *721:7 1.60714 
2 *721:7 *721:9 2520.98 
3 *721:9 *721:11 3.41 
4 *721:11 *721:13 146.859 
5 *721:13 gpio_out[24] 1.01285 
*END

*D_NET *722 0.306004
*CONN
*P gpio_out[25] O
*I *921:gpio_out[25] O *D CF_CARAVEL_SOC
*CAP
1 gpio_out[25] 0.00973147
2 *921:gpio_out[25] 7.8492e-05
3 *722:17 0.0633443
4 *722:15 0.0536128
5 *722:13 0.0375129
6 *722:11 0.0375129
7 *722:9 0.0229914
8 *722:7 0.0230699
9 gpio_out[25] gpio_vtrip_sel[25] 0
10 gpio_holdover[25] gpio_out[25] 0.00120627
11 *189:19 *722:9 0.0478319
12 *192:19 *722:17 0
13 *321:71 *722:9 0
14 *322:371 *722:17 0
15 *326:35 gpio_out[25] 0
16 *400:23 gpio_out[25] 0.00889386
17 *539:287 *722:13 0.000217465
*RES
1 *921:gpio_out[25] *722:7 1.60714 
2 *722:7 *722:9 676.482 
3 *722:9 *722:11 3.41 
4 *722:11 *722:13 120.182 
5 *722:13 *722:15 3.41 
6 *722:15 *722:17 1088.12 
7 *722:17 gpio_out[25] 36.0664 
*END

*D_NET *723 0.261885
*CONN
*P gpio_out[26] O
*I *921:gpio_out[26] O *D CF_CARAVEL_SOC
*CAP
1 gpio_out[26] 0.000137408
2 *921:gpio_out[26] 0.00287876
3 *723:21 0.0433359
4 *723:19 0.0431985
5 *723:17 0.0751957
6 *723:15 0.080371
7 *723:9 0.00805405
8 *723:9 *761:19 0
9 *723:21 gpio_vtrip_sel[26] 0
10 gpio_holdover[26] *723:21 0.00582762
11 *202:27 *723:15 0.00288636
12 *327:67 *723:21 0
13 *663:11 *723:21 0
*RES
1 *921:gpio_out[26] *723:9 49.6964 
2 *723:9 *723:15 28.4149 
3 *723:15 *723:17 1525.27 
4 *723:17 *723:19 3.41 
5 *723:19 *723:21 135.689 
6 *723:21 gpio_out[26] 0.461383 
*END

*D_NET *724 0.248269
*CONN
*P gpio_out[27] O
*I *921:gpio_out[27] O *D CF_CARAVEL_SOC
*CAP
1 gpio_out[27] 0.00253918
2 *921:gpio_out[27] 7.8492e-05
3 *724:17 0.00402557
4 *724:15 0.00148639
5 *724:13 0.0492781
6 *724:11 0.0492781
7 *724:9 0.0662271
8 *724:7 0.0663056
9 gpio_holdover[27] gpio_out[27] 0.00415272
10 *240:15 gpio_out[27] 0.00101956
11 *366:11 *724:17 0
12 *545:15 *724:17 0.00387799
*RES
1 *921:gpio_out[27] *724:7 1.60714 
2 *724:7 *724:9 1335.23 
3 *724:9 *724:11 3.41 
4 *724:11 *724:13 154.198 
5 *724:13 *724:15 3.41 
6 *724:15 *724:17 47.4821 
7 *724:17 gpio_out[27] 11.758 
*END

*D_NET *725 0.228581
*CONN
*P gpio_out[28] O
*I *921:gpio_out[28] O *D CF_CARAVEL_SOC
*CAP
1 gpio_out[28] 0.000254987
2 *921:gpio_out[28] 0.00287867
3 *725:19 0.0519206
4 *725:17 0.0516657
5 *725:15 0.0560792
6 *725:13 0.058731
7 *725:7 0.00553057
8 *725:7 *730:17 0
9 *725:15 *761:19 0
10 *725:19 gpio_vtrip_sel[28] 0
11 *202:27 *725:13 0.00110765
12 *329:70 *725:19 0
13 *361:33 *725:13 0.000412871
*RES
1 *921:gpio_out[28] *725:7 49.5714 
2 *725:7 *725:13 16.0195 
3 *725:13 *725:15 1137.3 
4 *725:15 *725:17 3.41 
5 *725:17 *725:19 158.39 
6 *725:19 gpio_out[28] 0.856183 
*END

*D_NET *726 0.212658
*CONN
*P gpio_out[29] O
*I *921:gpio_out[29] O *D CF_CARAVEL_SOC
*CAP
1 gpio_out[29] 0.000171002
2 *921:gpio_out[29] 8.74952e-05
3 *726:21 0.0560313
4 *726:19 0.0558603
5 *726:17 0.0465037
6 *726:15 0.047278
7 *726:9 0.00370663
8 *726:7 0.00301986
9 *726:9 *728:17 0
10 *726:21 gpio_vtrip_sel[29] 0
11 gpio_holdover[29] *726:21 0
12 *198:31 *726:21 0
13 *202:27 *726:15 0
14 *284:65 *726:21 0
*RES
1 *921:gpio_out[29] *726:7 1.60714 
2 *726:7 *726:9 51.125 
3 *726:9 *726:15 9.38933 
4 *726:15 *726:17 943.018 
5 *726:17 *726:19 3.41 
6 *726:19 *726:21 170.281 
7 *726:21 gpio_out[29] 0.574183 
*END

*D_NET *727 0.831035
*CONN
*P gpio_out[2] O
*I *921:gpio_out[2] O *D CF_CARAVEL_SOC
*CAP
1 gpio_out[2] 0.00498219
2 *921:gpio_out[2] 0.000154533
3 *727:15 0.0178522
4 *727:13 0.01287
5 *727:11 0.0326517
6 *727:9 0.0328062
7 *727:11 *731:6 0.0203216
8 *727:11 *733:6 0.00202228
9 *727:11 *734:11 0.000626549
10 *727:11 *738:11 0.26882
11 *727:11 *739:6 0.00234474
12 *727:11 *740:11 0.00395968
13 *727:15 *738:15 0.0522538
14 *727:15 *788:55 0.0088192
15 gpio_dm2[2] gpio_out[2] 0
16 gpio_holdover[2] gpio_out[2] 0.00205751
17 *90:11 *727:15 0.00909466
18 *162:15 *727:11 0.271855
19 *247:11 *727:15 0
20 *308:11 *727:15 0.00181937
21 *326:9 gpio_out[2] 0.00116012
22 *436:23 *727:11 0.00112605
23 *445:19 *727:15 0.0183562
24 *562:123 *727:15 0.0146444
25 *694:6 *727:11 0.0271351
26 *694:10 *727:15 4.22135e-06
27 *716:15 *727:15 0.0232981
*RES
1 *921:gpio_out[2] *727:9 6.27679 
2 *727:9 *727:11 2571.2 
3 *727:11 *727:13 4.5 
4 *727:13 *727:15 845.42 
5 *727:15 gpio_out[2] 15.5697 
*END

*D_NET *728 0.201834
*CONN
*P gpio_out[30] O
*I *921:gpio_out[30] O *D CF_CARAVEL_SOC
*CAP
1 gpio_out[30] 0.000105216
2 *921:gpio_out[30] 0.00275252
3 *728:21 0.0558031
4 *728:19 0.0556979
5 *728:17 0.0373456
6 *728:15 0.0381728
7 *728:9 0.00357972
8 gpio_holdover[30] *728:21 0.0054415
9 *200:15 *728:21 0
10 *202:27 *728:15 0.00293555
11 *726:9 *728:17 0
*RES
1 *921:gpio_out[30] *728:9 47.2679 
2 *728:9 *728:15 11.3351 
3 *728:15 *728:17 757.232 
4 *728:17 *728:19 3.41 
5 *728:19 *728:21 173.524 
6 *728:21 gpio_out[30] 0.292183 
*END

*D_NET *729 0.186759
*CONN
*P gpio_out[31] O
*I *921:gpio_out[31] O *D CF_CARAVEL_SOC
*CAP
1 gpio_out[31] 0.000368356
2 *921:gpio_out[31] 0.00275252
3 *729:21 0.0458539
4 *729:19 0.0454856
5 *729:17 0.0276236
6 *729:15 0.0280195
7 *729:9 0.00314839
8 *729:21 gpio_vtrip_sel[31] 0
9 gpio_holdover[31] *729:21 0
10 gpio_ib_mode_sel[31] *729:21 0
11 *202:27 *729:15 0.00138783
12 *245:15 *729:21 0.0321197
13 *333:27 *729:21 0
*RES
1 *921:gpio_out[31] *729:9 47.2679 
2 *729:9 *729:15 8.95693 
3 *729:15 *729:17 560.518 
4 *729:17 *729:19 3.41 
5 *729:19 *729:21 181.091 
6 *729:21 gpio_out[31] 0.968983 
*END

*D_NET *730 0.228395
*CONN
*P gpio_out[32] O
*I *921:gpio_out[32] O *D CF_CARAVEL_SOC
*CAP
1 gpio_out[32] 7.44085e-05
2 *921:gpio_out[32] 0.00242355
3 *730:19 0.0306436
4 *730:17 0.0329563
5 *730:13 0.00481058
6 *730:13 *732:6 0.00681936
7 *730:13 *737:9 0.012728
8 *730:19 *754:21 0.000760904
9 *730:19 *761:15 0
10 gpio_holdover[32] *730:19 0.000261062
11 *148:13 *730:19 0
12 *202:27 *730:19 0
13 *290:15 *730:19 0
14 *361:33 *730:19 0.0154479
15 *394:15 *730:19 0.102465
16 *440:23 *730:19 0.019004
17 *725:7 *730:17 0
*RES
1 *921:gpio_out[32] *730:13 28.723 
2 *730:13 *730:17 44.8207 
3 *730:17 *730:19 168.119 
4 *730:19 gpio_out[32] 0.198183 
*END

*D_NET *731 0.335852
*CONN
*P gpio_out[33] O
*I *921:gpio_out[33] O *D CF_CARAVEL_SOC
*CAP
1 gpio_out[33] 0.000527211
2 *921:gpio_out[33] 0
3 *731:18 0.00572201
4 *731:16 0.0051948
5 *731:14 0.0106193
6 *731:6 0.025094
7 *731:4 0.0144747
8 *731:6 *733:6 0.0988446
9 *731:6 *734:11 0.098851
10 *731:14 *734:11 7.59802e-06
11 *731:14 *833:21 0.00745324
12 *731:14 *833:23 0.00950069
13 gpio_holdover[33] gpio_out[33] 0.000551774
14 *159:15 *731:14 0.00236217
15 *161:15 *731:14 0.00505747
16 *162:15 *731:6 0.0219826
17 *204:33 *731:6 0.000209261
18 *204:43 *731:14 0
19 *322:313 *731:14 0.00011307
20 *337:39 *731:14 0.00212026
21 *378:11 *731:18 0
22 *379:18 gpio_out[33] 3.05874e-05
23 *466:11 *731:18 0.00607462
24 *539:187 *731:14 0.00011307
25 *693:27 *731:14 0.000626506
26 *727:11 *731:6 0.0203216
*RES
1 *921:gpio_out[33] *731:4 3.41 
2 *731:4 *731:6 155.963 
3 *731:6 *731:14 47.2447 
4 *731:14 *731:16 3.41 
5 *731:16 *731:18 142.196 
6 *731:18 gpio_out[33] 4.75028 
*END

*D_NET *732 0.301245
*CONN
*P gpio_out[34] O
*I *921:gpio_out[34] O *D CF_CARAVEL_SOC
*CAP
1 gpio_out[34] 0.00621618
2 *921:gpio_out[34] 0
3 *732:10 0.0111921
4 *732:8 0.00497596
5 *732:6 0.0242723
6 *732:4 0.0242723
7 *732:6 *733:6 0.0064925
8 *732:6 *735:11 0.000235585
9 *732:6 *735:21 0.0143463
10 *732:6 *737:9 0.0211054
11 *732:6 *739:6 0.10085
12 *732:10 *787:11 0.0278542
13 gpio_dm2[34] gpio_out[34] 0.00159221
14 gpio_holdover[34] gpio_out[34] 0
15 *204:33 *732:6 0.00219583
16 *394:9 gpio_out[34] 0.00322694
17 *418:11 *732:10 0.00311636
18 *456:15 *732:6 0.00246577
19 *468:11 *732:10 0.00361436
20 *472:37 *732:6 0.00314266
21 *472:39 *732:6 0.0138466
22 *543:31 *732:10 0.0060654
23 *687:19 *732:10 0.0133468
24 *730:13 *732:6 0.00681936
*RES
1 *921:gpio_out[34] *732:4 3.41 
2 *732:4 *732:6 184.069 
3 *732:6 *732:8 3.41 
4 *732:8 *732:10 342.554 
5 *732:10 gpio_out[34] 18.1594 
*END

*D_NET *733 0.416334
*CONN
*P gpio_out[35] O
*I *921:gpio_out[35] O *D CF_CARAVEL_SOC
*CAP
1 gpio_out[35] 0.00554728
2 *921:gpio_out[35] 0
3 *733:10 0.0227762
4 *733:8 0.0172289
5 *733:6 0.0207228
6 *733:4 0.0207228
7 gpio_out[35] *759:9 0.000210469
8 gpio_out[35] *761:9 0
9 *733:6 *734:11 0.00951331
10 *733:6 *735:21 0.000356424
11 *733:6 *739:6 0.104127
12 *733:10 *736:37 0.000864905
13 *733:10 *753:11 0.00613982
14 *733:10 *832:19 0
15 gpio_holdover[35] gpio_out[35] 0.000735654
16 *162:15 *733:6 0.00359218
17 *204:33 *733:6 0.0231734
18 *204:43 *733:6 0.00493093
19 *365:11 *733:10 0
20 *420:11 *733:10 0.00860433
21 *469:11 *733:10 0.00366657
22 *472:37 *733:6 0.00314523
23 *688:15 *733:10 0.0287893
24 *690:11 *733:6 0.0239781
25 *690:21 *733:6 0.000148863
26 *727:11 *733:6 0.00202228
27 *731:6 *733:6 0.0988446
28 *732:6 *733:6 0.0064925
*RES
1 *921:gpio_out[35] *733:4 3.41 
2 *733:4 *733:6 192.645 
3 *733:6 *733:8 3.41 
4 *733:8 *733:10 532.589 
5 *733:10 gpio_out[35] 14.9806 
*END

*D_NET *734 0.449273
*CONN
*P gpio_out[36] O
*I *921:gpio_out[36] O *D CF_CARAVEL_SOC
*CAP
1 gpio_out[36] 0.0047044
2 *921:gpio_out[36] 0.0003136
3 *734:15 0.016966
4 *734:13 0.0122616
5 *734:11 0.0292937
6 *734:9 0.0296073
7 gpio_out[36] *817:9 0
8 gpio_out[36] *818:9 0.000333516
9 *734:11 *738:11 0.0240643
10 *734:11 *739:6 0.00105051
11 *734:11 *743:11 0.0216568
12 *734:11 *808:21 0.00179867
13 *734:11 *808:25 0.000863774
14 *734:11 *833:21 0.000501619
15 *734:15 *736:39 0.0450413
16 *734:15 *762:11 0.00734791
17 *734:15 *833:11 0.00664806
18 gpio_holdover[36] gpio_out[36] 0.000946608
19 *118:211 *734:15 0.00189366
20 *161:15 *734:11 0.0395867
21 *162:15 *734:11 0.000551323
22 *204:43 *734:11 0.00555993
23 *413:17 *734:11 0.0004814
24 *436:23 *734:11 0.045239
25 *689:15 *734:15 0.0435629
26 *727:11 *734:11 0.000626549
27 *731:6 *734:11 0.098851
28 *731:14 *734:11 7.59802e-06
29 *733:6 *734:11 0.00951331
*RES
1 *921:gpio_out[36] *734:9 5.64214 
2 *734:9 *734:11 198.663 
3 *734:11 *734:13 3.41 
4 *734:13 *734:15 723.839 
5 *734:15 gpio_out[36] 13.9685 
*END

*D_NET *735 0.432082
*CONN
*P gpio_out[37] O
*I *921:gpio_out[37] O *D CF_CARAVEL_SOC
*CAP
1 gpio_out[37] 0.00532928
2 *921:gpio_out[37] 0.000122802
3 *735:23 0.0175433
4 *735:21 0.0159338
5 *735:11 0.0349493
6 *735:9 0.0313523
7 gpio_out[37] gpio_vtrip_sel[37] 0
8 *735:11 *736:11 0.105326
9 *735:11 *739:6 0.0246113
10 *735:21 *736:21 0.000231158
11 *735:21 *737:9 0.00125972
12 *735:21 *737:15 0.000493415
13 *735:23 *815:11 0.000293242
14 gpio_dm2[37] gpio_out[37] 0.00405392
15 gpio_holdover[37] gpio_out[37] 0
16 *204:33 *735:11 0.000620103
17 *247:19 *735:23 0.000126561
18 *374:11 *735:23 0.00282904
19 *380:13 *735:23 0.00229916
20 *421:11 *735:23 0.00961305
21 *436:19 *735:23 0.0749029
22 *456:15 *735:11 0.000290883
23 *467:11 *735:23 0.0668768
24 *472:39 *735:21 0.00843685
25 *544:29 *735:21 0.00152662
26 *552:25 *735:23 0.00464791
27 *690:21 *735:21 0.00347413
28 *732:6 *735:11 0.000235585
29 *732:6 *735:21 0.0143463
30 *733:6 *735:21 0.000356424
*RES
1 *921:gpio_out[37] *735:9 5.86607 
2 *735:9 *735:11 1005.96 
3 *735:11 *735:21 37.186 
4 *735:21 *735:23 921.768 
5 *735:23 gpio_out[37] 16.1478 
*END

*D_NET *736 0.681372
*CONN
*P gpio_out[38] O
*I *921:gpio_out[38] O *D CF_CARAVEL_SOC
*CAP
1 gpio_out[38] 0.000173844
2 *921:gpio_out[38] 0.00017007
3 *736:43 0.0134225
4 *736:41 0.0132487
5 *736:39 0.0431312
6 *736:37 0.0440525
7 *736:23 0.00334331
8 *736:21 0.00793758
9 *736:11 0.0187172
10 *736:9 0.0133717
11 *736:11 *739:6 0.0234929
12 *736:21 *737:9 0.0120119
13 *736:21 *737:15 0.000235405
14 *736:23 *768:11 0.00625892
15 *736:37 gpio_vtrip_sel[33] 0.000651809
16 *736:39 *762:11 0.0294046
17 *736:43 *848:21 0.013295
18 gpio_analog_en[38] *736:43 7.01182e-05
19 gpio_holdover[38] gpio_out[38] 1.89437e-05
20 gpio_oeb[33] *736:37 0.000651809
21 *118:211 *736:39 0.0335924
22 *162:25 *736:21 0.0019727
23 *163:33 *736:21 0.000410097
24 *204:33 *736:11 0.108412
25 *251:15 *736:43 0.00949947
26 *284:23 *736:43 0.00126355
27 *284:31 *736:43 0.0189291
28 *284:49 *736:43 4.63851e-05
29 *335:33 *736:43 0.00956264
30 *365:11 *736:37 0
31 *368:11 *736:23 0.0126203
32 *373:11 *736:23 0.00245821
33 *384:15 *736:43 0.0699961
34 *387:11 *736:39 0
35 *387:21 *736:43 0.00525743
36 *387:23 *736:43 0.00155696
37 *411:11 *736:39 0
38 *428:23 *736:43 0.00409819
39 *437:29 *736:21 0.000972795
40 *456:27 *736:23 0.00143223
41 *544:17 *736:39 0
42 *688:11 *736:21 0.00311367
43 *690:21 *736:21 0.00100446
44 *705:21 *736:21 5.0145e-05
45 *733:10 *736:37 0.000864905
46 *734:15 *736:39 0.0450413
47 *735:11 *736:11 0.105326
48 *735:21 *736:21 0.000231158
*RES
1 *921:gpio_out[38] *736:9 6.27679 
2 *736:9 *736:11 1024.45 
3 *736:11 *736:21 42.1216 
4 *736:21 *736:23 155.098 
5 *736:23 *736:37 30.8498 
6 *736:37 *736:39 1396.55 
7 *736:39 *736:41 3.41 
8 *736:41 *736:43 112.111 
9 *736:43 gpio_out[38] 6.20464 
*END

*D_NET *737 0.716762
*CONN
*P gpio_out[39] O
*I *921:gpio_out[39] O *D CF_CARAVEL_SOC
*CAP
1 gpio_out[39] 0.0331356
2 *921:gpio_out[39] 6.60876e-05
3 *737:181 0.0405335
4 *737:155 0.0103781
5 *737:151 0.00792981
6 *737:143 0.0108644
7 *737:127 0.00747887
8 *737:117 0.00546436
9 *737:99 0.00922317
10 *737:89 0.00755272
11 *737:87 0.00300291
12 *737:81 0.0106872
13 *737:79 0.0111407
14 *737:73 0.0169776
15 *737:71 0.0160643
16 *737:65 0.00702752
17 *737:63 0.00856753
18 *737:57 0.00287818
19 *737:55 0.00276299
20 *737:41 0.00521788
21 *737:39 0.00672109
22 *737:31 0.00649661
23 *737:17 0.00699346
24 *737:15 0.00393399
25 *737:9 0.0363784
26 *737:7 0.0362485
27 gpio_out[39] *826:27 0.00108521
28 *737:9 *739:6 0.00377587
29 *737:9 *744:11 0.0254331
30 *737:31 *756:6 0.000557793
31 *737:39 *765:11 0
32 *737:39 *816:25 5.00194e-05
33 *737:55 *832:25 8.23111e-05
34 *737:57 *763:11 0.00644984
35 *737:65 *766:11 0.00172395
36 *737:71 *757:9 1.39178e-05
37 *737:73 *749:11 0.0315747
38 *737:73 *771:11 0.000539659
39 *737:73 *808:11 0
40 *737:81 *921:porb_l 0.000837185
41 *737:81 *815:11 0.000224469
42 *737:99 *815:21 0.00224931
43 *737:99 *826:27 0.00087819
44 *737:99 *873:37 0.00938727
45 *737:117 *739:60 0.000437213
46 *737:117 *839:209 2.87916e-05
47 *737:117 *839:217 0.00249311
48 *737:117 *846:33 8.83388e-05
49 *737:127 *815:39 0.00128968
50 *737:127 *839:209 0.000653248
51 *737:127 *839:217 5.0145e-05
52 *737:127 *873:23 0
53 *737:143 *739:76 0
54 *737:143 *826:27 0.00182182
55 *737:143 *840:19 0.0022125
56 *737:151 *739:84 0.000942477
57 *737:151 *826:27 0.00134415
58 *737:181 *739:108 0.000124752
59 *737:181 *739:116 0
60 *737:181 *784:13 0.00270319
61 *737:181 *826:27 0.000160145
62 *737:181 *843:11 0.000900141
63 *737:181 *854:11 0.000421129
64 *737:181 *861:11 0.000484449
65 gpio_analog_sel[33] *737:31 0.000159635
66 gpio_holdover[33] *737:39 0.00024842
67 gpio_holdover[34] *737:63 0.00252663
68 gpio_ib_mode_sel[35] *737:71 0.000381863
69 *921:gpio_in[0] *737:117 0.000169454
70 *921:gpio_in[6] *737:127 0
71 *118:155 gpio_out[39] 0.00267465
72 *118:187 *737:143 0.000450433
73 *118:197 *737:117 0.000308382
74 *120:15 gpio_out[39] 0.000652167
75 *206:51 *737:17 0
76 *206:51 *737:31 0.00125054
77 *248:19 *737:181 0.000348491
78 *248:35 *737:65 0
79 *293:27 *737:81 0
80 *322:175 gpio_out[39] 0.00356356
81 *322:207 *737:181 0.00295433
82 *322:235 *737:143 3.0102e-05
83 *322:255 *737:143 0
84 *322:265 *737:99 0.000200287
85 *325:79 gpio_out[39] 0.000800373
86 *325:97 *737:181 0.000402919
87 *325:103 *737:181 0.000369157
88 *325:129 *737:151 0.0148637
89 *335:55 *737:99 0.0070064
90 *338:63 gpio_out[39] 0.000257008
91 *338:81 *737:99 0.000369549
92 *362:11 *737:39 0.000397304
93 *366:9 *737:55 1.46617e-05
94 *375:25 *737:31 0.00089764
95 *383:11 *737:57 0.00140922
96 *386:55 *737:143 0.000601282
97 *386:89 *737:181 0.00656527
98 *386:99 gpio_out[39] 0.00267465
99 *387:9 *737:31 1.07995e-05
100 *387:9 *737:39 0
101 *387:11 *737:89 0.0115544
102 *388:9 *737:31 1.8093e-05
103 *388:11 *737:73 0.0029516
104 *394:9 *737:63 0
105 *395:17 *737:63 0.00141263
106 *397:25 *737:117 0.000394696
107 *397:55 *737:143 0.00202981
108 *397:55 *737:151 1.33846e-05
109 *397:71 gpio_out[39] 0.000447764
110 *402:11 *737:41 0
111 *412:9 *737:79 0
112 *412:11 *737:55 0.000751601
113 *413:9 *737:79 0
114 *418:11 *737:65 0.000845532
115 *419:11 *737:81 0.00279973
116 *419:39 gpio_out[39] 0.000512133
117 *425:11 *737:73 0.00767647
118 *430:23 *737:127 0.000121926
119 *436:17 *737:81 0.00195074
120 *437:19 *737:55 0
121 *444:63 gpio_out[39] 0.00606059
122 *449:29 *737:73 0
123 *453:41 *737:65 0
124 *455:21 *737:57 0.00645189
125 *465:11 *737:41 0.00831697
126 *469:15 *737:117 0.00138955
127 *471:11 *737:73 0
128 *472:25 *737:31 0.00450955
129 *472:25 *737:39 4.65519e-05
130 *472:27 *737:31 0.00132334
131 *472:39 *737:9 0.0342704
132 *472:55 gpio_out[39] 0.00619147
133 *539:63 gpio_out[39] 0.00400163
134 *539:119 *737:151 0.000623258
135 *539:153 *737:99 0.000294103
136 *539:159 *737:89 0.0115516
137 *541:35 gpio_out[39] 0.000800373
138 *541:73 *737:151 4.22135e-06
139 *541:81 *737:143 0.000417718
140 *541:89 *737:143 0.0153509
141 *541:127 *737:17 0.00494245
142 *541:127 *737:31 0
143 *542:47 *737:17 0.00201995
144 *543:31 *737:65 0.0174268
145 *550:11 *737:127 0.000121926
146 *552:25 *737:81 0.026363
147 *556:29 *737:143 9.00639e-05
148 *688:11 *737:9 0.000827009
149 *693:109 *737:99 0.000247732
150 *693:109 *737:117 0.00799794
151 *693:139 *737:151 0
152 *693:187 gpio_out[39] 0.00038708
153 *693:187 *737:181 0.00611723
154 *730:13 *737:9 0.012728
155 *732:6 *737:9 0.0211054
156 *735:21 *737:9 0.00125972
157 *735:21 *737:15 0.000493415
158 *736:21 *737:9 0.0120119
159 *736:21 *737:15 0.000235405
*RES
1 *921:gpio_out[39] *737:7 4.68679 
2 *737:7 *737:9 204.14 
3 *737:9 *737:15 4.36723 
4 *737:15 *737:17 108.679 
5 *737:17 *737:31 49.8262 
6 *737:31 *737:39 17.9027 
7 *737:39 *737:41 103.946 
8 *737:41 *737:55 25.6326 
9 *737:55 *737:57 79.0536 
10 *737:57 *737:63 12.7765 
11 *737:63 *737:65 213.839 
12 *737:65 *737:71 7.58767 
13 *737:71 *737:73 490.696 
14 *737:73 *737:79 9.60553 
15 *737:79 *737:81 322.518 
16 *737:81 *737:87 8.5966 
17 *737:87 *737:89 144.018 
18 *737:89 *737:99 38.0431 
19 *737:99 *737:117 48.8467 
20 *737:117 *737:127 29.4199 
21 *737:127 *737:143 40.122 
22 *737:143 *737:151 43.3384 
23 *737:151 *737:155 48.4636 
24 *737:155 *737:181 47.9124 
25 *737:181 gpio_out[39] 31.4294 
*END

*D_NET *738 0.801768
*CONN
*P gpio_out[3] O
*I *921:gpio_out[3] O *D CF_CARAVEL_SOC
*CAP
1 gpio_out[3] 0.00544729
2 *921:gpio_out[3] 9.12097e-05
3 *738:15 0.0140582
4 *738:13 0.00861094
5 *738:11 0.0322709
6 *738:9 0.0323621
7 *738:11 *739:6 0.00181702
8 *738:11 *740:11 0.0299889
9 *738:11 *743:11 0.265018
10 gpio_holdover[3] gpio_out[3] 0
11 *90:11 *738:15 0.00567908
12 *104:9 gpio_out[3] 0.00232177
13 *161:15 *738:11 0.000348055
14 *162:15 *738:11 1.98839e-05
15 *247:11 *738:15 0.000563085
16 *391:33 *738:15 0.00183445
17 *436:23 *738:11 0.00207836
18 *694:6 *738:11 0.00334703
19 *694:10 *738:15 0.0507742
20 *727:11 *738:11 0.26882
21 *727:15 *738:15 0.0522538
22 *734:11 *738:11 0.0240643
*RES
1 *921:gpio_out[3] *738:9 5.45536 
2 *738:9 *738:11 2542.86 
3 *738:11 *738:13 4.5 
4 *738:13 *738:15 641.723 
5 *738:15 gpio_out[3] 15.6934 
*END

*D_NET *739 0.789634
*CONN
*P gpio_out[40] O
*I *921:gpio_out[40] O *D CF_CARAVEL_SOC
*CAP
1 gpio_out[40] 0.00279565
2 *921:gpio_out[40] 0
3 *739:130 0.00939995
4 *739:128 0.00719748
5 *739:122 0.00458726
6 *739:118 0.00707704
7 *739:116 0.00901451
8 *739:108 0.00846205
9 *739:92 0.00781785
10 *739:84 0.00582883
11 *739:76 0.00265117
12 *739:68 0.00289683
13 *739:60 0.00224999
14 *739:56 0.00354824
15 *739:46 0.00539877
16 *739:44 0.00529562
17 *739:40 0.0122755
18 *739:30 0.039486
19 *739:28 0.0326343
20 *739:18 0.0323734
21 *739:16 0.034301
22 *739:6 0.0279417
23 *739:4 0.0225727
24 gpio_out[40] *860:11 0.000406448
25 gpio_out[40] *865:11 0.000376927
26 gpio_out[40] *867:11 0.000376927
27 *739:6 *743:11 0.00139397
28 *739:68 *873:23 0
29 *739:76 *826:27 0.00163826
30 *739:92 *826:27 0.00146551
31 *739:108 *847:16 0.000654268
32 *739:122 *784:13 0.0285307
33 *739:122 *825:23 0.0285307
34 gpio_dm1[40] gpio_out[40] 0
35 gpio_dm2[40] gpio_out[40] 0
36 gpio_holdover[40] gpio_out[40] 0
37 *921:gpio_in[12] *739:108 8.29494e-05
38 *921:gpio_in[17] *739:108 0.000476629
39 *921:gpio_in[18] *739:108 0
40 *921:gpio_in[18] *739:116 0.000343643
41 *118:177 *739:116 0.000553064
42 *118:205 *739:60 0
43 *119:23 *739:130 0.0423817
44 *162:15 *739:6 0.0026989
45 *204:33 *739:6 0.00339271
46 *208:29 *739:130 0.0423817
47 *252:15 gpio_out[40] 0.00370834
48 *297:22 gpio_out[40] 0.00196551
49 *322:207 *739:108 0.000103071
50 *322:207 *739:116 1.90143e-05
51 *322:215 *739:108 0.000254454
52 *322:221 *739:92 7.05113e-05
53 *322:235 *739:84 0.000135663
54 *322:255 *739:76 0.0153943
55 *325:115 *739:108 0.00135583
56 *325:129 *739:92 0.0155556
57 *325:137 *739:76 0.0160383
58 *386:55 *739:76 4.56257e-05
59 *386:77 *739:108 0.000117506
60 *386:89 *739:116 0.000230474
61 *397:25 *739:60 0.000392644
62 *397:39 *739:76 0
63 *397:55 *739:84 0.00081492
64 *397:77 *739:118 0
65 *408:23 *739:68 0.000376948
66 *419:23 *739:84 0.00209862
67 *419:29 *739:118 0
68 *441:19 *739:68 0.00295574
69 *463:15 *739:68 0.00295235
70 *470:15 *739:108 0.000554024
71 *539:93 *739:116 0.0101327
72 *539:97 *739:116 0
73 *539:101 *739:108 0.000274382
74 *539:119 *739:76 0.000456179
75 *539:119 *739:84 0.0021019
76 *541:81 *739:76 1.37595e-05
77 *541:89 *739:68 0.000693596
78 *549:13 gpio_out[40] 0.000406448
79 *556:29 *739:76 2.43739e-05
80 *690:11 *739:6 0.00365843
81 *693:109 *739:60 0
82 *693:163 *739:92 0.000105542
83 *693:173 *739:108 0.000396806
84 *693:187 *739:116 0.00116585
85 *727:11 *739:6 0.00234474
86 *732:6 *739:6 0.10085
87 *733:6 *739:6 0.104127
88 *734:11 *739:6 0.00105051
89 *735:11 *739:6 0.0246113
90 *736:11 *739:6 0.0234929
91 *737:9 *739:6 0.00377587
92 *737:117 *739:60 0.000437213
93 *737:143 *739:76 0
94 *737:151 *739:84 0.000942477
95 *737:181 *739:108 0.000124752
96 *737:181 *739:116 0
97 *738:11 *739:6 0.00181702
*RES
1 *921:gpio_out[40] *739:4 3.41 
2 *739:4 *739:6 190.339 
3 *739:6 *739:16 47.7372 
4 *739:16 *739:18 102.745 
5 *739:18 *739:28 2.06958 
6 *739:28 *739:30 103.704 
7 *739:30 *739:40 45.6743 
8 *739:40 *739:44 9.97903 
9 *739:44 *739:46 67.5179 
10 *739:46 *739:56 32.4671 
11 *739:56 *739:60 36.8125 
12 *739:60 *739:68 45.6511 
13 *739:68 *739:76 40.2384 
14 *739:76 *739:84 39.5618 
15 *739:84 *739:92 34.8359 
16 *739:92 *739:108 45.6406 
17 *739:108 *739:116 45.6337 
18 *739:116 *739:118 46.875 
19 *739:118 *739:122 48.3545 
20 *739:122 *739:128 15.445 
21 *739:128 *739:130 67.069 
22 *739:130 gpio_out[40] 36.6769 
*END

*D_NET *740 0.865262
*CONN
*P gpio_out[41] O
*I *921:gpio_out[41] O *D CF_CARAVEL_SOC
*CAP
1 gpio_out[41] 0.000231329
2 *921:gpio_out[41] 0.000290528
3 *740:171 0.0038632
4 *740:169 0.00363187
5 *740:167 0.00281522
6 *740:165 0.0057267
7 *740:151 0.00409216
8 *740:145 0.00170519
9 *740:141 0.00129819
10 *740:133 0.00146501
11 *740:123 0.00216788
12 *740:121 0.00187803
13 *740:115 0.00182811
14 *740:113 0.00201438
15 *740:95 0.00180988
16 *740:93 0.00366533
17 *740:87 0.00341665
18 *740:85 0.00280782
19 *740:79 0.00897779
20 *740:77 0.00714341
21 *740:75 0.00438057
22 *740:73 0.00468962
23 *740:67 0.00411624
24 *740:65 0.00472504
25 *740:59 0.0141065
26 *740:57 0.0195273
27 *740:49 0.00783736
28 *740:31 0.00532594
29 *740:29 0.00402988
30 *740:23 0.00755813
31 *740:21 0.0131991
32 *740:11 0.0364323
33 *740:9 0.0308792
34 *740:11 *741:6 0.00552093
35 *740:11 *743:11 0.0278108
36 *740:21 *741:18 0
37 *740:21 *742:20 0.000413937
38 *740:21 *789:23 0
39 *740:113 *826:119 5.52238e-05
40 *740:133 *741:160 0.000167963
41 *740:167 *760:29 0
42 *740:167 *847:14 8.00017e-05
43 gpio_analog_sel[42] *740:167 0
44 gpio_analog_sel[43] *740:79 0.00696711
45 *118:11 *740:59 0.00320161
46 *118:19 *740:67 0.00602649
47 *118:19 *740:75 0
48 *118:27 *740:79 0.00536503
49 *118:39 *740:95 0.000801634
50 *125:15 *740:79 0.00426457
51 *161:15 *740:11 0.0450093
52 *162:15 *740:11 0.00344879
53 *204:33 *740:11 0.000327766
54 *228:11 *740:59 0.0262994
55 *236:11 *740:75 0.000577539
56 *242:9 *740:73 0
57 *245:9 *740:73 0
58 *245:11 *740:67 0.00222116
59 *248:19 *740:87 0.00808975
60 *250:11 *740:67 0.00010283
61 *251:11 *740:67 0.00135747
62 *251:11 *740:75 0
63 *251:15 *740:171 0.0135358
64 *253:11 *740:75 0.0216336
65 *284:23 *740:171 0.0247147
66 *285:11 *740:59 0.0185783
67 *290:9 *740:65 0
68 *296:11 *740:67 0.0178595
69 *322:35 *740:75 0.0175422
70 *322:101 *740:123 0.00141195
71 *322:141 *740:167 0
72 *325:23 *740:87 0.00809314
73 *325:61 *740:165 0.00407945
74 *386:175 *740:133 0.00266401
75 *386:175 *740:141 0.00154639
76 *386:191 *740:115 0.0019319
77 *386:191 *740:121 6.89975e-05
78 *386:191 *740:123 0
79 *386:205 *740:93 0
80 *397:109 *740:165 0.00116361
81 *397:109 *740:167 0
82 *397:127 *740:141 7.69776e-06
83 *397:135 *740:121 8.25843e-06
84 *397:135 *740:123 0.00913651
85 *397:149 *740:115 0.00128923
86 *408:45 *740:165 0
87 *408:61 *740:141 0.000837545
88 *419:117 *740:167 0
89 *419:133 *740:133 0.000676678
90 *436:23 *740:11 0.0556372
91 *444:23 *740:95 0.00802327
92 *529:9 *740:79 0.00856697
93 *530:43 *740:141 0.0019552
94 *530:53 *740:133 4.43326e-05
95 *530:53 *740:141 0.00110533
96 *530:55 *740:123 0
97 *530:55 *740:133 0.00328558
98 *532:30 *740:113 6.74815e-05
99 *533:40 *740:167 0
100 *533:48 *740:165 0.000619742
101 *533:52 *740:151 0.00130581
102 *533:54 *740:145 0.00302273
103 *533:54 *740:151 0.000671886
104 *533:68 *740:141 0.000189503
105 *533:70 *740:123 0.0075266
106 *533:94 *740:113 0
107 *535:35 *740:151 0.000731393
108 *535:59 *740:141 7.58103e-05
109 *535:59 *740:145 1.39726e-05
110 *536:143 *740:49 0.000313209
111 *536:145 *740:23 0.00731591
112 *536:145 *740:49 0.000494457
113 *537:24 *740:121 0
114 *537:26 *740:115 0.00202774
115 *537:26 *740:121 1.33343e-05
116 *537:116 *740:49 0.000131496
117 *538:139 *740:31 0.0026978
118 *540:18 *740:165 0.000322278
119 *540:34 *740:113 0.000727158
120 *541:13 *740:165 0.00782074
121 *541:15 *740:167 0.00329679
122 *551:93 *740:141 8.22793e-06
123 *551:95 *740:123 0.000865176
124 *559:17 *740:85 0.00114617
125 *561:12 *740:79 0.00625335
126 *562:81 *740:145 0.00160178
127 *563:10 *740:79 0.00305281
128 *565:13 *740:87 0.00185968
129 *567:14 *740:79 0.00433839
130 *568:11 *740:79 0.00465447
131 *569:18 *740:123 0
132 *572:16 *740:79 0.00611625
133 *690:11 *740:11 0.000427239
134 *692:9 *740:21 0.00024661
135 *692:35 *740:171 0.00546716
136 *694:6 *740:11 0.115293
137 *695:17 *740:21 0.00403498
138 *695:27 *740:23 0.00884367
139 *695:33 *740:29 0.000297536
140 *695:35 *740:57 0.00751985
141 *696:31 *740:57 0.00750098
142 *696:95 *740:95 0.00261183
143 *696:103 *740:145 7.49387e-06
144 *696:103 *740:151 0.00355539
145 *696:133 *740:167 0
146 *697:11 *740:31 0
147 *697:37 *740:49 0.0011025
148 *697:109 *740:79 0.0133371
149 *697:113 *740:85 0.000643223
150 *727:11 *740:11 0.00395968
151 *738:11 *740:11 0.0299889
*RES
1 *921:gpio_out[41] *740:9 5.64214 
2 *740:9 *740:11 212.86 
3 *740:11 *740:21 39.5743 
4 *740:21 *740:23 212.625 
5 *740:23 *740:29 7.44353 
6 *740:29 *740:31 77.8393 
7 *740:31 *740:49 30.4764 
8 *740:49 *740:57 29.5912 
9 *740:57 *740:59 97.4185 
10 *740:59 *740:65 8.77677 
11 *740:65 *740:67 219.304 
12 *740:67 *740:73 7.65973 
13 *740:73 *740:75 265.446 
14 *740:75 *740:77 3.41 
15 *740:77 *740:79 50.7099 
16 *740:79 *740:85 42.1868 
17 *740:85 *740:87 76.5179 
18 *740:87 *740:93 44.3393 
19 *740:93 *740:95 75.2857 
20 *740:95 *740:113 31.375 
21 *740:113 *740:115 54.9554 
22 *740:115 *740:121 7.84821 
23 *740:121 *740:123 92.125 
24 *740:123 *740:133 43.5268 
25 *740:133 *740:141 48.4375 
26 *740:141 *740:145 29.5 
27 *740:145 *740:151 49.0982 
28 *740:151 *740:165 37.3291 
29 *740:165 *740:167 53.4018 
30 *740:167 *740:169 4.5 
31 *740:169 *740:171 233.821 
32 *740:171 gpio_out[41] 8.19643 
*END

*D_NET *741 0.698451
*CONN
*P gpio_out[42] O
*I *921:gpio_out[42] O *D CF_CARAVEL_SOC
*CAP
1 gpio_out[42] 0.00372569
2 *921:gpio_out[42] 0
3 *741:164 0.00688623
4 *741:160 0.00544043
5 *741:148 0.00644529
6 *741:132 0.00622368
7 *741:126 0.00805509
8 *741:124 0.0059968
9 *741:122 0.00297193
10 *741:120 0.00717111
11 *741:112 0.0126853
12 *741:98 0.0160217
13 *741:96 0.00903974
14 *741:90 0.0142808
15 *741:88 0.0147207
16 *741:74 0.0107988
17 *741:72 0.0117888
18 *741:56 0.00552652
19 *741:34 0.00412875
20 *741:32 0.00194804
21 *741:26 0.020292
22 *741:24 0.0207463
23 *741:18 0.00821952
24 *741:6 0.0285688
25 *741:4 0.0212155
26 gpio_out[42] *848:11 0.000254013
27 gpio_out[42] *867:11 0.00344319
28 *741:6 *742:6 0.129525
29 *741:18 *742:20 0
30 *741:18 *742:32 0
31 *741:26 *742:48 0
32 *741:34 *742:58 0.000742769
33 *741:56 *742:58 0.00438321
34 *741:56 *742:90 2.0514e-05
35 *741:74 *742:90 0.00197835
36 *741:88 *742:106 0.00101716
37 *741:90 *742:106 0
38 *741:90 *742:108 0.00216318
39 *741:126 *742:120 0.0385049
40 *741:126 *857:11 0.00789742
41 *741:126 *863:11 0.00851594
42 *741:148 *826:93 0.000294815
43 *741:148 *826:95 0.000909446
44 *741:148 *839:39 2.36268e-05
45 gpio_analog_sel[43] *741:148 0.000598175
46 *118:65 *741:148 0
47 *118:87 *741:164 0
48 *204:33 *741:6 0.00407126
49 *207:31 gpio_out[42] 0.000237224
50 *252:15 gpio_out[42] 0.00842454
51 *322:101 *741:148 7.90634e-05
52 *325:51 *741:164 0
53 *336:31 *741:160 0.00137346
54 *386:189 *741:148 0.002785
55 *408:63 *741:148 0.00104619
56 *419:133 *741:148 2.02078e-05
57 *444:53 *741:160 0.00162542
58 *530:55 *741:148 0.0011483
59 *533:122 *741:88 8.95413e-05
60 *533:128 *741:88 0
61 *533:156 *741:72 0.000557445
62 *533:158 *741:56 0.00065338
63 *535:59 *741:148 0.00588507
64 *535:59 *741:160 0.00197357
65 *535:91 *741:148 0.000108912
66 *536:33 *741:164 0
67 *536:89 *741:74 0.00313146
68 *536:117 *741:72 0.000160129
69 *536:121 *741:34 0
70 *537:76 *741:120 0
71 *537:86 *741:72 0.00142934
72 *537:100 *741:56 0
73 *538:55 *741:122 0.00173602
74 *538:73 *741:120 0
75 *538:79 *741:98 0
76 *538:93 *741:88 0.000302578
77 *538:121 *741:56 0.000304303
78 *538:123 *741:56 0.000264522
79 *538:137 *741:56 0.000232538
80 *540:32 *741:148 0
81 *549:13 gpio_out[42] 0.00318532
82 *551:121 *741:120 0
83 *560:9 *741:122 0
84 *562:89 *741:160 0.00451365
85 *562:91 *741:148 0.00106489
86 *690:11 *741:6 0.00439011
87 *692:35 gpio_out[42] 0.000819512
88 *693:11 *741:6 0.00183608
89 *694:6 *741:6 0.00176203
90 *695:35 *741:72 0
91 *695:53 *741:72 0
92 *695:53 *741:74 0.000951747
93 *695:55 *741:98 0.00384253
94 *695:55 *741:112 0
95 *696:31 *741:72 0.000739754
96 *696:35 *741:72 0.000299962
97 *696:43 *741:112 0.00159947
98 *696:67 *741:122 0.0003876
99 *697:39 *741:26 0
100 *697:45 *741:32 0
101 *697:47 *741:34 0.00408737
102 *697:73 *741:56 0.00104254
103 *697:73 *741:74 0.000140288
104 *697:77 *741:74 0.00912788
105 *697:85 *741:88 0.00214681
106 *697:115 gpio_out[42] 0.0143107
107 *697:115 *741:126 0.026026
108 *698:27 *741:126 0.0066279
109 *699:6 *741:6 0.113051
110 *740:11 *741:6 0.00552093
111 *740:21 *741:18 0
112 *740:133 *741:160 0.000167963
*RES
1 *921:gpio_out[42] *741:4 3.41 
2 *741:4 *741:6 209.581 
3 *741:6 *741:18 47.9512 
4 *741:18 *741:24 9.64157 
5 *741:24 *741:26 406.304 
6 *741:26 *741:32 8.02007 
7 *741:32 *741:34 49.9107 
8 *741:34 *741:56 45.5332 
9 *741:56 *741:72 26.5493 
10 *741:72 *741:74 52.5679 
11 *741:74 *741:88 22.335 
12 *741:88 *741:90 48.2001 
13 *741:90 *741:96 11.4432 
14 *741:96 *741:98 154.339 
15 *741:98 *741:112 42.6609 
16 *741:112 *741:120 46.5322 
17 *741:120 *741:122 55.375 
18 *741:122 *741:124 3.41 
19 *741:124 *741:126 60.6551 
20 *741:126 *741:132 33.3743 
21 *741:132 *741:148 48.9758 
22 *741:148 *741:160 31.0978 
23 *741:160 *741:164 49.0707 
24 *741:164 gpio_out[42] 34.0451 
*END

*D_NET *742 0.596448
*CONN
*P gpio_out[43] O
*I *921:gpio_out[43] O *D CF_CARAVEL_SOC
*CAP
1 gpio_out[43] 0.000131993
2 *921:gpio_out[43] 0
3 *742:120 0.0086127
4 *742:118 0.0202332
5 *742:108 0.0300139
6 *742:106 0.0225473
7 *742:96 0.0172797
8 *742:90 0.0183003
9 *742:58 0.0157199
10 *742:48 0.0123238
11 *742:34 0.0154408
12 *742:32 0.0182261
13 *742:20 0.00652361
14 *742:6 0.024677
15 *742:4 0.0228492
16 gpio_holdover[43] gpio_out[43] 0
17 *120:15 *742:120 0.00992366
18 *284:23 *742:120 0.000191294
19 *533:122 *742:106 0.000831302
20 *533:122 *742:108 0
21 *533:128 *742:106 0
22 *533:156 *742:90 0.00282983
23 *533:158 *742:58 0.0017727
24 *533:172 *742:58 0
25 *536:117 *742:90 0
26 *536:145 *742:34 0
27 *537:86 *742:90 0.000513058
28 *537:108 *742:58 0.000341207
29 *538:43 *742:120 0.00620725
30 *538:121 *742:58 0.000101375
31 *538:121 *742:90 0
32 *538:137 *742:58 0.000447682
33 *692:35 *742:120 0.00157649
34 *693:11 *742:6 0.000144017
35 *695:25 *742:32 0.000983742
36 *695:53 *742:90 0.000734906
37 *695:55 *742:96 4.71804e-05
38 *695:61 *742:118 0
39 *695:75 *742:120 0.0320422
40 *696:15 *742:32 7.05814e-05
41 *696:21 *742:32 0
42 *697:37 *742:48 0.00014301
43 *697:37 *742:58 3.35973e-05
44 *697:47 *742:58 0.00182955
45 *697:73 *742:58 0.00551038
46 *697:73 *742:90 0.0012573
47 *697:77 *742:90 0.000108583
48 *697:85 *742:96 9.99401e-05
49 *697:95 *742:108 0.00201132
50 *697:115 *742:120 0.00198661
51 *698:27 *742:120 0.00227406
52 *699:6 *742:6 0.000362904
53 *700:6 *742:6 0.110443
54 *740:21 *742:20 0.000413937
55 *741:6 *742:6 0.129525
56 *741:18 *742:20 0
57 *741:18 *742:32 0
58 *741:26 *742:48 0
59 *741:34 *742:58 0.000742769
60 *741:56 *742:58 0.00438321
61 *741:56 *742:90 2.0514e-05
62 *741:74 *742:90 0.00197835
63 *741:88 *742:106 0.00101716
64 *741:90 *742:106 0
65 *741:90 *742:108 0.00216318
66 *741:126 *742:120 0.0385049
*RES
1 *921:gpio_out[43] *742:4 3.41 
2 *742:4 *742:6 205.473 
3 *742:6 *742:20 40.3847 
4 *742:20 *742:32 33.2434 
5 *742:32 *742:34 48.6262 
6 *742:34 *742:48 47.9005 
7 *742:48 *742:58 49.8125 
8 *742:58 *742:90 49.9403 
9 *742:90 *742:96 46.8841 
10 *742:96 *742:106 24.2382 
11 *742:106 *742:108 66.5865 
12 *742:108 *742:118 43.9447 
13 *742:118 *742:120 79.7167 
14 *742:120 gpio_out[43] 5.4725 
*END

*D_NET *743 0.749344
*CONN
*P gpio_out[4] O
*I *921:gpio_out[4] O *D CF_CARAVEL_SOC
*CAP
1 gpio_out[4] 0.00662855
2 *921:gpio_out[4] 0.00014139
3 *743:15 0.0125045
4 *743:13 0.00587599
5 *743:11 0.0316047
6 *743:9 0.0317461
7 gpio_out[4] gpio_vtrip_sel[4] 0
8 gpio_holdover[4] gpio_out[4] 0
9 *92:11 *743:15 0.00478379
10 *161:15 *743:11 0.000348055
11 *170:17 gpio_out[4] 0.000134991
12 *436:23 *743:11 0.265025
13 *661:19 *743:15 0.0356429
14 *672:15 *743:15 0.0356442
15 *694:6 *743:11 0.00338385
16 *734:11 *743:11 0.0216568
17 *738:11 *743:11 0.265018
18 *739:6 *743:11 0.00139397
19 *740:11 *743:11 0.0278108
*RES
1 *921:gpio_out[4] *743:9 5.75893 
2 *743:9 *743:11 2506.3 
3 *743:11 *743:13 4.5 
4 *743:13 *743:15 438.027 
5 *743:15 gpio_out[4] 17.3573 
*END

*D_NET *744 0.817605
*CONN
*P gpio_out[5] O
*I *921:gpio_out[5] O *D CF_CARAVEL_SOC
*CAP
1 gpio_out[5] 0.00664788
2 *921:gpio_out[5] 0.000340243
3 *744:15 0.0101019
4 *744:13 0.00345406
5 *744:11 0.0780431
6 *744:9 0.0783833
7 gpio_dm2[5] gpio_out[5] 0
8 gpio_holdover[5] gpio_out[5] 0.0014263
9 *95:17 *744:11 0.00293943
10 *107:25 *744:11 2.14879e-05
11 *112:25 *744:11 2.1479e-05
12 *115:15 *744:11 0.0551497
13 *116:53 *744:11 0.000525078
14 *139:17 *744:11 0.000147446
15 *141:9 gpio_out[5] 0.00067694
16 *163:23 *744:11 0.0594774
17 *198:25 *744:11 1.00452e-05
18 *291:15 *744:11 0.0551497
19 *314:19 *744:15 0
20 *352:11 *744:15 0.00367994
21 *393:23 *744:11 0.0044668
22 *437:31 *744:11 0.118938
23 *534:15 *744:15 0.0202085
24 *683:11 *744:11 0.0112314
25 *688:11 *744:11 0.239289
26 *699:10 *744:15 0.0197918
27 *700:10 *744:15 3.75428e-05
28 *701:11 *744:11 0.0172361
29 *716:11 *744:11 0.00477732
30 *737:9 *744:11 0.0254331
*RES
1 *921:gpio_out[5] *744:9 8.67786 
2 *744:9 *744:11 433.24 
3 *744:11 *744:13 3.41 
4 *744:13 *744:15 248.446 
5 *744:15 gpio_out[5] 18.0669 
*END

*D_NET *745 0.631492
*CONN
*P gpio_out[6] O
*I *921:gpio_out[6] O *D CF_CARAVEL_SOC
*CAP
1 gpio_out[6] 0.00660732
2 *921:gpio_out[6] 0.000850466
3 *745:15 0.00758393
4 *745:13 0.000976604
5 *745:11 0.0422721
6 *745:9 0.0431225
7 gpio_out[6] *788:25 0.000243217
8 gpio_holdover[6] gpio_out[6] 0.000409289
9 *92:11 *745:15 0.000519182
10 *99:15 *745:11 0.0124538
11 *101:15 *745:11 0.00408302
12 *102:19 *745:15 0
13 *104:31 *745:11 0.0446185
14 *114:23 *745:11 0.00666779
15 *141:29 *745:11 0.0187746
16 *203:15 *745:11 0.0144373
17 *227:17 *745:11 0.00326316
18 *286:35 *745:11 0.0181604
19 *328:59 *745:11 0.00252103
20 *407:19 *745:11 0.00593372
21 *570:26 *745:15 0.00407163
22 *661:19 *745:15 0.00369111
23 *689:11 *745:11 0.13753
24 *691:11 *745:11 0.251709
25 *705:21 *745:11 0.000944559
26 *705:33 *745:11 4.73891e-05
*RES
1 *921:gpio_out[6] *745:9 16.5707 
2 *745:9 *745:11 429.132 
3 *745:11 *745:13 3.41 
4 *745:13 *745:15 51.125 
5 *745:15 gpio_out[6] 17.3573 
*END

*D_NET *746 0.352358
*CONN
*P gpio_out[7] O
*I *921:gpio_out[7] O *D CF_CARAVEL_SOC
*CAP
1 gpio_out[7] 3.2894e-05
2 *921:gpio_out[7] 8.74952e-05
3 *746:13 0.138909
4 *746:11 0.138876
5 *746:9 0.0371826
6 *746:7 0.0372701
7 *746:13 *834:15 0
8 gpio_dm2[7] *746:13 0
9 gpio_holdover[7] *746:13 0
*RES
1 *921:gpio_out[7] *746:7 1.60714 
2 *746:7 *746:9 747.518 
3 *746:9 *746:11 3.41 
4 *746:11 *746:13 437.503 
5 *746:13 gpio_out[7] 0.11045 
*END

*D_NET *747 0.335887
*CONN
*P gpio_out[8] O
*I *920:count[0] O *D counter_macro
*CAP
1 gpio_out[8] 0.00173122
2 *920:count[0] 1.3106e-05
3 *747:11 0.134757
4 *747:9 0.133025
5 *747:7 0.0268496
6 *747:5 0.0268627
7 gpio_analog_sel[8] *747:11 0
8 gpio_dm2[8] gpio_out[8] 6.78403e-05
9 gpio_holdover[8] gpio_out[8] 0.000259645
10 gpio_holdover[8] *747:11 0.0123213
11 *140:213 *747:11 0
12 *268:11 gpio_out[8] 0
13 *311:11 gpio_out[8] 0
*RES
1 *920:count[0] *747:5 0.267857 
2 *747:5 *747:7 544.125 
3 *747:7 *747:9 3.41 
4 *747:9 *747:11 428.988 
5 *747:11 gpio_out[8] 14.2155 
*END

*D_NET *748 0.523118
*CONN
*P gpio_out[9] O
*I *920:count[1] O *D counter_macro
*CAP
1 gpio_out[9] 0.000103814
2 *920:count[1] 1.3106e-05
3 *748:11 0.084498
4 *748:9 0.0843942
5 *748:7 0.0369028
6 *748:5 0.0369159
7 *748:11 *836:15 0
8 gpio_holdover[9] *748:11 0.277709
9 *538:289 *748:11 0.00258072
*RES
1 *920:count[1] *748:5 0.267857 
2 *748:5 *748:7 748.125 
3 *748:7 *748:9 3.41 
4 *748:9 *748:11 430.368 
5 *748:11 gpio_out[9] 0.348583 
*END

*D_NET *749 0.595228
*CONN
*P gpio_slow_sel[0] O
*I *921:gpio_slow_sel[0] O *D CF_CARAVEL_SOC
*CAP
1 gpio_slow_sel[0] 0.0017536
2 *921:gpio_slow_sel[0] 0.00217347
3 *749:31 0.00998316
4 *749:29 0.00822956
5 *749:27 0.0929436
6 *749:25 0.0941074
7 *749:11 0.0205685
8 *749:9 0.0215782
9 *749:9 *830:9 0
10 *749:9 *836:11 0.000255549
11 *749:11 *771:11 0.069702
12 *749:11 *846:39 0
13 *749:25 *771:11 1.49724e-05
14 *749:25 *771:25 0.00126425
15 *749:25 *846:39 0
16 *749:25 *864:15 0
17 *119:15 *749:27 8.71731e-05
18 *119:23 *749:27 0.0212556
19 *120:11 *749:31 0
20 *167:19 *749:27 0.0179243
21 *207:39 *749:27 0.00331949
22 *208:21 *749:27 0.0187638
23 *289:23 *749:27 0.0110171
24 *336:55 *749:27 0.00234655
25 *353:35 *749:31 0.000769854
26 *388:11 *749:25 0.00246427
27 *425:11 *749:11 0.00392311
28 *435:23 *749:27 0
29 *455:25 *749:27 0.0731323
30 *459:23 *749:25 2.06112e-05
31 *462:23 *749:27 0.0120205
32 *464:21 *749:25 4.19535e-05
33 *464:23 *749:27 0.00116658
34 *468:27 *749:25 0.0001115
35 *471:11 *749:11 0
36 *481:15 *749:27 0
37 *529:13 *749:31 0.0179816
38 *541:107 *749:25 4.58194e-05
39 *543:23 *749:11 0.00479925
40 *544:13 *749:27 0
41 *553:13 *749:27 0
42 *571:27 *749:27 0.049888
43 *737:73 *749:11 0.0315747
*RES
1 *921:gpio_slow_sel[0] *749:9 8.24787 
2 *749:9 *749:11 853.768 
3 *749:11 *749:25 48.1696 
4 *749:25 *749:27 2723.16 
5 *749:27 *749:29 4.5 
6 *749:29 *749:31 247.991 
7 *749:31 gpio_slow_sel[0] 7.21622 
*END

*D_NET *750 0.72255
*CONN
*P gpio_slow_sel[10] O
*I *921:gpio_slow_sel[10] O *D CF_CARAVEL_SOC
*CAP
1 gpio_slow_sel[10] 0.000157938
2 *921:gpio_slow_sel[10] 0.000796204
3 *750:15 0.151077
4 *750:13 0.150919
5 *750:11 0.0633451
6 *750:9 0.0641413
7 *750:9 *751:9 0
8 *750:9 *792:9 0
9 *750:9 *836:11 0.000255549
10 *750:11 *752:11 0.161316
11 *750:11 *764:11 0.000106304
12 *750:11 *784:9 0
13 *750:11 *786:11 0.0168614
14 *750:11 *794:11 0
15 gpio_dm1[10] *750:15 0
16 *116:67 *750:11 0.014776
17 *399:19 *750:11 0.0406238
18 *400:17 *750:9 0
19 *400:19 *750:11 0.0341431
20 *401:11 *750:11 0.000125685
21 *403:11 *750:11 0.00619291
22 *405:11 *750:11 0.0162784
23 *406:11 *750:11 0.000936918
24 *407:11 *750:11 0.000390707
25 *454:25 *750:11 0.000106304
*RES
1 *921:gpio_slow_sel[10] *750:9 5.2571 
2 *750:9 *750:11 333.177 
3 *750:11 *750:13 3.41 
4 *750:13 *750:15 478.04 
5 *750:15 gpio_slow_sel[10] 0.530317 
*END

*D_NET *751 0.710618
*CONN
*P gpio_slow_sel[11] O
*I *921:gpio_slow_sel[11] O *D CF_CARAVEL_SOC
*CAP
1 gpio_slow_sel[11] 5.90225e-05
2 *921:gpio_slow_sel[11] 0.00172494
3 *751:15 0.151437
4 *751:13 0.151378
5 *751:11 0.026821
6 *751:9 0.028546
7 *751:11 *797:19 0.171107
8 *751:11 *819:11 0.00654742
9 *161:19 *751:11 0.00211078
10 *354:11 *751:11 0.000272853
11 *356:11 *751:11 0.148908
12 *449:29 *751:11 0.0217071
13 *750:9 *751:9 0
*RES
1 *921:gpio_slow_sel[11] *751:9 7.24207 
2 *751:9 *751:11 2096.59 
3 *751:11 *751:13 3.41 
4 *751:13 *751:15 480.238 
5 *751:15 gpio_slow_sel[11] 0.198183 
*END

*D_NET *752 0.748517
*CONN
*P gpio_slow_sel[12] O
*I *921:gpio_slow_sel[12] O *D CF_CARAVEL_SOC
*CAP
1 gpio_slow_sel[12] 0.00026733
2 *921:gpio_slow_sel[12] 0.000746923
3 *752:15 0.161854
4 *752:13 0.161587
5 *752:11 0.0857463
6 *752:9 0.0864932
7 *752:9 *753:9 0
8 *752:9 *836:11 0.000255549
9 *752:11 *756:6 0
10 *752:11 *758:9 0
11 *752:11 *784:9 0
12 *752:11 *794:11 0
13 *752:11 *836:11 0
14 *140:281 *752:15 0.00107958
15 *160:27 *752:11 0.00343722
16 *399:19 *752:11 0.00877693
17 *400:19 *752:11 0.00830426
18 *401:11 *752:11 0.0322912
19 *444:9 *752:15 0
20 *450:13 *752:11 0.0361093
21 *541:125 *752:11 0.000251371
22 *750:11 *752:11 0.161316
*RES
1 *921:gpio_slow_sel[12] *752:9 5.11297 
2 *752:9 *752:11 401.252 
3 *752:11 *752:13 3.41 
4 *752:13 *752:15 477.896 
5 *752:15 gpio_slow_sel[12] 0.82485 
*END

*D_NET *753 1.13361
*CONN
*P gpio_slow_sel[13] O
*I *921:gpio_slow_sel[13] O *D CF_CARAVEL_SOC
*CAP
1 gpio_slow_sel[13] 0.00817238
2 *921:gpio_slow_sel[13] 0.00361144
3 *753:19 0.071711
4 *753:17 0.0635386
5 *753:15 0.0333336
6 *753:13 0.0333336
7 *753:11 0.00940777
8 *753:9 0.0130192
9 *753:9 *754:9 0
10 *753:11 *768:11 0.000630264
11 *753:11 *803:11 0.049188
12 *753:15 *754:23 0.280468
13 *753:15 *757:15 0.0168231
14 *753:15 *761:15 0.0178114
15 *753:19 *754:27 0.168781
16 *140:75 *753:19 0.000584677
17 *157:39 *753:19 0.0112459
18 *195:31 *753:19 0.0101605
19 *202:27 *753:15 0.042935
20 *365:11 *753:11 0
21 *399:17 *753:9 3.1341e-05
22 *420:11 *753:11 0.00748142
23 *440:31 *753:15 0.249092
24 *445:9 gpio_slow_sel[13] 0
25 *469:11 *753:11 0.00684141
26 *688:15 *753:11 0.0292662
27 *733:10 *753:11 0.00613982
28 *752:9 *753:9 0
*RES
1 *921:gpio_slow_sel[13] *753:9 11.4971 
2 *753:9 *753:11 618.955 
3 *753:11 *753:13 4.5 
4 *753:13 *753:15 2636.91 
5 *753:15 *753:17 4.5 
6 *753:17 *753:19 2064.87 
7 *753:19 gpio_slow_sel[13] 25.8345 
*END

*D_NET *754 1.02478
*CONN
*P gpio_slow_sel[14] O
*I *921:gpio_slow_sel[14] O *D CF_CARAVEL_SOC
*CAP
1 gpio_slow_sel[14] 0.00795111
2 *921:gpio_slow_sel[14] 0.00621841
3 *754:27 0.091203
4 *754:25 0.0832519
5 *754:23 0.0852971
6 *754:21 0.0877549
7 *754:11 0.0124085
8 *754:9 0.016169
9 *754:11 *773:11 0.00161905
10 *754:11 *802:11 0.0478943
11 *754:21 *757:11 0
12 *754:23 *761:15 0.0194096
13 gpio_dm1[14] gpio_slow_sel[14] 0
14 *157:39 *754:27 0.00905091
15 *162:27 *754:11 0.0454882
16 *195:31 *754:27 0.0191439
17 *202:27 *754:23 0.0397224
18 *290:15 *754:21 0
19 *362:11 *754:21 0.000469582
20 *369:17 *754:21 0.000439783
21 *394:19 *754:27 0
22 *396:11 *754:11 0.000228745
23 *440:23 *754:21 0.000927638
24 *472:25 *754:11 0.000123945
25 *730:19 *754:21 0.000760904
26 *753:9 *754:9 0
27 *753:15 *754:23 0.280468
28 *753:19 *754:27 0.168781
*RES
1 *921:gpio_slow_sel[14] *754:9 16.758 
2 *754:9 *754:11 607.268 
3 *754:11 *754:21 23.177 
4 *754:21 *754:23 2633.62 
5 *754:23 *754:25 4.5 
6 *754:25 *754:27 2464.67 
7 *754:27 gpio_slow_sel[14] 25.5744 
*END

*D_NET *755 0.784105
*CONN
*P gpio_slow_sel[15] O
*I *921:gpio_slow_sel[15] O *D CF_CARAVEL_SOC
*CAP
1 gpio_slow_sel[15] 8.6667e-05
2 *921:gpio_slow_sel[15] 0.00285826
3 *755:19 0.130361
4 *755:17 0.130274
5 *755:15 0.135978
6 *755:13 0.135978
7 *755:11 0.0083291
8 *755:9 0.0111874
9 *755:9 *836:11 0.000255549
10 *755:15 *757:15 0
11 *292:27 *755:11 0.00440059
12 *322:309 *755:11 0.00961298
13 *357:17 *755:11 0.00180467
14 *361:11 *755:11 0.00224338
15 *370:11 *755:11 0.00245812
16 *394:15 *755:15 0.124662
17 *438:19 *755:11 0.0489144
18 *440:31 *755:15 0
19 *555:17 *755:11 0.0347003
*RES
1 *921:gpio_slow_sel[15] *755:9 9.61713 
2 *755:9 *755:11 601.652 
3 *755:11 *755:13 4.5 
4 *755:13 *755:15 2587.62 
5 *755:15 *755:17 4.5 
6 *755:17 *755:19 2649.85 
7 *755:19 gpio_slow_sel[15] 1.60714 
*END

*D_NET *756 0.687536
*CONN
*P gpio_slow_sel[16] O
*I *921:gpio_slow_sel[16] O *D CF_CARAVEL_SOC
*CAP
1 gpio_slow_sel[16] 0.00860887
2 *921:gpio_slow_sel[16] 0
3 *756:12 0.00860887
4 *756:10 0.107113
5 *756:8 0.107113
6 *756:6 0.116696
7 *756:4 0.116696
8 *756:6 *764:9 0.000360771
9 *756:6 *766:9 0.000360771
10 *756:6 *836:11 0.146257
11 *206:51 *756:6 0.00196713
12 *364:17 *756:6 0.000360771
13 *370:9 *756:6 0.000284346
14 *371:9 *756:6 0.000207921
15 *376:9 *756:6 0.000360771
16 *382:9 *756:6 0.000360771
17 *386:9 *756:6 0.000360771
18 *388:9 *756:6 0.000284346
19 *389:9 *756:6 0.000284346
20 *453:17 *756:6 0.0156054
21 *454:39 *756:6 0.00978866
22 *538:369 *756:10 0
23 *542:47 *756:6 0.0286313
24 *543:39 *756:6 0
25 *721:13 *756:10 0.0166666
26 *737:31 *756:6 0.000557793
27 *752:11 *756:6 0
*RES
1 *921:gpio_slow_sel[16] *756:4 3.41 
2 *756:4 *756:6 539.479 
3 *756:6 *756:8 3.41 
4 *756:8 *756:10 368.632 
5 *756:10 *756:12 3.41 
6 *756:12 gpio_slow_sel[16] 174.92 
*END

*D_NET *757 0.857413
*CONN
*P gpio_slow_sel[17] O
*I *921:gpio_slow_sel[17] O *D CF_CARAVEL_SOC
*CAP
1 gpio_slow_sel[17] 0.000875965
2 *921:gpio_slow_sel[17] 0.00306032
3 *757:19 0.0825533
4 *757:17 0.0816774
5 *757:15 0.0622915
6 *757:13 0.0622915
7 *757:11 0.00940459
8 *757:9 0.0124649
9 *757:9 *758:7 0
10 *757:11 *765:11 0.0420155
11 *757:15 *759:15 0.0169539
12 gpio_analog_en[17] *757:19 0.216244
13 gpio_ib_mode_sel[35] *757:9 0.000507294
14 *202:27 *757:15 0.00464383
15 *293:27 *757:11 0
16 *334:36 *757:15 0.0188968
17 *362:11 *757:11 0
18 *384:11 *757:11 0
19 *414:11 *757:11 0.00669683
20 *415:11 *757:11 0.0483238
21 *440:31 *757:15 0.171675
22 *537:250 gpio_slow_sel[17] 0
23 *737:71 *757:9 1.39178e-05
24 *753:15 *757:15 0.0168231
25 *754:21 *757:11 0
26 *755:15 *757:15 0
*RES
1 *921:gpio_slow_sel[17] *757:9 10.5603 
2 *757:9 *757:11 594.062 
3 *757:11 *757:13 4.5 
4 *757:13 *757:15 1898.04 
5 *757:15 *757:17 4.5 
6 *757:17 *757:19 2646.36 
7 *757:19 gpio_slow_sel[17] 24.9107 
*END

*D_NET *758 0.572652
*CONN
*P gpio_slow_sel[18] O
*I *921:gpio_slow_sel[18] O *D CF_CARAVEL_SOC
*CAP
1 gpio_slow_sel[18] 0.109232
2 *921:gpio_slow_sel[18] 0.000237563
3 *758:15 0.109232
4 *758:13 0.0746635
5 *758:11 0.0746635
6 *758:9 0.0327938
7 *758:7 0.0330314
8 *758:9 *784:9 0.0118488
9 *758:9 *831:27 0.00468492
10 *758:9 *836:11 0.0413677
11 *160:27 *758:9 0.027663
12 *274:345 gpio_slow_sel[18] 0
13 *278:15 *758:13 0
14 *279:15 *758:13 0
15 *449:13 *758:9 0.00760328
16 *453:17 *758:9 0.00957041
17 *538:397 gpio_slow_sel[18] 0
18 *542:39 *758:9 0.00082713
19 *675:11 *758:13 0.0352331
20 *676:11 *758:13 0
21 *752:11 *758:9 0
22 *757:9 *758:7 0
*RES
1 *921:gpio_slow_sel[18] *758:7 3.8659 
2 *758:7 *758:9 178.544 
3 *758:9 *758:11 3.41 
4 *758:11 *758:13 259.091 
5 *758:13 *758:15 3.41 
6 *758:15 gpio_slow_sel[18] 2219.78 
*END

*D_NET *759 0.690104
*CONN
*P gpio_slow_sel[19] O
*I *921:gpio_slow_sel[19] O *D CF_CARAVEL_SOC
*CAP
1 gpio_slow_sel[19] 0.00184767
2 *921:gpio_slow_sel[19] 0.0046083
3 *759:19 0.094839
4 *759:17 0.0929913
5 *759:15 0.0165264
6 *759:13 0.0165264
7 *759:11 0.00985502
8 *759:9 0.0144633
9 *759:9 *761:9 0
10 *759:11 *774:11 0.00374071
11 *759:11 *779:11 0.00874527
12 *759:11 *788:11 0.0442349
13 *759:15 *761:15 0.0958376
14 gpio_analog_en[19] *759:19 0
15 gpio_analog_pol[19] *759:19 0
16 gpio_dm0[19] *759:19 0.0838343
17 gpio_out[35] *759:9 0.000210469
18 *202:27 *759:15 0.0138844
19 *334:36 *759:15 0.0858386
20 *361:33 *759:15 0.0165421
21 *367:11 *759:11 0.000771504
22 *394:11 *759:11 0.0307697
23 *394:15 *759:15 0.0001339
24 *395:23 *759:15 0.000621094
25 *438:23 *759:15 0.0179453
26 *440:31 *759:15 0.0183833
27 *757:15 *759:15 0.0169539
*RES
1 *921:gpio_slow_sel[19] *759:9 13.515 
2 *759:9 *759:11 581.768 
3 *759:11 *759:13 3.41 
4 *759:13 *759:15 185.763 
5 *759:15 *759:17 3.41 
6 *759:17 *759:19 2638.16 
7 *759:19 gpio_slow_sel[19] 20.9569 
*END

*D_NET *760 0.888099
*CONN
*P gpio_slow_sel[1] O
*I *921:gpio_slow_sel[1] O *D CF_CARAVEL_SOC
*CAP
1 gpio_slow_sel[1] 0.00288279
2 *921:gpio_slow_sel[1] 0.00333151
3 *760:35 0.0180516
4 *760:33 0.0151688
5 *760:31 0.0121903
6 *760:29 0.0128222
7 *760:23 0.0287425
8 *760:21 0.0292476
9 *760:11 0.0125083
10 *760:9 0.0147028
11 *760:9 *771:9 0.000338713
12 *760:11 *821:21 0.000994139
13 *760:11 *832:15 0.00208866
14 *760:21 *785:19 1.49502e-05
15 *760:21 *837:15 0.000290979
16 *760:21 *845:25 0.00023427
17 *760:21 *852:25 0.000635705
18 *760:31 *849:11 0.0192297
19 *760:35 *804:27 0.00142014
20 *164:43 *760:23 0.0117761
21 *168:11 *760:35 0
22 *249:25 *760:21 0.00125936
23 *293:27 *760:11 0.071773
24 *294:25 *760:23 0.00393272
25 *295:25 *760:21 6.13346e-05
26 *295:27 *760:11 0.0113897
27 *322:141 *760:29 2.72284e-05
28 *336:47 *760:31 0.00752106
29 *339:23 *760:23 0.0250253
30 *353:31 *760:31 0.0942691
31 *384:11 *760:11 0.0723916
32 *386:35 *760:23 0.000108251
33 *389:21 *760:21 0.00147768
34 *389:23 *760:23 0.191131
35 *390:21 *760:21 0.000672521
36 *390:23 *760:23 0.104642
37 *408:101 *760:35 0.0336823
38 *435:23 *760:31 0.000330931
39 *539:17 *760:29 0
40 *542:11 *760:31 0.000348943
41 *552:25 *760:11 0
42 *570:22 *760:31 0.0813832
43 *740:167 *760:29 0
*RES
1 *921:gpio_slow_sel[1] *760:9 11.1368 
2 *760:9 *760:11 886.554 
3 *760:11 *760:21 20.2592 
4 *760:21 *760:23 1808.09 
5 *760:23 *760:29 18.2321 
6 *760:29 *760:31 892.196 
7 *760:31 *760:33 4.5 
8 *760:33 *760:35 453.812 
9 *760:35 gpio_slow_sel[1] 9.45342 
*END

*D_NET *761 0.644413
*CONN
*P gpio_slow_sel[20] O
*I *921:gpio_slow_sel[20] O *D CF_CARAVEL_SOC
*CAP
1 gpio_slow_sel[20] 0.000112077
2 *921:gpio_slow_sel[20] 0.00576284
3 *761:19 0.130415
4 *761:17 0.130303
5 *761:15 0.0132054
6 *761:13 0.0132054
7 *761:11 0.0086379
8 *761:9 0.0144007
9 *761:9 *762:9 0
10 *761:11 *813:11 0.000369961
11 *761:11 *814:11 0.00807101
12 *761:11 *816:11 0.0314576
13 *761:11 *873:49 0.0289389
14 gpio_analog_sel[35] *761:9 0
15 gpio_ib_mode_sel[32] *761:11 0.000734617
16 gpio_out[35] *761:9 0
17 *202:27 *761:15 0.0971879
18 *361:33 *761:15 0.0108871
19 *394:15 *761:15 3.79901e-06
20 *422:11 *761:11 0.00804509
21 *546:25 *761:11 0.00961737
22 *723:9 *761:19 0
23 *725:15 *761:19 0
24 *730:19 *761:15 0
25 *753:15 *761:15 0.0178114
26 *754:23 *761:15 0.0194096
27 *759:9 *761:9 0
28 *759:15 *761:15 0.0958376
*RES
1 *921:gpio_slow_sel[20] *761:9 15.7491 
2 *761:9 *761:11 576.304 
3 *761:11 *761:13 3.41 
4 *761:13 *761:15 150.666 
5 *761:15 *761:17 3.41 
6 *761:17 *761:19 2647.27 
7 *761:19 gpio_slow_sel[20] 1.60714 
*END

*D_NET *762 0.502431
*CONN
*P gpio_slow_sel[21] O
*I *921:gpio_slow_sel[21] O *D CF_CARAVEL_SOC
*CAP
1 gpio_slow_sel[21] 0.000980501
2 *921:gpio_slow_sel[21] 0.00437819
3 *762:15 0.0125611
4 *762:13 0.0115806
5 *762:11 0.150317
6 *762:9 0.154695
7 *762:9 *763:9 0
8 *762:11 *770:11 0
9 *365:11 *762:11 0
10 *365:15 *762:15 0.0675171
11 *366:15 *762:15 0.000799225
12 *367:11 *762:11 0
13 *404:23 *762:15 0.000112254
14 *409:15 *762:15 0.000192648
15 *410:15 *762:15 0.0621234
16 *411:11 *762:11 0
17 *440:19 *762:11 0
18 *689:15 *762:11 0.000421252
19 *734:15 *762:11 0.00734791
20 *736:39 *762:11 0.0294046
21 *761:9 *762:9 0
*RES
1 *921:gpio_slow_sel[21] *762:9 12.8664 
2 *762:9 *762:11 3199.77 
3 *762:11 *762:13 3.41 
4 *762:13 *762:15 107.498 
5 *762:15 gpio_slow_sel[21] 22.7493 
*END

*D_NET *763 0.581319
*CONN
*P gpio_slow_sel[22] O
*I *921:gpio_slow_sel[22] O *D CF_CARAVEL_SOC
*CAP
1 gpio_slow_sel[22] 0.000103727
2 *921:gpio_slow_sel[22] 0.00502068
3 *763:15 0.00763378
4 *763:13 0.00753005
5 *763:11 0.0998829
6 *763:9 0.104904
7 *763:11 *775:11 0
8 gpio_ib_mode_sel[23] *763:15 0.000376388
9 *359:15 *763:15 0.0403957
10 *363:17 *763:15 5.11642e-05
11 *363:19 *763:15 0.000784494
12 *366:11 *763:11 0.239761
13 *367:15 *763:15 0.0395752
14 *372:11 *763:11 0
15 *392:11 *763:11 0
16 *446:19 *763:11 0
17 *450:9 *763:15 0.00701175
18 *451:9 *763:15 0.0132028
19 *454:39 *763:9 0.000205206
20 *455:21 *763:11 0.00821053
21 *693:79 *763:11 0.000220133
22 *737:57 *763:11 0.00644984
23 *762:9 *763:9 0
*RES
1 *921:gpio_slow_sel[22] *763:9 14.3077 
2 *763:9 *763:11 3211.3 
3 *763:11 *763:13 3.41 
4 *763:13 *763:15 68.7265 
5 *763:15 gpio_slow_sel[22] 4.68679 
*END

*D_NET *764 0.386243
*CONN
*P gpio_slow_sel[23] O
*I *921:gpio_slow_sel[23] O *D CF_CARAVEL_SOC
*CAP
1 gpio_slow_sel[23] 0.0021993
2 *921:gpio_slow_sel[23] 0.00105366
3 *764:23 0.131699
4 *764:21 0.131852
5 *764:17 0.00394234
6 *764:11 0.0100841
7 *764:9 0.00954732
8 *764:9 *765:9 0
9 *764:11 *786:11 0.00180215
10 *764:11 *796:11 0
11 *764:17 *796:11 0
12 *764:21 *782:15 0.00353349
13 *116:67 *764:11 0.00230821
14 *116:67 *764:17 0.000241472
15 *193:61 *764:21 0.000391856
16 *322:407 *764:23 0.00194992
17 *406:17 *764:17 0.000103884
18 *407:11 *764:11 0.0397545
19 *407:11 *764:17 0.000899292
20 *454:25 *764:11 0.0227478
21 *454:39 *764:9 0
22 *539:271 *764:23 0
23 *542:31 *764:11 0.00814137
24 *689:11 *764:21 0.0125318
25 *705:21 *764:21 0.000992407
26 *750:11 *764:11 0.000106304
27 *756:6 *764:9 0.000360771
*RES
1 *921:gpio_slow_sel[23] *764:9 5.5814 
2 *764:9 *764:11 488.429 
3 *764:11 *764:17 39.535 
4 *764:17 *764:21 22.8429 
5 *764:21 *764:23 2638.82 
6 *764:23 gpio_slow_sel[23] 42.9732 
*END

*D_NET *765 0.518843
*CONN
*P gpio_slow_sel[24] O
*I *921:gpio_slow_sel[24] O *D CF_CARAVEL_SOC
*CAP
1 gpio_slow_sel[24] 0.00543262
2 *921:gpio_slow_sel[24] 0.00311738
3 *765:19 0.091208
4 *765:17 0.0858295
5 *765:11 0.0163852
6 *765:9 0.0194486
7 *765:17 *832:37 0.000277334
8 *765:19 *768:19 0.00772199
9 gpio_analog_pol[35] *765:9 0.000427881
10 *205:53 *765:17 0.000282044
11 *281:31 gpio_slow_sel[24] 0
12 *362:11 *765:11 0
13 *362:11 *765:19 0.0425472
14 *368:11 *765:19 0.0829002
15 *373:11 *765:19 0.0562641
16 *384:11 *765:11 0
17 *414:11 *765:11 0.00624377
18 *414:11 *765:19 0.0587414
19 *457:9 gpio_slow_sel[24] 0
20 *737:39 *765:11 0
21 *757:11 *765:11 0.0420155
22 *764:9 *765:9 0
*RES
1 *921:gpio_slow_sel[24] *765:9 10.6323 
2 *765:9 *765:11 516.196 
3 *765:11 *765:17 7.26337 
4 *765:17 *765:19 448.765 
5 *765:19 gpio_slow_sel[24] 15.6606 
*END

*D_NET *766 0.362576
*CONN
*P gpio_slow_sel[25] O
*I *921:gpio_slow_sel[25] O *D CF_CARAVEL_SOC
*CAP
1 gpio_slow_sel[25] 0.00640634
2 *921:gpio_slow_sel[25] 0.00257827
3 *766:11 0.0634864
4 *766:9 0.0596583
5 *766:9 *767:17 0
6 *282:15 gpio_slow_sel[25] 0
7 *361:11 *766:11 0
8 *371:11 *766:11 0.0280551
9 *375:19 *766:11 0.000276252
10 *413:19 *766:11 0.0607648
11 *418:11 *766:11 0.126694
12 *423:11 *766:11 0.00349872
13 *458:9 gpio_slow_sel[25] 0
14 *468:11 *766:11 0.00354277
15 *543:31 *766:11 0.00287318
16 *687:19 *766:11 0.00265781
17 *737:65 *766:11 0.00172395
18 *756:6 *766:9 0.000360771
*RES
1 *921:gpio_slow_sel[25] *766:9 8.86043 
2 *766:9 *766:11 404.661 
3 *766:11 gpio_slow_sel[25] 18.5056 
*END

*D_NET *767 0.365978
*CONN
*P gpio_slow_sel[26] O
*I *921:gpio_slow_sel[26] O *D CF_CARAVEL_SOC
*CAP
1 gpio_slow_sel[26] 0.00178089
2 *921:gpio_slow_sel[26] 0.00796222
3 *767:19 0.174884
4 *767:17 0.181065
5 *767:17 gpio_slow_sel[35] 0
6 *767:17 *768:9 0
7 *767:17 *789:17 0
8 *284:51 *767:17 0.00023506
9 *410:11 *767:17 0
10 *469:9 *767:17 5.11566e-05
11 *766:9 *767:17 0
*RES
1 *921:gpio_slow_sel[26] *767:17 31.8447 
2 *767:17 *767:19 369.611 
3 *767:19 gpio_slow_sel[26] 7.06895 
*END

*D_NET *768 0.320414
*CONN
*P gpio_slow_sel[27] O
*I *921:gpio_slow_sel[27] O *D CF_CARAVEL_SOC
*CAP
1 gpio_slow_sel[27] 0.0053859
2 *921:gpio_slow_sel[27] 0.00343047
3 *768:19 0.0309976
4 *768:17 0.025685
5 *768:11 0.033688
6 *768:9 0.0370452
7 *768:9 gpio_slow_sel[35] 0.000444511
8 *768:9 *769:9 0
9 *768:11 *803:11 0.0422621
10 gpio_ib_mode_sel[30] *768:19 7.15791e-05
11 *368:11 *768:11 0.0256477
12 *373:11 *768:11 0.00111583
13 *373:11 *768:19 0.0343997
14 *420:11 *768:11 0.0368889
15 *456:27 *768:11 0.0287401
16 *684:21 *768:17 0
17 *736:23 *768:11 0.00625892
18 *753:11 *768:11 0.000630264
19 *765:19 *768:19 0.00772199
20 *767:17 *768:9 0
*RES
1 *921:gpio_slow_sel[27] *768:9 11.353 
2 *768:9 *768:11 1279.98 
3 *768:11 *768:17 6.9751 
4 *768:17 *768:19 110.842 
5 *768:19 gpio_slow_sel[27] 15.247 
*END

*D_NET *769 0.310372
*CONN
*P gpio_slow_sel[28] O
*I *921:gpio_slow_sel[28] O *D CF_CARAVEL_SOC
*CAP
1 gpio_slow_sel[28] 0.00394254
2 *921:gpio_slow_sel[28] 0.00547435
3 *769:11 0.0503913
4 *769:9 0.0519231
5 *769:9 *770:9 0
6 *769:11 *817:11 0.0928534
7 gpio_dm2[31] *769:11 0.000409582
8 gpio_holdover[33] *769:11 0.00024078
9 *205:65 *769:11 0
10 *369:19 *769:11 0.000202543
11 *369:23 *769:11 0.00212124
12 *417:19 *769:11 0.0636616
13 *422:11 *769:11 0
14 *437:11 *769:11 0.000387693
15 *437:19 *769:11 0.00729365
16 *457:11 *769:11 0.0314702
17 *768:9 *769:9 0
*RES
1 *921:gpio_slow_sel[28] *769:9 14.9203 
2 *769:9 *769:11 300.471 
3 *769:11 gpio_slow_sel[28] 11.8253 
*END

*D_NET *770 0.2283
*CONN
*P gpio_slow_sel[29] O
*I *921:gpio_slow_sel[29] O *D CF_CARAVEL_SOC
*CAP
1 gpio_slow_sel[29] 0.0048303
2 *921:gpio_slow_sel[29] 0.0041597
3 *770:19 0.0345851
4 *770:17 0.0300548
5 *770:11 0.0312231
6 *770:9 0.0350827
7 *770:9 *772:9 0
8 gpio_holdover[31] *770:17 2.82126e-05
9 *201:15 *770:17 0
10 *245:15 *770:17 0
11 *365:11 *770:11 0.0158498
12 *387:11 *770:11 0.0117573
13 *395:19 *770:11 0.0194282
14 *440:19 *770:11 0.0413014
15 *762:11 *770:11 0
16 *769:9 *770:9 0
*RES
1 *921:gpio_slow_sel[29] *770:9 12.434 
2 *770:9 *770:11 1089.34 
3 *770:11 *770:17 7.47957 
4 *770:17 *770:19 74.6203 
5 *770:19 gpio_slow_sel[29] 13.5236 
*END

*D_NET *771 0.7727
*CONN
*P gpio_slow_sel[2] O
*I *921:gpio_slow_sel[2] O *D CF_CARAVEL_SOC
*CAP
1 gpio_slow_sel[2] 0.00396552
2 *921:gpio_slow_sel[2] 0.00210497
3 *771:31 0.0199649
4 *771:29 0.0159994
5 *771:27 0.0635137
6 *771:25 0.0644941
7 *771:11 0.0120542
8 *771:9 0.0131789
9 *771:9 *836:11 0.000255549
10 *771:25 *829:29 0.000153338
11 *771:25 *846:39 0
12 *771:25 *864:15 0
13 *771:25 *865:15 0
14 *771:27 *842:11 0.0376274
15 gpio_dm1[2] gpio_slow_sel[2] 0
16 *121:15 *771:27 0.00822031
17 *133:11 *771:31 0.00156551
18 *165:15 *771:27 0
19 *169:11 *771:31 0
20 *170:23 *771:27 0.0137491
21 *222:17 *771:31 0.000713811
22 *224:19 *771:31 0.00885913
23 *257:15 *771:27 0.00459556
24 *292:25 *771:25 0.000225062
25 *293:25 *771:25 0.000736153
26 *296:15 *771:27 0.0234046
27 *303:11 *771:31 0.00380151
28 *322:77 *771:27 0
29 *339:15 *771:27 2.59824e-05
30 *382:11 *771:11 0.00146755
31 *388:11 *771:11 0.0707278
32 *388:11 *771:25 1.21637e-05
33 *425:11 *771:11 0.0030722
34 *434:23 *771:27 0
35 *435:27 *771:31 0.0521931
36 *450:33 *771:27 0.0291215
37 *456:31 *771:27 0.00811269
38 *468:29 *771:27 0.00377129
39 *469:15 *771:25 0.000733582
40 *470:15 *771:27 0.015213
41 *474:15 *771:27 0
42 *543:11 *771:27 0.209772
43 *543:23 *771:11 0.00743461
44 *550:21 *771:25 0
45 *737:73 *771:11 0.000539659
46 *749:11 *771:11 0.069702
47 *749:25 *771:11 1.49724e-05
48 *749:25 *771:25 0.00126425
49 *760:9 *771:9 0.000338713
*RES
1 *921:gpio_slow_sel[2] *771:9 8.31993 
2 *771:9 *771:11 866.518 
3 *771:11 *771:25 33.1897 
4 *771:25 *771:27 2690.3 
5 *771:27 *771:29 4.5 
6 *771:29 *771:31 639.295 
7 *771:31 gpio_slow_sel[2] 11.5684 
*END

*D_NET *772 0.233225
*CONN
*P gpio_slow_sel[30] O
*I *921:gpio_slow_sel[30] O *D CF_CARAVEL_SOC
*CAP
1 gpio_slow_sel[30] 0.00269311
2 *921:gpio_slow_sel[30] 0.00694486
3 *772:11 0.0380038
4 *772:9 0.0422556
5 *772:9 *773:9 0
6 *392:19 *772:11 0.000328289
7 *402:11 *772:11 0
8 *464:11 *772:11 0.105317
9 *690:23 *772:11 0.0376822
10 *770:9 *772:9 0
*RES
1 *921:gpio_slow_sel[30] *772:9 17.839 
2 *772:9 *772:11 1314.59 
3 *772:11 gpio_slow_sel[30] 8.87532 
*END

*D_NET *773 0.204274
*CONN
*P gpio_slow_sel[31] O
*I *921:gpio_slow_sel[31] O *D CF_CARAVEL_SOC
*CAP
1 gpio_slow_sel[31] 0.00318791
2 *921:gpio_slow_sel[31] 0.00645933
3 *773:11 0.0315753
4 *773:9 0.0348467
5 *773:9 *774:9 0
6 *162:27 *773:11 0.0372342
7 *396:11 *773:11 0
8 *465:11 *773:11 0.0893516
9 *754:11 *773:11 0.00161905
10 *772:9 *773:9 0
*RES
1 *921:gpio_slow_sel[31] *773:9 16.9021 
2 *773:9 *773:11 1115.45 
3 *773:11 gpio_slow_sel[31] 9.84978 
*END

*D_NET *774 0.117425
*CONN
*P gpio_slow_sel[32] O
*I *921:gpio_slow_sel[32] O *D CF_CARAVEL_SOC
*CAP
1 gpio_slow_sel[32] 0.00466963
2 *921:gpio_slow_sel[32] 0.00483574
3 *774:11 0.0144775
4 *774:9 0.0146436
5 *774:9 *775:9 0
6 *774:11 *775:11 0.0016214
7 *774:11 *779:11 0.00244055
8 *367:11 *774:11 0
9 *372:11 *774:11 0.0243048
10 *394:11 *774:11 0.0307726
11 *446:19 *774:11 0.0159185
12 *759:11 *774:11 0.00374071
13 *773:9 *774:9 0
*RES
1 *921:gpio_slow_sel[32] *774:9 13.6591 
2 *774:9 *774:11 541.089 
3 *774:11 gpio_slow_sel[32] 12.8546 
*END

*D_NET *775 0.0747692
*CONN
*P gpio_slow_sel[33] O
*I *921:gpio_slow_sel[33] O *D CF_CARAVEL_SOC
*CAP
1 gpio_slow_sel[33] 0.00514379
2 *921:gpio_slow_sel[33] 0.00492789
3 *775:11 0.0141519
4 *775:9 0.013936
5 *775:9 *776:9 0
6 gpio_analog_en[33] gpio_slow_sel[33] 0
7 gpio_dm1[33] gpio_slow_sel[33] 6.93055e-05
8 *372:11 *775:11 0.00834597
9 *392:11 *775:11 0.0101059
10 *446:19 *775:11 0.0154321
11 *455:19 gpio_slow_sel[33] 0.000415535
12 *553:25 gpio_slow_sel[33] 0.000619306
13 *763:11 *775:11 0
14 *774:9 *775:9 0
15 *774:11 *775:11 0.0016214
*RES
1 *921:gpio_slow_sel[33] *775:9 13.8033 
2 *775:9 *775:11 335.268 
3 *775:11 gpio_slow_sel[33] 27.1925 
*END

*D_NET *776 0.0469656
*CONN
*P gpio_slow_sel[34] O
*I *921:gpio_slow_sel[34] O *D CF_CARAVEL_SOC
*CAP
1 gpio_slow_sel[34] 0.00124319
2 *921:gpio_slow_sel[34] 0.00859823
3 *776:11 0.00349911
4 *776:9 0.0108542
5 *776:9 gpio_slow_sel[35] 0
6 *439:11 *776:11 0.0113862
7 *447:17 *776:11 0.0113848
8 *468:9 gpio_slow_sel[34] 0
9 *775:9 *776:9 0
*RES
1 *921:gpio_slow_sel[34] *776:9 20.8658 
2 *776:9 *776:11 142.196 
3 *776:11 gpio_slow_sel[34] 5.82972 
*END

*D_NET *777 0.0355288
*CONN
*P gpio_slow_sel[35] O
*I *921:gpio_slow_sel[35] O *D CF_CARAVEL_SOC
*CAP
1 gpio_slow_sel[35] 0.0093349
2 *921:gpio_slow_sel[35] 0.0093349
3 gpio_slow_sel[35] *778:9 0
4 gpio_slow_sel[35] *789:17 0.000380146
5 *248:49 gpio_slow_sel[35] 0
6 *292:27 gpio_slow_sel[35] 0.0042909
7 *389:11 gpio_slow_sel[35] 0.0007787
8 *423:11 gpio_slow_sel[35] 0.00428655
9 *469:9 gpio_slow_sel[35] 0.00667816
10 *767:17 gpio_slow_sel[35] 0
11 *768:9 gpio_slow_sel[35] 0.000444511
12 *776:9 gpio_slow_sel[35] 0
*RES
1 *921:gpio_slow_sel[35] gpio_slow_sel[35] 35.9749 
*END

*D_NET *778 0.0760639
*CONN
*P gpio_slow_sel[36] O
*I *921:gpio_slow_sel[36] O *D CF_CARAVEL_SOC
*CAP
1 gpio_slow_sel[36] 0.00738224
2 *921:gpio_slow_sel[36] 0.00217204
3 *778:13 0.0119456
4 *778:9 0.00673535
5 *778:13 *790:11 0.0030037
6 gpio_slow_sel[35] *778:9 0
7 *364:17 *778:9 3.39126e-05
8 *364:25 gpio_slow_sel[36] 1.4209e-05
9 *382:11 *778:13 0.0216839
10 *413:11 *778:13 0.00139904
11 *418:11 *778:13 0.0216939
*RES
1 *921:gpio_slow_sel[36] *778:9 8.14603 
2 *778:9 *778:13 47.9879 
3 *778:13 gpio_slow_sel[36] 15.0533 
*END

*D_NET *779 0.0882939
*CONN
*P gpio_slow_sel[37] O
*I *921:gpio_slow_sel[37] O *D CF_CARAVEL_SOC
*CAP
1 gpio_slow_sel[37] 0.00348268
2 *921:gpio_slow_sel[37] 0.00489995
3 *779:11 0.0131505
4 *779:9 0.0145677
5 *779:11 *788:11 0.00363788
6 *294:27 *779:11 0.0144872
7 *364:17 *779:9 0
8 *446:19 *779:11 0.010236
9 *471:9 gpio_slow_sel[37] 0.00555495
10 *544:17 *779:11 0.00709123
11 *759:11 *779:11 0.00874527
12 *774:11 *779:11 0.00244055
*RES
1 *921:gpio_slow_sel[37] *779:9 13.5871 
2 *779:9 *779:11 451.232 
3 *779:11 gpio_slow_sel[37] 13.1038 
*END

*D_NET *780 0.34968
*CONN
*P gpio_slow_sel[38] O
*I *921:gpio_slow_sel[38] O *D CF_CARAVEL_SOC
*CAP
1 gpio_slow_sel[38] 0.00203517
2 *921:gpio_slow_sel[38] 0.000158923
3 *780:13 0.011623
4 *780:11 0.0095878
5 *780:9 0.0313235
6 *780:7 0.0314824
7 *780:9 *781:11 0.0884691
8 *780:9 *783:11 4.35498e-05
9 *780:9 *784:9 0.0122548
10 *780:9 *838:23 0.000492055
11 *780:9 *840:25 0.000417221
12 *780:9 *841:21 0.00189715
13 *780:9 *841:23 0.0169484
14 *780:9 *842:23 0.000275604
15 *780:13 *852:19 0.0539338
16 *780:13 *852:25 0.000452832
17 *338:71 *780:13 0.00311421
18 *429:19 *780:13 0.0606491
19 *449:41 *780:13 0.0111862
20 *461:23 *780:13 0.0129888
21 *474:15 *780:13 0.000346535
*RES
1 *921:gpio_slow_sel[38] *780:7 3.68573 
2 *780:7 *780:9 1112.71 
3 *780:9 *780:11 3.41 
4 *780:11 *780:13 95.8236 
5 *780:13 gpio_slow_sel[38] 32.7225 
*END

*D_NET *781 0.522855
*CONN
*P gpio_slow_sel[39] O
*I *921:gpio_slow_sel[39] O *D CF_CARAVEL_SOC
*CAP
1 gpio_slow_sel[39] 0.000692712
2 *921:gpio_slow_sel[39] 0.00019971
3 *781:23 0.020261
4 *781:21 0.0212438
5 *781:17 0.00179015
6 *781:11 0.0146936
7 *781:9 0.0147788
8 *781:11 *783:11 0.088883
9 *781:11 *784:9 0.0173422
10 *781:21 *783:11 0
11 *781:21 *785:25 0
12 *781:21 *786:21 5.58875e-06
13 *781:21 *804:21 0.000218752
14 *781:21 *838:23 0.0019666
15 *781:21 *841:21 0
16 *781:21 *854:25 0
17 *781:21 *860:15 0
18 *781:23 *783:15 0.114484
19 *781:23 *804:23 0.0234549
20 *781:23 *825:23 0.000139228
21 *781:23 *859:19 0.0531766
22 *250:23 *781:23 0.0252376
23 *433:10 *781:23 0.0328125
24 *542:15 *781:21 0.00278674
25 *693:95 *781:17 0.000218685
26 *780:9 *781:11 0.0884691
*RES
1 *921:gpio_slow_sel[39] *781:9 3.82047 
2 *781:9 *781:11 1091.62 
3 *781:11 *781:17 11.1786 
4 *781:17 *781:21 48.6154 
5 *781:21 *781:23 181.223 
6 *781:23 gpio_slow_sel[39] 13.6689 
*END

*D_NET *782 0.860337
*CONN
*P gpio_slow_sel[3] O
*I *921:gpio_slow_sel[3] O *D CF_CARAVEL_SOC
*CAP
1 gpio_slow_sel[3] 0.00121216
2 *921:gpio_slow_sel[3] 0.0083541
3 *782:55 0.0101405
4 *782:53 0.00955926
5 *782:47 0.00468256
6 *782:45 0.00459925
7 *782:39 0.00291118
8 *782:37 0.00448506
9 *782:31 0.00349313
10 *782:29 0.00386015
11 *782:19 0.00457376
12 *782:17 0.0020853
13 *782:15 0.0598575
14 *782:13 0.0598575
15 *782:11 0.0107053
16 *782:9 0.0190594
17 *782:11 *810:11 0.00551679
18 *782:15 *787:15 0.0012331
19 *782:15 *788:15 0.307366
20 *782:15 *832:49 0
21 *782:19 gpio_vtrip_sel[6] 0
22 gpio_analog_pol[6] *782:29 0.000613772
23 gpio_dm0[5] *782:47 9.99845e-05
24 gpio_dm1[3] gpio_slow_sel[3] 0
25 gpio_inp_dis[5] *782:47 8.30454e-05
26 gpio_inp_dis[6] *782:29 0.000222494
27 *114:23 *782:15 0.103977
28 *132:11 *782:31 0.00257719
29 *165:9 *782:37 0.000474658
30 *176:11 *782:31 0.00121144
31 *193:61 *782:15 0
32 *210:11 *782:55 0.010032
33 *217:11 *782:55 0.013768
34 *219:11 *782:19 0
35 *219:11 *782:29 0
36 *228:25 *782:15 0.00826325
37 *262:11 *782:55 0.00195791
38 *281:11 *782:19 0.00482858
39 *281:11 *782:29 0.000673077
40 *281:11 *782:47 0
41 *283:11 *782:39 0
42 *283:25 *782:15 0.000277895
43 *286:15 *782:15 0.0122438
44 *286:35 *782:15 0.0353055
45 *286:39 *782:15 0.000579086
46 *305:11 *782:47 0.0105687
47 *312:19 *782:31 0.00649622
48 *337:33 *782:29 0.0028551
49 *337:43 *782:11 0.0416841
50 *375:31 *782:15 0.000583779
51 *375:35 *782:19 0
52 *393:27 *782:19 0
53 *430:35 *782:55 0.00388371
54 *435:35 *782:55 0.00817945
55 *436:27 *782:39 0.00570088
56 *439:11 *782:11 0.0520336
57 *689:11 *782:15 0.0040781
58 *691:11 *782:15 0
59 *764:21 *782:15 0.00353349
*RES
1 *921:gpio_slow_sel[3] *782:9 21.0099 
2 *782:9 *782:11 649.768 
3 *782:11 *782:13 3.41 
4 *782:13 *782:15 491.109 
5 *782:15 *782:17 3.41 
6 *782:17 *782:19 62.0536 
7 *782:19 *782:29 28.8626 
8 *782:29 *782:31 79.6607 
9 *782:31 *782:37 11.191 
10 *782:37 *782:39 71.1607 
11 *782:39 *782:45 7.87593 
12 *782:45 *782:47 129.446 
13 *782:47 *782:53 7.948 
14 *782:53 *782:55 343.161 
15 *782:55 gpio_slow_sel[3] 6.10545 
*END

*D_NET *783 0.526379
*CONN
*P gpio_slow_sel[40] O
*I *921:gpio_slow_sel[40] O *D CF_CARAVEL_SOC
*CAP
1 gpio_slow_sel[40] 0.000724606
2 *921:gpio_slow_sel[40] 0.000136284
3 *783:15 0.0230233
4 *783:13 0.0222987
5 *783:11 0.0322351
6 *783:9 0.0323714
7 *783:11 *784:9 0.00086837
8 *783:11 *786:21 0
9 *783:11 *836:11 0.0015912
10 *783:11 *841:21 0.00265459
11 *783:11 *843:15 0.0207736
12 *783:11 *844:17 0.000410696
13 *783:15 *784:13 0.00109418
14 *783:15 *804:23 0.000398075
15 *783:15 *825:23 0.119951
16 *783:15 *844:13 0.0161042
17 *250:23 *783:15 0.000369162
18 *433:6 *783:11 0.00931549
19 *433:10 *783:15 0.000882444
20 *473:15 *783:15 0.00542799
21 *475:13 *783:15 0.00735946
22 *477:11 *783:15 0.000485267
23 *561:18 *783:15 0.0244933
24 *780:9 *783:11 4.35498e-05
25 *781:11 *783:11 0.088883
26 *781:21 *783:11 0
27 *781:23 *783:15 0.114484
*RES
1 *921:gpio_slow_sel[40] *783:9 3.7484 
2 *783:9 *783:11 1142.16 
3 *783:11 *783:13 3.41 
4 *783:13 *783:15 223.742 
5 *783:15 gpio_slow_sel[40] 14.1332 
*END

*D_NET *784 0.576996
*CONN
*P gpio_slow_sel[41] O
*I *921:gpio_slow_sel[41] O *D CF_CARAVEL_SOC
*CAP
1 gpio_slow_sel[41] 0.000606369
2 *921:gpio_slow_sel[41] 0.000143955
3 *784:21 0.00355862
4 *784:19 0.00320354
5 *784:13 0.0421803
6 *784:11 0.041929
7 *784:9 0.0501246
8 *784:7 0.0502685
9 *784:9 *921:mask_rev[11] 0.00990065
10 *784:9 *786:11 0
11 *784:9 *836:11 0.0391352
12 *784:9 *841:23 0.00286221
13 *784:9 *842:23 0.00369434
14 *784:13 *825:23 0.0454321
15 *784:13 *843:11 0.0350896
16 *784:13 *850:21 2.01527e-05
17 *784:21 *804:23 0.00117629
18 *784:21 *829:43 0.0118322
19 *248:19 *784:13 0.00110476
20 *325:103 *784:13 0.000866579
21 *400:11 *784:9 0
22 *433:6 *784:9 0.0286297
23 *433:10 *784:21 0.000179039
24 *453:49 *784:13 0.0147452
25 *454:39 *784:7 7.96807e-06
26 *454:53 *784:13 0.0143433
27 *473:15 *784:13 0.016414
28 *475:13 *784:13 0.00342872
29 *476:17 *784:19 3.1737e-05
30 *477:11 *784:13 0.016509
31 *546:13 *784:13 0.0312406
32 *552:13 *784:13 0.0336958
33 *737:181 *784:13 0.00270319
34 *739:122 *784:13 0.0285307
35 *750:11 *784:9 0
36 *752:11 *784:9 0
37 *758:9 *784:9 0.0118488
38 *780:9 *784:9 0.0122548
39 *781:11 *784:9 0.0173422
40 *783:11 *784:9 0.00086837
41 *783:15 *784:13 0.00109418
*RES
1 *921:gpio_slow_sel[41] *784:7 3.72177 
2 *784:7 *784:9 201.342 
3 *784:9 *784:11 3.41 
4 *784:11 *784:13 247.2 
5 *784:13 *784:19 11.8296 
6 *784:19 *784:21 111.839 
7 *784:21 gpio_slow_sel[41] 13.5179 
*END

*D_NET *785 0.596978
*CONN
*P gpio_slow_sel[42] O
*I *921:gpio_slow_sel[42] O *D CF_CARAVEL_SOC
*CAP
1 gpio_slow_sel[42] 0.000574539
2 *921:gpio_slow_sel[42] 0.00113383
3 *785:27 0.0349803
4 *785:25 0.0346065
5 *785:19 0.00193518
6 *785:11 0.0289481
7 *785:9 0.0283476
8 *785:9 *786:9 0
9 *785:11 *796:11 0
10 *785:11 *799:11 0.0010789
11 *785:11 *801:11 0.0189718
12 *785:11 *804:11 0.00144278
13 *785:11 *806:11 0.000310263
14 *785:11 *807:11 0.0316585
15 *785:11 *834:11 0.00442024
16 *785:11 *845:27 0.018931
17 *785:11 *847:36 2.45677e-05
18 *785:11 *847:38 0.0198805
19 *785:11 *853:21 7.48679e-06
20 *785:11 *853:23 0.00140444
21 *785:19 *786:21 0.00041297
22 *785:19 *804:21 0.000192057
23 *785:19 *825:23 0.00102744
24 *785:19 *837:15 0
25 *785:19 *845:25 0.000153069
26 *785:19 *845:27 7.48679e-06
27 *785:19 *847:36 0.00162686
28 *785:19 *853:17 0.000729622
29 *785:19 *853:21 0.00163781
30 *785:25 *786:21 0
31 *785:25 *860:15 7.73688e-05
32 *785:27 *786:23 0.18673
33 *785:27 *804:23 0
34 *785:27 *829:35 0.0129298
35 *785:27 *829:43 0.118662
36 *785:27 *853:11 2.59824e-05
37 *248:33 *785:19 0.000255412
38 *250:23 *785:27 0
39 *250:33 *785:25 2.08218e-05
40 *397:11 *785:11 0.00143541
41 *428:21 *785:19 0
42 *430:11 *785:11 0.00380826
43 *448:13 *785:11 0
44 *454:39 *785:9 0.000164162
45 *542:23 *785:11 0.0102676
46 *546:23 *785:19 0
47 *552:23 *785:19 4.65158e-06
48 *560:27 *785:27 0.0281372
49 *760:21 *785:19 1.49502e-05
50 *781:21 *785:25 0
*RES
1 *921:gpio_slow_sel[42] *785:9 6.09213 
2 *785:9 *785:11 1113.02 
3 *785:11 *785:19 47.3996 
4 *785:19 *785:25 11.8296 
5 *785:25 *785:27 1768.25 
6 *785:27 gpio_slow_sel[42] 12.7679 
*END

*D_NET *786 0.753506
*CONN
*P gpio_slow_sel[43] O
*I *921:gpio_slow_sel[43] O *D CF_CARAVEL_SOC
*CAP
1 gpio_slow_sel[43] 0.0004517
2 *921:gpio_slow_sel[43] 0.000675524
3 *786:23 0.0327688
4 *786:21 0.0328928
5 *786:11 0.0402877
6 *786:9 0.0403875
7 *786:11 *921:mask_rev[11] 0
8 *786:11 *794:11 0
9 *786:11 *804:11 0
10 *786:11 *828:11 0.00554513
11 *786:11 *830:11 0.00359992
12 *786:11 *856:19 0.00520425
13 *786:11 *858:23 0.00396731
14 *786:11 *860:15 0.000193758
15 *786:11 *860:19 0.0019754
16 *786:21 *804:21 0.000807728
17 *786:21 *825:23 0.000134473
18 *786:21 *850:21 4.61737e-06
19 *786:21 *860:15 0
20 *786:23 *804:23 0
21 *786:23 *829:35 0.0139424
22 *786:23 *829:43 0.00133105
23 *786:23 *853:11 0.0135206
24 *786:23 *859:11 0.162235
25 *300:27 *786:23 0.000370306
26 *345:27 *786:23 0.00462718
27 *353:9 *786:9 0
28 *400:11 *786:11 0.0440316
29 *403:11 *786:11 0.00459253
30 *405:11 *786:11 0.00956223
31 *406:11 *786:11 0.000847819
32 *407:11 *786:11 0.00206082
33 *433:22 *786:23 0.00303608
34 *450:13 *786:11 0.00021721
35 *450:27 *786:11 0.00329197
36 *454:25 *786:11 0.000102658
37 *454:41 *786:11 0.0854577
38 *542:31 *786:11 0.00327095
39 *560:27 *786:23 0.0262992
40 *750:11 *786:11 0.0168614
41 *764:11 *786:11 0.00180215
42 *781:21 *786:21 5.58875e-06
43 *783:11 *786:21 0
44 *784:9 *786:11 0
45 *785:9 *786:9 0
46 *785:19 *786:21 0.00041297
47 *785:25 *786:21 0
48 *785:27 *786:23 0.18673
*RES
1 *921:gpio_slow_sel[43] *786:9 4.9751 
2 *786:9 *786:11 203.526 
3 *786:11 *786:21 17.2423 
4 *786:21 *786:23 2011.8 
5 *786:23 gpio_slow_sel[43] 10.9643 
*END

*D_NET *787 1.00828
*CONN
*P gpio_slow_sel[4] O
*I *921:gpio_slow_sel[4] O *D CF_CARAVEL_SOC
*CAP
1 gpio_slow_sel[4] 0.00827582
2 *921:gpio_slow_sel[4] 0.002237
3 *787:61 0.00871761
4 *787:51 0.00933248
5 *787:49 0.0137781
6 *787:37 0.00557468
7 *787:33 0.00246095
8 *787:27 0.00324998
9 *787:25 0.00188186
10 *787:19 0.00172118
11 *787:17 0.00131558
12 *787:15 0.0379865
13 *787:13 0.0379865
14 *787:11 0.00915494
15 *787:9 0.0113919
16 *787:9 *788:9 0
17 *787:11 *790:11 0.000510024
18 *787:15 *788:15 0.30419
19 *787:19 *832:51 0.00552126
20 *787:49 *788:53 0
21 *94:17 gpio_slow_sel[4] 0
22 *115:33 *787:11 0.000607694
23 *116:27 *787:49 0.000714254
24 *140:25 *787:49 6.05161e-06
25 *156:9 *787:49 0
26 *157:13 *787:49 4.98192e-05
27 *168:9 *787:33 0.000295018
28 *175:11 *787:37 0.000348479
29 *178:19 *787:19 0.00600007
30 *180:9 gpio_slow_sel[4] 0.00559877
31 *181:9 gpio_slow_sel[4] 0
32 *195:11 *787:27 0.00597311
33 *204:17 *787:49 0.00070879
34 *225:19 *787:37 0.00367536
35 *228:25 *787:15 0.0132615
36 *247:15 *787:15 0.000912845
37 *263:11 *787:27 0.00317007
38 *274:93 *787:37 0.000470786
39 *286:35 *787:15 0.0564696
40 *288:27 *787:51 0.0130251
41 *288:45 *787:49 0.000446869
42 *327:19 *787:61 0.000705891
43 *328:11 *787:61 0.00126175
44 *328:51 *787:51 0.000259053
45 *329:10 *787:51 0.00549445
46 *329:50 *787:51 0.000998077
47 *330:13 *787:51 0.00568574
48 *334:6 *787:61 0.00030724
49 *337:33 *787:25 4.02087e-05
50 *349:11 *787:37 0.00180202
51 *364:19 *787:11 0.0158962
52 *375:31 *787:15 0.303793
53 *413:11 *787:11 0.0507529
54 *418:11 *787:11 0.0106183
55 *445:11 *787:19 0.000247495
56 *468:11 *787:11 0.00407051
57 *687:19 *787:11 0.000234583
58 *732:10 *787:11 0.0278542
59 *782:15 *787:15 0.0012331
*RES
1 *921:gpio_slow_sel[4] *787:9 8.39513 
2 *787:9 *787:11 643.696 
3 *787:11 *787:13 3.41 
4 *787:13 *787:15 474.75 
5 *787:15 *787:17 3.41 
6 *787:17 *787:19 75.4107 
7 *787:19 *787:25 7.5156 
8 *787:25 *787:27 74.8036 
9 *787:27 *787:33 10.6145 
10 *787:33 *787:37 48.4636 
11 *787:37 *787:49 34.3735 
12 *787:49 *787:51 282.143 
13 *787:51 *787:61 30.8654 
14 *787:61 gpio_slow_sel[4] 19.9319 
*END

*D_NET *788 0.967602
*CONN
*P gpio_slow_sel[5] O
*I *921:gpio_slow_sel[5] O *D CF_CARAVEL_SOC
*CAP
1 gpio_slow_sel[5] 0.00574935
2 *921:gpio_slow_sel[5] 0.00455123
3 *788:55 0.00717233
4 *788:53 0.00506955
5 *788:37 0.00510605
6 *788:27 0.00396964
7 *788:25 0.00477868
8 *788:19 0.00439566
9 *788:17 0.00212714
10 *788:15 0.0386063
11 *788:13 0.0386063
12 *788:11 0.0110498
13 *788:9 0.015601
14 *788:9 *789:17 0
15 *788:37 *831:69 0.000403083
16 gpio_dm1[5] gpio_slow_sel[5] 0.00254806
17 gpio_out[6] *788:25 0.000243217
18 *90:11 *788:55 0.00131503
19 *103:11 *788:19 0.000531004
20 *105:25 *788:53 2.52037e-05
21 *109:23 *788:37 0.00014833
22 *115:11 *788:19 0.00380303
23 *116:27 *788:53 0.00106535
24 *116:39 *788:37 0.00265178
25 *134:9 gpio_slow_sel[5] 0.000618343
26 *135:9 gpio_slow_sel[5] 0
27 *141:15 *788:19 0.000580804
28 *150:17 *788:37 0.00237206
29 *159:13 *788:53 0.000684878
30 *169:9 *788:37 0.00237494
31 *176:9 gpio_slow_sel[5] 0
32 *204:17 *788:37 0.00153697
33 *204:17 *788:53 1.09232e-05
34 *204:21 *788:37 0.000405595
35 *228:25 *788:15 0.0125149
36 *247:15 *788:15 0.000277558
37 *280:19 *788:27 0.00152053
38 *286:35 *788:15 0.0535841
39 *288:45 *788:53 0.000972952
40 *316:11 *788:27 0.0066139
41 *329:50 *788:53 8.77988e-05
42 *333:11 *788:37 1.09232e-05
43 *333:11 *788:53 0.00110465
44 *334:30 *788:37 0.000158929
45 *334:30 *788:53 0.000247974
46 *367:11 *788:11 0.00645202
47 *444:11 *788:19 0
48 *483:11 *788:27 0
49 *544:17 *788:11 0.0388847
50 *716:15 *788:55 0.00882125
51 *727:15 *788:55 0.0088192
52 *759:11 *788:11 0.0442349
53 *779:11 *788:11 0.00363788
54 *782:15 *788:15 0.307366
55 *787:9 *788:9 0
56 *787:15 *788:15 0.30419
57 *787:49 *788:53 0
*RES
1 *921:gpio_slow_sel[5] *788:9 13.4429 
2 *788:9 *788:11 638.232 
3 *788:11 *788:13 3.41 
4 *788:13 *788:15 476.191 
5 *788:15 *788:17 3.41 
6 *788:17 *788:19 60.2321 
7 *788:19 *788:25 11.9117 
8 *788:25 *788:27 80.875 
9 *788:27 *788:37 44.6878 
10 *788:37 *788:53 28.3517 
11 *788:53 *788:55 108.196 
12 *788:55 gpio_slow_sel[5] 16.4517 
*END

*D_NET *789 0.66568
*CONN
*P gpio_slow_sel[6] O
*I *921:gpio_slow_sel[6] O *D CF_CARAVEL_SOC
*CAP
1 gpio_slow_sel[6] 0.00300397
2 *921:gpio_slow_sel[6] 0.0180416
3 *789:27 0.00479268
4 *789:25 0.00178871
5 *789:23 0.108487
6 *789:21 0.108487
7 *789:19 0.00856883
8 *789:17 0.0266105
9 *789:23 *833:31 0.00318198
10 gpio_dm1[6] gpio_slow_sel[6] 0
11 gpio_slow_sel[35] *789:17 0.000380146
12 *140:65 *789:23 0.00142713
13 *205:49 *789:27 0.00307354
14 *205:57 *789:19 0.0148297
15 *218:11 *789:27 0.00583481
16 *273:11 *789:27 0
17 *274:119 *789:27 0
18 *315:15 *789:23 0.000508093
19 *327:59 *789:27 0
20 *337:39 *789:23 0.304812
21 *404:11 *789:19 0.0127074
22 *691:15 *789:19 0.0386199
23 *695:17 *789:23 0
24 *698:13 *789:23 0.000525164
25 *740:21 *789:23 0
26 *767:17 *789:17 0
27 *788:9 *789:17 0
*RES
1 *921:gpio_slow_sel[6] *789:17 48.8609 
2 *789:17 *789:19 482.196 
3 *789:19 *789:21 3.41 
4 *789:21 *789:23 486.353 
5 *789:23 *789:25 3.41 
6 *789:25 *789:27 72.9821 
7 *789:27 gpio_slow_sel[6] 9.40798 
*END

*D_NET *790 0.541718
*CONN
*P gpio_slow_sel[7] O
*I *921:gpio_slow_sel[7] O *D CF_CARAVEL_SOC
*CAP
1 gpio_slow_sel[7] 0.000139274
2 *921:gpio_slow_sel[7] 0.00226979
3 *790:15 0.152903
4 *790:13 0.152764
5 *790:11 0.0314152
6 *790:9 0.0336849
7 *790:9 *791:21 0
8 *790:9 *797:17 6.63171e-06
9 *790:9 *836:11 0.000255549
10 *115:33 *790:11 0.000604458
11 *115:35 *790:11 0.00963647
12 *140:173 *790:15 0.00157543
13 *162:25 *790:11 0.000255654
14 *355:11 *790:11 0.0331267
15 *371:11 *790:11 0.0299213
16 *382:11 *790:11 0.00228752
17 *388:11 *790:11 0.0381695
18 *413:11 *790:11 0.0491686
19 *437:29 *790:11 2.11419e-05
20 *482:9 *790:15 0
21 *778:13 *790:11 0.0030037
22 *787:11 *790:11 0.000510024
*RES
1 *921:gpio_slow_sel[7] *790:9 8.46407 
2 *790:9 *790:11 1312.77 
3 *790:11 *790:13 3.41 
4 *790:13 *790:15 481.247 
5 *790:15 gpio_slow_sel[7] 0.46765 
*END

*D_NET *791 0.546885
*CONN
*P gpio_slow_sel[8] O
*I *921:gpio_slow_sel[8] O *D CF_CARAVEL_SOC
*CAP
1 gpio_slow_sel[8] 5.52898e-05
2 *921:gpio_slow_sel[8] 0.00514805
3 *791:27 0.152487
4 *791:25 0.152432
5 *791:23 0.0355904
6 *791:21 0.0407385
7 *791:21 *792:9 0
8 *791:21 *795:15 0.000170034
9 *791:21 *798:19 0.00126955
10 *791:21 *819:11 0.00514875
11 *791:21 *834:11 0
12 *791:21 *836:11 0.000255549
13 *791:23 *808:11 0.0415225
14 gpio_dm1[8] *791:27 0
15 *354:11 *791:23 0.10061
16 *359:11 *791:23 0
17 *393:11 *791:23 0.0028136
18 *449:29 *791:23 0.00864361
19 *790:9 *791:21 0
*RES
1 *921:gpio_slow_sel[8] *791:21 29.9136 
2 *791:21 *791:23 1423.27 
3 *791:23 *791:25 3.41 
4 *791:25 *791:27 480.454 
5 *791:27 gpio_slow_sel[8] 0.18565 
*END

*D_NET *792 0.668204
*CONN
*P gpio_slow_sel[9] O
*I *921:gpio_slow_sel[9] O *D CF_CARAVEL_SOC
*CAP
1 gpio_slow_sel[9] 0.000241922
2 *921:gpio_slow_sel[9] 0.00136563
3 *792:15 0.151942
4 *792:13 0.1517
5 *792:11 0.0349523
6 *792:9 0.036318
7 *792:9 *836:11 0.000255549
8 *792:11 *794:11 0.00693062
9 *792:11 *799:11 0.0188638
10 *792:11 *806:11 0.0116478
11 *792:11 *834:11 0.115298
12 *792:11 *835:11 0.132792
13 *322:359 *792:15 0
14 *400:17 *792:9 9.50985e-05
15 *451:13 *792:11 0.00580174
16 *484:9 *792:15 0
17 *750:9 *792:9 0
18 *791:21 *792:9 0
*RES
1 *921:gpio_slow_sel[9] *792:9 6.41017 
2 *792:9 *792:11 298.553 
3 *792:11 *792:13 3.41 
4 *792:13 *792:15 479.193 
5 *792:15 gpio_slow_sel[9] 0.812317 
*END

*D_NET *793 0.805439
*CONN
*P gpio_vtrip_sel[0] O
*I *921:gpio_vtrip_sel[0] O *D CF_CARAVEL_SOC
*CAP
1 gpio_vtrip_sel[0] 0.00301035
2 *921:gpio_vtrip_sel[0] 0.00250167
3 *793:31 0.00830279
4 *793:29 0.00529244
5 *793:27 0.0422649
6 *793:25 0.0436518
7 *793:11 0.0148342
8 *793:9 0.0159489
9 *793:9 *804:9 0
10 *793:11 *857:23 0.00523827
11 *793:25 *839:217 0.000429726
12 *793:25 *844:17 2.06178e-05
13 *793:25 *846:37 0.00159979
14 *793:27 *815:39 0.0011247
15 *793:27 *815:49 0.000311826
16 *793:27 *866:17 0.0269414
17 *793:31 *804:27 0.022272
18 gpio_ib_mode_sel[0] gpio_vtrip_sel[0] 0
19 gpio_out[0] gpio_vtrip_sel[0] 0
20 *921:gpio_in[0] *793:27 0.00310984
21 *921:gpio_in[11] *793:27 0.00322132
22 *921:gpio_in[19] *793:27 0.00151719
23 *165:11 *793:31 0.00454394
24 *248:35 *793:11 0.00528444
25 *263:11 *793:31 0.0091445
26 *292:27 *793:11 0.0514964
27 *293:25 *793:25 0.000529476
28 *325:129 *793:27 0.000433493
29 *344:15 *793:27 0.0230303
30 *364:27 *793:11 0
31 *389:11 *793:11 0.0111874
32 *408:11 *793:11 0.0289622
33 *408:21 *793:25 0.000742943
34 *423:11 *793:11 0.00542743
35 *430:23 *793:27 0.27983
36 *434:9 *793:9 0
37 *438:19 *793:11 0.00108299
38 *443:31 *793:27 0.123557
39 *451:25 *793:27 0.0528993
40 *453:41 *793:11 0.00327936
41 *467:15 *793:25 0.000236317
42 *531:24 *793:27 0
43 *542:29 *793:9 0
44 *557:29 *793:25 0.0021775
*RES
1 *921:gpio_vtrip_sel[0] *793:9 9.36803 
2 *793:9 *793:11 105.728 
3 *793:11 *793:25 17.5736 
4 *793:25 *793:27 2683.32 
5 *793:27 *793:29 4.5 
6 *793:29 *793:31 278.045 
7 *793:31 gpio_vtrip_sel[0] 9.75735 
*END

*D_NET *794 0.670729
*CONN
*P gpio_vtrip_sel[10] O
*I *921:gpio_vtrip_sel[10] O *D CF_CARAVEL_SOC
*CAP
1 gpio_vtrip_sel[10] 0.000163537
2 *921:gpio_vtrip_sel[10] 0.00122505
3 *794:15 0.151236
4 *794:13 0.151073
5 *794:11 0.0777945
6 *794:9 0.0790196
7 *794:9 *795:9 0
8 *794:9 *836:9 0
9 *794:9 *836:11 0.000255549
10 *794:11 *795:19 0.00615544
11 *794:11 *796:11 0.0286929
12 *794:11 *835:11 0.154988
13 *116:67 *794:11 0.0033011
14 *398:23 *794:15 0
15 *399:11 *794:11 0.00923877
16 *454:41 *794:11 0.00065473
17 *706:11 *794:15 0
18 *750:11 *794:11 0
19 *752:11 *794:11 0
20 *786:11 *794:11 0
21 *792:11 *794:11 0.00693062
*RES
1 *921:gpio_vtrip_sel[10] *794:9 6.1219 
2 *794:9 *794:11 388.681 
3 *794:11 *794:13 3.41 
4 *794:13 *794:15 478.905 
5 *794:15 gpio_vtrip_sel[10] 0.549117 
*END

*D_NET *795 0.953137
*CONN
*P gpio_vtrip_sel[11] O
*I *921:gpio_vtrip_sel[11] O *D CF_CARAVEL_SOC
*CAP
1 gpio_vtrip_sel[11] 3.2894e-05
2 *921:gpio_vtrip_sel[11] 0.00136167
3 *795:23 0.0945653
4 *795:21 0.0945324
5 *795:19 0.046544
6 *795:17 0.046544
7 *795:15 0.00501808
8 *795:9 0.00637974
9 *795:9 *796:9 0
10 *795:9 *836:11 0.000255549
11 *795:15 *799:11 0.00359202
12 *795:15 *806:11 0.00121552
13 *795:15 *834:11 0.0213212
14 *795:15 *835:11 0.0213069
15 *795:19 *796:11 0.176485
16 *795:19 *800:11 0.0925707
17 *795:19 *835:11 0.0279499
18 gpio_ib_mode_sel[11] *795:23 0.00193599
19 gpio_oeb[26] *795:23 0.000344424
20 *399:23 *795:23 0.304856
21 *451:13 *795:19 0
22 *791:21 *795:15 0.000170034
23 *794:9 *795:9 0
24 *794:11 *795:19 0.00615544
*RES
1 *921:gpio_vtrip_sel[11] *795:9 6.41017 
2 *795:9 *795:15 47.5414 
3 *795:15 *795:17 3.41 
4 *795:17 *795:19 2162.77 
5 *795:19 *795:21 3.41 
6 *795:21 *795:23 478.941 
7 *795:23 gpio_vtrip_sel[11] 0.11045 
*END

*D_NET *796 0.690903
*CONN
*P gpio_vtrip_sel[12] O
*I *921:gpio_vtrip_sel[12] O *D CF_CARAVEL_SOC
*CAP
1 gpio_vtrip_sel[12] 0.000251254
2 *921:gpio_vtrip_sel[12] 0.00120419
3 *796:15 0.150681
4 *796:13 0.15043
5 *796:11 0.0857556
6 *796:9 0.0869598
7 *796:9 *797:11 0
8 *796:9 *836:11 0.000255549
9 *796:11 *799:11 0.000196952
10 *796:11 *800:11 0.00994887
11 gpio_holdover[12] *796:15 0
12 gpio_out[12] *796:15 0
13 *163:33 *796:11 4.19535e-05
14 *400:23 *796:15 0
15 *406:17 *796:11 0
16 *451:13 *796:11 0
17 *454:25 *796:11 0
18 *542:31 *796:11 0
19 *708:11 *796:15 0
20 *764:11 *796:11 0
21 *764:17 *796:11 0
22 *785:11 *796:11 0
23 *794:11 *796:11 0.0286929
24 *795:9 *796:9 0
25 *795:19 *796:11 0.176485
*RES
1 *921:gpio_vtrip_sel[12] *796:9 6.08587 
2 *796:9 *796:11 2602.95 
3 *796:11 *796:13 3.41 
4 *796:13 *796:15 478.869 
5 *796:15 gpio_vtrip_sel[12] 0.84365 
*END

*D_NET *797 1.03699
*CONN
*P gpio_vtrip_sel[13] O
*I *921:gpio_vtrip_sel[13] O *D CF_CARAVEL_SOC
*CAP
1 gpio_vtrip_sel[13] 0.000120611
2 *921:gpio_vtrip_sel[13] 0.0118087
3 *797:23 0.0949163
4 *797:21 0.0947957
5 *797:19 0.0437733
6 *797:17 0.0438136
7 *797:11 0.011849
8 *797:11 *798:17 0.00932026
9 *797:11 *798:19 0.00164535
10 *797:11 *819:11 0.00970342
11 *797:11 *825:11 0.000828821
12 *797:11 *829:11 0.00284301
13 *797:11 *834:11 0
14 *797:11 *836:11 0.000255549
15 *797:19 *798:19 0.012173
16 *797:19 *831:19 0.00405671
17 gpio_ib_mode_sel[13] *797:23 0.000533945
18 gpio_out[13] *797:23 0
19 *161:19 *797:19 0.00264784
20 *356:11 *797:19 0.0110698
21 *360:11 *797:19 0.19987
22 *386:11 *797:11 0.000548911
23 *401:15 *797:23 0.304945
24 *448:13 *797:11 0.00137916
25 *449:29 *797:11 0.00204848
26 *449:29 *797:19 0.000930789
27 *751:11 *797:19 0.171107
28 *790:9 *797:17 6.63171e-06
29 *796:9 *797:11 0
*RES
1 *921:gpio_vtrip_sel[13] *797:11 48.4814 
2 *797:11 *797:17 6.90303 
3 *797:17 *797:19 2763.84 
4 *797:19 *797:21 3.41 
5 *797:21 *797:23 480.166 
6 *797:23 gpio_vtrip_sel[13] 0.404983 
*END

*D_NET *798 1.33134
*CONN
*P gpio_vtrip_sel[14] O
*I *921:gpio_vtrip_sel[14] O *D CF_CARAVEL_SOC
*CAP
1 gpio_vtrip_sel[14] 2.40289e-05
2 *921:gpio_vtrip_sel[14] 0.00342004
3 *798:23 0.038182
4 *798:21 0.038158
5 *798:19 0.0433526
6 *798:17 0.0467726
7 *798:17 *799:9 0
8 *798:17 *808:11 0.000925474
9 *798:17 *818:9 0.000108575
10 *798:17 *819:9 0
11 *798:17 *836:11 0.000255549
12 *798:19 *829:11 0.00465892
13 *798:19 *831:19 0.00405464
14 gpio_analog_pol[35] *798:19 0.000143652
15 gpio_ib_mode_sel[14] *798:23 0.00299577
16 *161:19 *798:19 0.00140548
17 *281:31 *798:23 0.2967
18 *360:11 *798:19 0.232676
19 *386:11 *798:17 0.00932895
20 *391:11 *798:19 0.00265223
21 *402:15 *798:23 0.307302
22 *448:13 *798:19 0.268214
23 *449:29 *798:19 0
24 *666:11 *798:23 0.00560317
25 *791:21 *798:19 0.00126955
26 *797:11 *798:17 0.00932026
27 *797:11 *798:19 0.00164535
28 *797:19 *798:19 0.012173
*RES
1 *921:gpio_vtrip_sel[14] *798:17 33.7645 
2 *798:17 *798:19 3284.16 
3 *798:19 *798:21 3.41 
4 *798:21 *798:23 480.022 
5 *798:23 gpio_vtrip_sel[14] 0.0806833 
*END

*D_NET *799 0.761673
*CONN
*P gpio_vtrip_sel[15] O
*I *921:gpio_vtrip_sel[15] O *D CF_CARAVEL_SOC
*CAP
1 gpio_vtrip_sel[15] 8.83825e-05
2 *921:gpio_vtrip_sel[15] 0.00131689
3 *799:19 0.107765
4 *799:17 0.107676
5 *799:15 0.137709
6 *799:13 0.137709
7 *799:11 0.0189753
8 *799:9 0.0202922
9 *799:9 *800:9 0
10 *799:9 *836:11 0.000255549
11 *799:11 *800:11 0.106877
12 *799:11 *806:11 0.0981527
13 *799:11 *835:11 0.00010385
14 gpio_ib_mode_sel[15] gpio_vtrip_sel[15] 0
15 *140:129 *799:19 0.00102035
16 *280:23 *799:15 0
17 *403:19 *799:19 0
18 *451:13 *799:11 0
19 *538:249 *799:15 0
20 *785:11 *799:11 0.0010789
21 *792:11 *799:11 0.0188638
22 *795:15 *799:11 0.00359202
23 *796:11 *799:11 0.000196952
24 *798:17 *799:9 0
*RES
1 *921:gpio_vtrip_sel[15] *799:9 6.30207 
2 *799:9 *799:11 1318.23 
3 *799:11 *799:13 3.41 
4 *799:13 *799:15 442.104 
5 *799:15 *799:17 3.41 
6 *799:17 *799:19 2200.41 
7 *799:19 gpio_vtrip_sel[15] 1.60714 
*END

*D_NET *800 0.703918
*CONN
*P gpio_vtrip_sel[16] O
*I *921:gpio_vtrip_sel[16] O *D CF_CARAVEL_SOC
*CAP
1 gpio_vtrip_sel[16] 0.106152
2 *921:gpio_vtrip_sel[16] 0.00127864
3 *800:17 0.106152
4 *800:15 0.112793
5 *800:13 0.112793
6 *800:11 0.0191674
7 *800:9 0.0204461
8 *800:9 *801:9 0
9 *800:9 *836:11 0.000255549
10 *800:11 *835:11 0.0150736
11 gpio_ib_mode_sel[16] gpio_vtrip_sel[16] 0
12 *451:13 *800:11 0
13 *538:257 *800:15 0.000410107
14 *795:19 *800:11 0.0925707
15 *796:11 *800:11 0.00994887
16 *799:9 *800:9 0
17 *799:11 *800:11 0.106877
*RES
1 *921:gpio_vtrip_sel[16] *800:9 6.23 
2 *800:9 *800:11 1355.27 
3 *800:11 *800:13 3.41 
4 *800:13 *800:15 362.254 
5 *800:15 *800:17 3.41 
6 *800:17 gpio_vtrip_sel[16] 2158.46 
*END

*D_NET *801 0.802023
*CONN
*P gpio_vtrip_sel[17] O
*I *921:gpio_vtrip_sel[17] O *D CF_CARAVEL_SOC
*CAP
1 gpio_vtrip_sel[17] 0.131379
2 *921:gpio_vtrip_sel[17] 0.00150778
3 *801:17 0.131379
4 *801:15 0.0325383
5 *801:13 0.0325383
6 *801:11 0.0134544
7 *801:9 0.0149622
8 *801:9 *802:9 0
9 *801:9 *836:11 0.000255549
10 *801:11 *805:11 0.067051
11 *801:11 *807:11 0.00576309
12 *801:11 *834:11 0.0133993
13 gpio_ib_mode_sel[17] gpio_vtrip_sel[17] 0
14 *158:24 *801:15 0.179403
15 *230:25 *801:15 0.0101924
16 *244:15 *801:15 0.0110174
17 *277:23 *801:15 0.0680551
18 *286:35 *801:15 0.0161905
19 *448:13 *801:11 0
20 *451:13 *801:11 0.0196208
21 *686:11 *801:15 0.0343437
22 *785:11 *801:11 0.0189718
23 *800:9 *801:9 0
*RES
1 *921:gpio_vtrip_sel[17] *801:9 6.6624 
2 *801:9 *801:11 839.804 
3 *801:11 *801:13 3.41 
4 *801:13 *801:15 322.401 
5 *801:15 *801:17 3.41 
6 *801:17 gpio_vtrip_sel[17] 2667.85 
*END

*D_NET *802 0.796591
*CONN
*P gpio_vtrip_sel[18] O
*I *921:gpio_vtrip_sel[18] O *D CF_CARAVEL_SOC
*CAP
1 gpio_vtrip_sel[18] 0.131087
2 *921:gpio_vtrip_sel[18] 0.00609044
3 *802:17 0.131087
4 *802:15 0.0227762
5 *802:13 0.0227762
6 *802:11 0.0150088
7 *802:9 0.0210993
8 *802:9 *803:9 0
9 *802:15 gpio_vtrip_sel[32] 0.000227136
10 *802:15 *803:15 0.115161
11 *802:15 *805:15 0.000330086
12 *802:15 *814:17 4.95419e-05
13 gpio_ib_mode_sel[18] gpio_vtrip_sel[18] 0
14 gpio_ib_mode_sel[32] *802:15 0.000129156
15 *162:27 *802:11 0.00594893
16 *249:27 *802:11 0.00286458
17 *275:15 *802:15 0.0470344
18 *290:15 *802:15 0
19 *322:303 *802:11 0.00170149
20 *396:11 *802:11 0.00658549
21 *403:15 *802:15 0.00268757
22 *406:19 *802:15 0.162704
23 *472:15 *802:11 0.0532331
24 *472:25 *802:11 0.000114863
25 *686:11 *802:15 0
26 *754:11 *802:11 0.0478943
27 *801:9 *802:9 0
*RES
1 *921:gpio_vtrip_sel[18] *802:9 16.6859 
2 *802:9 *802:11 841.625 
3 *802:11 *802:13 3.41 
4 *802:13 *802:15 263.162 
5 *802:15 *802:17 3.41 
6 *802:17 gpio_vtrip_sel[18] 2662.38 
*END

*D_NET *803 0.679301
*CONN
*P gpio_vtrip_sel[19] O
*I *921:gpio_vtrip_sel[19] O *D CF_CARAVEL_SOC
*CAP
1 gpio_vtrip_sel[19] 0.131142
2 *921:gpio_vtrip_sel[19] 0.00353323
3 *803:17 0.131142
4 *803:15 0.0142083
5 *803:13 0.0142083
6 *803:11 0.0120313
7 *803:9 0.0155645
8 *803:9 *805:9 0
9 gpio_ib_mode_sel[19] gpio_vtrip_sel[19] 0
10 *250:35 *803:11 0.00808268
11 *403:15 *803:15 0.111168
12 *420:11 *803:11 0.0103945
13 *456:27 *803:11 0.014485
14 *469:11 *803:11 0.00607424
15 *686:11 *803:15 0.00065471
16 *753:11 *803:11 0.049188
17 *768:11 *803:11 0.0422621
18 *802:9 *803:9 0
19 *802:15 *803:15 0.115161
*RES
1 *921:gpio_vtrip_sel[19] *803:9 11.4251 
2 *803:9 *803:11 835.554 
3 *803:11 *803:13 3.41 
4 *803:13 *803:15 178.124 
5 *803:15 *803:17 3.41 
6 *803:17 gpio_vtrip_sel[19] 2662.99 
*END

*D_NET *804 0.727054
*CONN
*P gpio_vtrip_sel[1] O
*I *921:gpio_vtrip_sel[1] O *D CF_CARAVEL_SOC
*CAP
1 gpio_vtrip_sel[1] 0.00267546
2 *921:gpio_vtrip_sel[1] 0.00100631
3 *804:27 0.0118271
4 *804:25 0.00915166
5 *804:23 0.0851096
6 *804:21 0.0856733
7 *804:11 0.0297544
8 *804:9 0.030197
9 *804:11 *851:19 0.00345473
10 *804:21 *850:21 4.69987e-05
11 *804:21 *862:21 0.000274422
12 *804:23 *829:43 0
13 *804:23 *859:11 0
14 gpio_ib_mode_sel[1] gpio_vtrip_sel[1] 0
15 gpio_out[1] gpio_vtrip_sel[1] 0.000666761
16 *165:11 *804:27 0
17 *248:33 *804:21 9.84683e-05
18 *250:23 *804:23 0.277828
19 *263:11 *804:27 0.00406017
20 *284:15 *804:23 6.80313e-05
21 *306:11 *804:27 0.00860139
22 *397:11 *804:11 0.0152155
23 *399:11 *804:11 0.00672797
24 *408:101 *804:27 0.0376047
25 *428:11 *804:11 0.00680734
26 *430:11 *804:11 0.00079797
27 *431:11 *804:11 0.0100375
28 *432:11 *804:11 0.00692222
29 *433:22 *804:23 0
30 *435:11 *804:11 0
31 *454:41 *804:11 0.00423151
32 *542:23 *804:11 0.00388043
33 *542:29 *804:9 0.000321518
34 *561:18 *804:23 0.0293164
35 *563:14 *804:23 0.000729918
36 *566:13 *804:23 0.00258475
37 *760:35 *804:27 0.00142014
38 *781:21 *804:21 0.000218752
39 *781:23 *804:23 0.0234549
40 *783:15 *804:23 0.000398075
41 *784:21 *804:23 0.00117629
42 *785:11 *804:11 0.00144278
43 *785:19 *804:21 0.000192057
44 *785:27 *804:23 0
45 *786:11 *804:11 0
46 *786:21 *804:21 0.000807728
47 *786:23 *804:23 0
48 *793:9 *804:9 0
49 *793:31 *804:27 0.022272
*RES
1 *921:gpio_vtrip_sel[1] *804:9 5.90883 
2 *804:9 *804:11 111.481 
3 *804:11 *804:21 16.0695 
4 *804:21 *804:23 2687.02 
5 *804:23 *804:25 4.5 
6 *804:25 *804:27 510.58 
7 *804:27 gpio_vtrip_sel[1] 9.61635 
*END

*D_NET *805 0.534047
*CONN
*P gpio_vtrip_sel[20] O
*I *921:gpio_vtrip_sel[20] O *D CF_CARAVEL_SOC
*CAP
1 gpio_vtrip_sel[20] 0.000112077
2 *921:gpio_vtrip_sel[20] 0.00129034
3 *805:19 0.131137
4 *805:17 0.131024
5 *805:15 0.0254115
6 *805:13 0.0254115
7 *805:11 0.0265538
8 *805:9 0.0278441
9 *805:9 *806:9 0
10 *805:11 *834:11 0.0123861
11 gpio_ib_mode_sel[20] gpio_vtrip_sel[20] 0
12 gpio_ib_mode_sel[20] *805:19 0
13 *290:15 *805:15 0
14 *406:19 *805:15 0.0852064
15 *448:13 *805:11 0
16 *451:13 *805:11 0.0002892
17 *453:37 *805:11 0
18 *801:11 *805:11 0.067051
19 *802:15 *805:15 0.000330086
20 *803:9 *805:9 0
*RES
1 *921:gpio_vtrip_sel[20] *805:9 6.30833 
2 *805:9 *805:11 831.304 
3 *805:11 *805:13 3.41 
4 *805:13 *805:15 132.578 
5 *805:15 *805:17 3.41 
6 *805:17 *805:19 2660.02 
7 *805:19 gpio_vtrip_sel[20] 1.60714 
*END

*D_NET *806 0.557355
*CONN
*P gpio_vtrip_sel[21] O
*I *921:gpio_vtrip_sel[21] O *D CF_CARAVEL_SOC
*CAP
1 gpio_vtrip_sel[21] 0.000112372
2 *921:gpio_vtrip_sel[21] 0.00112612
3 *806:19 0.112417
4 *806:17 0.112304
5 *806:15 0.0195382
6 *806:13 0.0195382
7 *806:11 0.0159801
8 *806:9 0.0171062
9 *806:11 *807:11 0.0970642
10 gpio_ib_mode_sel[21] gpio_vtrip_sel[21] 0
11 gpio_ib_mode_sel[21] *806:19 0
12 *324:15 *806:15 0.0506212
13 *405:15 *806:15 0
14 *451:13 *806:11 0.000220826
15 *667:7 *806:19 0
16 *785:11 *806:11 0.000310263
17 *792:11 *806:11 0.0116478
18 *795:15 *806:11 0.00121552
19 *799:11 *806:11 0.0981527
20 *805:9 *806:9 0
*RES
1 *921:gpio_vtrip_sel[21] *806:9 5.948 
2 *806:9 *806:11 1205.3 
3 *806:11 *806:13 3.41 
4 *806:13 *806:15 92.0041 
5 *806:15 *806:17 3.41 
6 *806:17 *806:19 2279.95 
7 *806:19 gpio_vtrip_sel[21] 1.60714 
*END

*D_NET *807 0.482013
*CONN
*P gpio_vtrip_sel[22] O
*I *921:gpio_vtrip_sel[22] O *D CF_CARAVEL_SOC
*CAP
1 gpio_vtrip_sel[22] 0.112587
2 *921:gpio_vtrip_sel[22] 0.00116612
3 *807:17 0.112587
4 *807:15 0.011051
5 *807:13 0.011051
6 *807:11 0.0180994
7 *807:9 0.0192656
8 *807:9 *808:9 0
9 *807:11 *834:11 0.0202604
10 gpio_ib_mode_sel[22] gpio_vtrip_sel[22] 0
11 *324:15 *807:15 0
12 *451:13 *807:11 0.0283529
13 *455:9 *807:15 0
14 *539:255 *807:15 0.000206
15 *542:51 *807:15 0
16 *543:43 *807:15 0
17 *679:13 *807:15 0.00796596
18 *720:9 *807:15 0.00493534
19 *785:11 *807:11 0.0316585
20 *801:11 *807:11 0.00576309
21 *806:11 *807:11 0.0970642
*RES
1 *921:gpio_vtrip_sel[22] *807:9 6.02007 
2 *807:9 *807:11 1191.95 
3 *807:11 *807:13 3.41 
4 *807:13 *807:15 51.7909 
5 *807:15 *807:17 3.41 
6 *807:17 gpio_vtrip_sel[22] 2287.78 
*END

*D_NET *808 0.396685
*CONN
*P gpio_vtrip_sel[23] O
*I *921:gpio_vtrip_sel[23] O *D CF_CARAVEL_SOC
*CAP
1 gpio_vtrip_sel[23] 0.00221074
2 *921:gpio_vtrip_sel[23] 0.00174163
3 *808:27 0.133171
4 *808:25 0.13218
5 *808:21 0.00266128
6 *808:11 0.0270646
7 *808:9 0.0273639
8 *808:9 *809:9 0
9 *808:11 *819:11 0.0032451
10 *808:11 *831:11 0.00287523
11 *808:21 *833:21 8.46339e-05
12 *161:15 *808:21 0.00344415
13 *322:313 *808:25 0
14 *322:317 *808:21 0
15 *355:11 *808:11 0
16 *359:11 *808:11 0
17 *388:11 *808:11 0
18 *393:11 *808:11 0.00291745
19 *436:23 *808:25 0.00409321
20 *449:29 *808:11 0.00852209
21 *539:191 *808:21 0
22 *539:221 *808:27 0
23 *693:27 *808:25 0
24 *716:9 *808:27 0
25 *734:11 *808:21 0.00179867
26 *734:11 *808:25 0.000863774
27 *737:73 *808:11 0
28 *791:23 *808:11 0.0415225
29 *798:17 *808:11 0.000925474
30 *807:9 *808:9 0
*RES
1 *921:gpio_vtrip_sel[23] *808:9 7.31727 
2 *808:9 *808:11 775.446 
3 *808:11 *808:21 18.2325 
4 *808:21 *808:25 43.2321 
5 *808:25 *808:27 2655.67 
6 *808:27 gpio_vtrip_sel[23] 42.9732 
*END

*D_NET *809 0.609623
*CONN
*P gpio_vtrip_sel[24] O
*I *921:gpio_vtrip_sel[24] O *D CF_CARAVEL_SOC
*CAP
1 gpio_vtrip_sel[24] 0.00627387
2 *921:gpio_vtrip_sel[24] 0.00271575
3 *809:11 0.0703174
4 *809:9 0.0667592
5 *809:9 *810:9 0
6 gpio_ib_mode_sel[24] gpio_vtrip_sel[24] 5.22343e-05
7 gpio_oeb[24] gpio_vtrip_sel[24] 0
8 *193:63 gpio_vtrip_sel[24] 0.00101463
9 *357:19 *809:11 0
10 *358:19 *809:11 0.228311
11 *370:11 *809:11 0.163312
12 *416:11 *809:11 0.030121
13 *458:11 *809:11 0
14 *555:17 *809:11 0.0044911
15 *556:43 *809:11 0.0361965
16 *721:13 gpio_vtrip_sel[24] 5.91089e-05
17 *808:9 *809:9 0
*RES
1 *921:gpio_vtrip_sel[24] *809:9 9.4072 
2 *809:9 *809:11 3280.52 
3 *809:11 gpio_vtrip_sel[24] 36.5172 
*END

*D_NET *810 0.400076
*CONN
*P gpio_vtrip_sel[25] O
*I *921:gpio_vtrip_sel[25] O *D CF_CARAVEL_SOC
*CAP
1 gpio_vtrip_sel[25] 0.000890746
2 *921:gpio_vtrip_sel[25] 0.00843397
3 *810:11 0.0650233
4 *810:9 0.0725665
5 *810:9 *811:9 0
6 gpio_ib_mode_sel[25] gpio_vtrip_sel[25] 0.000145226
7 gpio_oeb[29] *810:11 0.000103132
8 gpio_out[25] gpio_vtrip_sel[25] 0
9 *337:43 *810:11 0.0416855
10 *439:11 *810:11 0.0298224
11 *446:11 *810:11 0
12 *461:11 *810:11 0.160669
13 *547:25 *810:11 0.0152193
14 *782:11 *810:11 0.00551679
15 *809:9 *810:9 0
*RES
1 *921:gpio_vtrip_sel[25] *810:9 21.1541 
2 *810:9 *810:11 2527.05 
3 *810:11 gpio_vtrip_sel[25] 5.56652 
*END

*D_NET *811 0.378576
*CONN
*P gpio_vtrip_sel[26] O
*I *921:gpio_vtrip_sel[26] O *D CF_CARAVEL_SOC
*CAP
1 gpio_vtrip_sel[26] 0.00141961
2 *921:gpio_vtrip_sel[26] 0.00789042
3 *811:11 0.068409
4 *811:9 0.0748798
5 *811:9 *812:9 0
6 gpio_analog_sel[27] *811:11 5.15849e-05
7 gpio_dm2[28] *811:11 0.000151039
8 gpio_holdover[27] *811:11 0.000151039
9 gpio_ib_mode_sel[26] gpio_vtrip_sel[26] 5.19487e-05
10 gpio_oeb[26] gpio_vtrip_sel[26] 0
11 *410:11 *811:11 0
12 *447:17 *811:11 0
13 *462:11 *811:11 0.144708
14 *548:23 *811:11 0.015146
15 *554:25 *811:11 0.0657174
16 *723:21 gpio_vtrip_sel[26] 0
17 *810:9 *811:9 0
*RES
1 *921:gpio_vtrip_sel[26] *811:9 20.0731 
2 *811:9 *811:11 2329.73 
3 *811:11 gpio_vtrip_sel[26] 6.36552 
*END

*D_NET *812 0.340426
*CONN
*P gpio_vtrip_sel[27] O
*I *921:gpio_vtrip_sel[27] O *D CF_CARAVEL_SOC
*CAP
1 gpio_vtrip_sel[27] 0.00192341
2 *921:gpio_vtrip_sel[27] 0.00730985
3 *812:11 0.0622616
4 *812:9 0.067648
5 *812:9 *813:9 0
6 gpio_ib_mode_sel[27] gpio_vtrip_sel[27] 0.000313837
7 *289:35 *812:11 0.112119
8 *404:11 *812:11 0
9 *460:11 *812:11 0.00994289
10 *550:23 *812:11 0.0139574
11 *550:29 *812:11 0.00359889
12 *691:15 *812:11 0.0613516
13 *811:9 *812:9 0
*RES
1 *921:gpio_vtrip_sel[27] *812:9 18.92 
2 *812:9 *812:11 2129.38 
3 *812:11 gpio_vtrip_sel[27] 7.76925 
*END

*D_NET *813 0.367354
*CONN
*P gpio_vtrip_sel[28] O
*I *921:gpio_vtrip_sel[28] O *D CF_CARAVEL_SOC
*CAP
1 gpio_vtrip_sel[28] 0.00302538
2 *921:gpio_vtrip_sel[28] 0.00559528
3 *813:19 0.0095624
4 *813:17 0.00658914
5 *813:11 0.0334753
6 *813:9 0.0390185
7 *813:9 *814:9 0
8 *813:11 gpio_vtrip_sel[30] 0.00134045
9 *813:11 *814:11 0.0632941
10 *813:11 *816:25 0.00261429
11 *813:11 *816:27 0.0126938
12 *813:11 *823:13 0.000519164
13 *813:11 *873:49 0
14 *813:19 gpio_vtrip_sel[30] 0.000324629
15 *813:19 *814:19 0.0169263
16 gpio_holdover[33] *813:11 0.00061574
17 gpio_ib_mode_sel[28] gpio_vtrip_sel[28] 0.00213925
18 gpio_ib_mode_sel[30] *813:17 9.06484e-05
19 *205:65 *813:11 0.00624816
20 *284:67 *813:19 0.0162157
21 *369:19 *813:19 0.0182494
22 *398:19 *813:11 0.125838
23 *422:11 *813:11 0.00260844
24 *546:25 *813:11 0
25 *684:21 *813:17 0
26 *725:19 gpio_vtrip_sel[28] 0
27 *761:11 *813:11 0.000369961
28 *812:9 *813:9 0
*RES
1 *921:gpio_vtrip_sel[28] *813:9 15.5329 
2 *813:9 *813:11 1541.05 
3 *813:11 *813:17 6.9751 
4 *813:17 *813:19 68.3349 
5 *813:19 gpio_vtrip_sel[28] 11.0859 
*END

*D_NET *814 0.347999
*CONN
*P gpio_vtrip_sel[29] O
*I *921:gpio_vtrip_sel[29] O *D CF_CARAVEL_SOC
*CAP
1 gpio_vtrip_sel[29] 0.00357771
2 *921:gpio_vtrip_sel[29] 0.00554941
3 *814:19 0.0438271
4 *814:17 0.0402968
5 *814:11 0.0106557
6 *814:9 0.0161577
7 *814:9 *816:9 0
8 *814:11 *816:11 0.048299
9 *814:11 *816:25 0.00232681
10 *814:11 *823:13 0.000364663
11 *814:11 *873:49 0.000194444
12 *814:17 gpio_vtrip_sel[32] 0.000137193
13 *814:19 gpio_vtrip_sel[30] 0.00389179
14 *814:19 *816:25 0.00146967
15 *814:19 *816:27 0.055607
16 gpio_holdover[33] *814:11 0.000688782
17 gpio_ib_mode_sel[29] gpio_vtrip_sel[29] 0
18 gpio_ib_mode_sel[36] *814:9 0.000287882
19 *205:65 *814:11 0.0052713
20 *284:65 gpio_vtrip_sel[29] 8.3117e-05
21 *422:11 *814:11 0.00292851
22 *546:25 *814:19 0.0180439
23 *726:21 gpio_vtrip_sel[29] 0
24 *761:11 *814:11 0.00807101
25 *802:15 *814:17 4.95419e-05
26 *813:9 *814:9 0
27 *813:11 *814:11 0.0632941
28 *813:19 *814:19 0.0169263
*RES
1 *921:gpio_vtrip_sel[29] *814:9 15.6049 
2 *814:9 *814:11 776.661 
3 *814:11 *814:17 7.04717 
4 *814:17 *814:19 167.73 
5 *814:19 gpio_vtrip_sel[29] 10.7663 
*END

*D_NET *815 0.974666
*CONN
*P gpio_vtrip_sel[2] O
*I *921:gpio_vtrip_sel[2] O *D CF_CARAVEL_SOC
*CAP
1 gpio_vtrip_sel[2] 0.00156584
2 *921:gpio_vtrip_sel[2] 0.00278791
3 *815:53 0.0120936
4 *815:51 0.0105278
5 *815:49 0.0546328
6 *815:47 0.0577657
7 *815:39 0.00872822
8 *815:21 0.0116323
9 *815:11 0.0156224
10 *815:9 0.0123733
11 *815:9 *826:9 0
12 *815:21 *826:27 0.000851641
13 *815:21 *873:37 0.00938727
14 *815:39 *839:209 0.0147689
15 *815:39 *839:217 5.26048e-05
16 *815:39 *846:33 0.00195684
17 *815:39 *866:17 0.00685873
18 *815:47 *826:27 0.00194476
19 *815:49 *839:17 0.0556734
20 *815:49 *839:39 0.0187239
21 *815:49 *839:53 0.00276668
22 *815:49 *839:65 0.0239053
23 *815:49 *839:83 0.0190917
24 *815:49 *839:107 0.0146764
25 *815:49 *839:125 0.0190899
26 *815:49 *839:143 0.0192683
27 *815:49 *839:157 0.0143528
28 *815:49 *839:169 0.0239216
29 *815:49 *839:189 0.0117286
30 *815:49 *839:197 0.0117929
31 *815:49 *846:13 0.0375585
32 *815:49 *858:11 0.00270665
33 *815:49 *866:17 0.021253
34 gpio_ib_mode_sel[2] gpio_vtrip_sel[2] 0.000627842
35 *120:11 *815:53 0
36 *211:13 *815:49 0.00457011
37 *212:23 *815:49 0.00983033
38 *256:15 *815:49 0.000164054
39 *258:19 *815:49 0.0562654
40 *258:31 *815:49 0.00308014
41 *264:11 *815:53 0.00625254
42 *292:27 *815:11 0
43 *295:27 *815:11 0
44 *305:11 *815:53 0.0256887
45 *311:11 *815:53 0.00624737
46 *322:221 *815:47 6.94448e-05
47 *322:273 *815:21 0.00294037
48 *325:115 *815:47 1.10612e-05
49 *325:129 *815:39 0.000239792
50 *338:81 *815:21 0.0223238
51 *344:15 *815:49 0.0216816
52 *353:11 *815:11 0.0371695
53 *353:35 *815:53 0.0220987
54 *364:43 *815:53 0.0385562
55 *385:11 *815:11 0.0032265
56 *386:21 *815:11 0.0142091
57 *386:35 *815:21 0.000172172
58 *386:55 *815:39 0.000991068
59 *386:77 *815:39 0.000969963
60 *386:77 *815:47 0.0162661
61 *397:177 *815:53 0.000580636
62 *419:11 *815:11 0.0287551
63 *421:11 *815:11 0.00425736
64 *430:23 *815:39 0.000634679
65 *430:23 *815:49 0.0109384
66 *431:15 *815:49 0.00203939
67 *436:17 *815:11 0.0137159
68 *436:19 *815:11 0.00140348
69 *443:29 *815:49 3.64867e-05
70 *443:31 *815:49 0.01075
71 *444:15 *815:49 0
72 *451:21 *815:11 0.00951499
73 *451:25 *815:39 0.00122275
74 *467:11 *815:11 0.00033138
75 *469:15 *815:39 0.00385127
76 *469:15 *815:49 0.00895503
77 *529:9 *815:49 0
78 *539:107 *815:47 2.24813e-05
79 *539:141 *815:21 0
80 *539:153 *815:21 0.00175801
81 *541:73 *815:47 0.015556
82 *541:107 *815:21 0.000904642
83 *550:11 *815:39 0.00272661
84 *550:11 *815:49 0.0370735
85 *552:25 *815:11 0.000312168
86 *693:163 *815:47 0.000119886
87 *735:23 *815:11 0.000293242
88 *737:81 *815:11 0.000224469
89 *737:99 *815:21 0.00224931
90 *737:127 *815:39 0.00128968
91 *793:27 *815:39 0.0011247
92 *793:27 *815:49 0.000311826
*RES
1 *921:gpio_vtrip_sel[2] *815:9 10.1639 
2 *815:9 *815:11 105.728 
3 *815:11 *815:21 47.548 
4 *815:21 *815:39 42.9881 
5 *815:39 *815:47 33.8356 
6 *815:47 *815:49 387.73 
7 *815:49 *815:51 3.41 
8 *815:51 *815:53 683.768 
9 *815:53 gpio_vtrip_sel[2] 7.22875 
*END

*D_NET *816 0.319858
*CONN
*P gpio_vtrip_sel[30] O
*I *921:gpio_vtrip_sel[30] O *D CF_CARAVEL_SOC
*CAP
1 gpio_vtrip_sel[30] 0.00490836
2 *921:gpio_vtrip_sel[30] 0.00567062
3 *816:27 0.0152094
4 *816:25 0.0172708
5 *816:11 0.015074
6 *816:9 0.0137748
7 *816:9 *817:9 0
8 *816:11 *873:49 0.00945335
9 gpio_ib_mode_sel[30] gpio_vtrip_sel[30] 0.000561634
10 gpio_ib_mode_sel[32] *816:25 0.000343861
11 gpio_ib_mode_sel[36] *816:9 0
12 *200:15 gpio_vtrip_sel[30] 0
13 *369:19 gpio_vtrip_sel[30] 0.00728382
14 *369:19 *816:25 0.00216394
15 *369:19 *816:27 0.0308226
16 *398:19 gpio_vtrip_sel[30] 0.00145095
17 *398:19 *816:25 0.00252707
18 *412:11 gpio_vtrip_sel[30] 0.00163125
19 *412:11 *816:25 0.00263771
20 *417:19 *816:25 0.00742692
21 *422:11 *816:11 0.0105569
22 *422:11 *816:25 0.0103123
23 *546:25 *816:25 0.000702319
24 *737:39 *816:25 5.00194e-05
25 *761:11 *816:11 0.0314576
26 *813:11 gpio_vtrip_sel[30] 0.00134045
27 *813:11 *816:25 0.00261429
28 *813:11 *816:27 0.0126938
29 *813:19 gpio_vtrip_sel[30] 0.000324629
30 *814:9 *816:9 0
31 *814:11 *816:11 0.048299
32 *814:11 *816:25 0.00232681
33 *814:19 gpio_vtrip_sel[30] 0.00389179
34 *814:19 *816:25 0.00146967
35 *814:19 *816:27 0.055607
*RES
1 *921:gpio_vtrip_sel[30] *816:9 15.677 
2 *816:9 *816:11 592.089 
3 *816:11 *816:25 44.1678 
4 *816:25 *816:27 113.552 
5 *816:27 gpio_vtrip_sel[30] 26.1635 
*END

*D_NET *817 0.278836
*CONN
*P gpio_vtrip_sel[31] O
*I *921:gpio_vtrip_sel[31] O *D CF_CARAVEL_SOC
*CAP
1 gpio_vtrip_sel[31] 0.00349151
2 *921:gpio_vtrip_sel[31] 0.00526921
3 *817:11 0.0358652
4 *817:9 0.0376429
5 *817:9 *818:9 0
6 *817:11 *818:11 0.0647223
7 gpio_ib_mode_sel[31] gpio_vtrip_sel[31] 0.00235304
8 gpio_out[36] *817:9 0
9 *336:67 *817:11 0.00684843
10 *369:11 *817:11 0.0042401
11 *383:11 *817:11 0.000285008
12 *437:11 *817:11 0.0117959
13 *457:11 *817:11 0.00366886
14 *543:29 *817:9 8.00902e-05
15 *545:15 *817:11 0.00972042
16 *729:21 gpio_vtrip_sel[31] 0
17 *769:11 *817:11 0.0928534
18 *816:9 *817:9 0
*RES
1 *921:gpio_vtrip_sel[31] *817:9 14.7762 
2 *817:9 *817:11 233.994 
3 *817:11 gpio_vtrip_sel[31] 11.957 
*END

*D_NET *818 0.191232
*CONN
*P gpio_vtrip_sel[32] O
*I *921:gpio_vtrip_sel[32] O *D CF_CARAVEL_SOC
*CAP
1 gpio_vtrip_sel[32] 0.00374663
2 *921:gpio_vtrip_sel[32] 0.00418053
3 *818:11 0.02048
4 *818:9 0.0209139
5 gpio_holdover[36] *818:9 0.00399048
6 gpio_ib_mode_sel[32] gpio_vtrip_sel[32] 0
7 gpio_out[36] *818:9 0.000333516
8 *290:15 gpio_vtrip_sel[32] 0.000885928
9 *383:11 *818:11 0.0482409
10 *390:11 *818:11 0.010458
11 *417:11 *818:11 0.00868598
12 *539:183 *818:11 0.00217573
13 *693:31 *818:11 0.00194501
14 *798:17 *818:9 0.000108575
15 *802:15 gpio_vtrip_sel[32] 0.000227136
16 *814:17 gpio_vtrip_sel[32] 0.000137193
17 *817:9 *818:9 0
18 *817:11 *818:11 0.0647223
*RES
1 *921:gpio_vtrip_sel[32] *818:9 14.632 
2 *818:9 *818:11 133.214 
3 *818:11 gpio_vtrip_sel[32] 11.863 
*END

*D_NET *819 0.154821
*CONN
*P gpio_vtrip_sel[33] O
*I *921:gpio_vtrip_sel[33] O *D CF_CARAVEL_SOC
*CAP
1 gpio_vtrip_sel[33] 0.00535196
2 *921:gpio_vtrip_sel[33] 0.00172443
3 *819:11 0.0180094
4 *819:9 0.0143818
5 *819:9 *820:9 0
6 *819:11 *831:11 0.000986308
7 *819:11 *834:11 0
8 gpio_analog_pol[35] *819:11 0.0026594
9 gpio_ib_mode_sel[33] gpio_vtrip_sel[33] 0.006911
10 gpio_oeb[33] gpio_vtrip_sel[33] 0.00398313
11 *161:19 *819:11 0.0245694
12 *356:11 *819:11 0.000486212
13 *382:9 gpio_vtrip_sel[33] 0
14 *383:9 gpio_vtrip_sel[33] 0.000180952
15 *386:11 *819:11 0.0297199
16 *393:11 *819:11 0.01579
17 *448:13 *819:11 0.000563372
18 *449:29 *819:11 0.00370863
19 *548:23 gpio_vtrip_sel[33] 0.000248504
20 *693:39 gpio_vtrip_sel[33] 0.000249927
21 *736:37 gpio_vtrip_sel[33] 0.000651809
22 *751:11 *819:11 0.00654742
23 *791:21 *819:11 0.00514875
24 *797:11 *819:11 0.00970342
25 *798:17 *819:9 0
26 *808:11 *819:11 0.0032451
*RES
1 *921:gpio_vtrip_sel[33] *819:9 7.24363 
2 *819:9 *819:11 97.4185 
3 *819:11 gpio_vtrip_sel[33] 29.6363 
*END

*D_NET *820 0.0904487
*CONN
*P gpio_vtrip_sel[34] O
*I *921:gpio_vtrip_sel[34] O *D CF_CARAVEL_SOC
*CAP
1 gpio_vtrip_sel[34] 0.00225798
2 *921:gpio_vtrip_sel[34] 0.00610044
3 *820:11 0.00793722
4 *820:9 0.0117797
5 *820:9 *821:21 0
6 gpio_ib_mode_sel[34] gpio_vtrip_sel[34] 0.00305773
7 gpio_inp_dis[36] *820:9 0.00171798
8 *541:111 *820:11 0.0287981
9 *690:23 *820:11 0.0287995
10 *819:9 *820:9 0
*RES
1 *921:gpio_vtrip_sel[34] *820:9 17.6949 
2 *820:9 *820:11 359.554 
3 *820:11 gpio_vtrip_sel[34] 9.08838 
*END

*D_NET *821 0.051316
*CONN
*P gpio_vtrip_sel[35] O
*I *921:gpio_vtrip_sel[35] O *D CF_CARAVEL_SOC
*CAP
1 gpio_vtrip_sel[35] 0.00262697
2 *921:gpio_vtrip_sel[35] 0.0123943
3 *821:21 0.0150213
4 *821:21 *822:9 0
5 *821:21 *832:15 0.000175223
6 gpio_dm1[35] *821:21 0.000176067
7 gpio_ib_mode_sel[35] gpio_vtrip_sel[35] 0.00043996
8 gpio_ib_mode_sel[35] *821:21 0
9 gpio_inp_dis[36] *821:21 0
10 gpio_oeb[35] gpio_vtrip_sel[35] 0.000285507
11 gpio_oeb[35] *821:21 0.000386884
12 *293:27 *821:21 0.00241307
13 *384:11 *821:21 0.00108294
14 *414:11 *821:21 0.00041448
15 *420:11 *821:21 0.0124082
16 *456:27 *821:21 0.00249695
17 *760:11 *821:21 0.000994139
18 *820:9 *821:21 0
*RES
1 *921:gpio_vtrip_sel[35] *821:21 49.9989 
2 *821:21 gpio_vtrip_sel[35] 5.68308 
*END

*D_NET *822 0.0244038
*CONN
*P gpio_vtrip_sel[36] O
*I *921:gpio_vtrip_sel[36] O *D CF_CARAVEL_SOC
*CAP
1 gpio_vtrip_sel[36] 0.00408347
2 *921:gpio_vtrip_sel[36] 0.00625134
3 *822:9 0.0103348
4 *822:9 *823:9 0
5 gpio_analog_en[36] *822:9 0.000567378
6 gpio_dm0[36] *822:9 0
7 gpio_dm1[36] *822:9 0.000304147
8 gpio_ib_mode_sel[36] gpio_vtrip_sel[36] 0
9 *402:11 gpio_vtrip_sel[36] 0.00286267
10 *465:11 gpio_vtrip_sel[36] 0
11 *821:21 *822:9 0
*RES
1 *921:gpio_vtrip_sel[36] *822:9 17.4787 
2 *822:9 gpio_vtrip_sel[36] 44.8954 
*END

*D_NET *823 0.0638449
*CONN
*P gpio_vtrip_sel[37] O
*I *921:gpio_vtrip_sel[37] O *D CF_CARAVEL_SOC
*CAP
1 gpio_vtrip_sel[37] 0.00378831
2 *921:gpio_vtrip_sel[37] 0.00540593
3 *823:13 0.0111771
4 *823:9 0.0127947
5 *823:9 *824:9 0.000416624
6 gpio_dm1[36] *823:9 0.000169289
7 gpio_ib_mode_sel[37] gpio_vtrip_sel[37] 0
8 gpio_out[37] gpio_vtrip_sel[37] 0
9 *398:19 *823:13 0.00356198
10 *422:11 *823:13 0.0199471
11 *437:11 *823:13 0.00247705
12 *693:91 *823:13 0.00322297
13 *813:11 *823:13 0.000519164
14 *814:11 *823:13 0.000364663
15 *822:9 *823:9 0
*RES
1 *921:gpio_vtrip_sel[37] *823:9 15.641 
2 *823:9 *823:13 44.3658 
3 *823:13 gpio_vtrip_sel[37] 7.65865 
*END

*D_NET *824 0.358575
*CONN
*P gpio_vtrip_sel[38] O
*I *921:gpio_vtrip_sel[38] O *D CF_CARAVEL_SOC
*CAP
1 gpio_vtrip_sel[38] 0.00037918
2 *921:gpio_vtrip_sel[38] 0.00214627
3 *824:23 0.0109217
4 *824:21 0.0105425
5 *824:19 0.00154987
6 *824:17 0.00160081
7 *824:11 0.0111487
8 *824:9 0.013244
9 *824:9 *825:9 0
10 *824:9 *836:11 0.000255549
11 *824:11 *861:27 0.0256658
12 *824:19 *855:15 0
13 *824:19 *859:23 0.000386586
14 *824:19 *861:25 0.000625388
15 *824:19 *861:27 0.00168751
16 *824:23 *865:11 0.000157397
17 *824:23 *867:11 0.0121522
18 *284:39 *824:23 0.000205673
19 *364:37 *824:19 1.66763e-05
20 *382:11 *824:11 0.000198909
21 *385:15 *824:23 0.0689253
22 *387:21 *824:23 0.000636289
23 *388:11 *824:11 0.0667729
24 *413:11 *824:11 0.0282975
25 *428:23 *824:23 0.0677421
26 *541:107 *824:17 9.41642e-05
27 *543:23 *824:11 0.0143396
28 *549:13 *824:23 0.0112679
29 *558:25 *824:11 0.00503588
30 *558:25 *824:19 0.00216252
31 *823:9 *824:9 0.000416624
*RES
1 *921:gpio_vtrip_sel[38] *824:9 8.46407 
2 *824:9 *824:11 818.098 
3 *824:11 *824:17 9.94643 
4 *824:17 *824:19 48.5446 
5 *824:19 *824:21 3.41 
6 *824:21 *824:23 108.868 
7 *824:23 gpio_vtrip_sel[38] 9.04393 
*END

*D_NET *825 0.442932
*CONN
*P gpio_vtrip_sel[39] O
*I *921:gpio_vtrip_sel[39] O *D CF_CARAVEL_SOC
*CAP
1 gpio_vtrip_sel[39] 0.000791349
2 *921:gpio_vtrip_sel[39] 0.00181126
3 *825:23 0.0229394
4 *825:21 0.0231189
5 *825:11 0.0134288
6 *825:9 0.0142692
7 *825:9 *827:9 0
8 *825:9 *836:11 0.000255549
9 *825:11 *829:11 0.0671229
10 *825:11 *854:27 0.0247024
11 *825:21 *829:29 4.58194e-05
12 *825:21 *829:33 0
13 *825:21 *854:25 0.000442844
14 *825:21 *865:15 0
15 *825:23 *859:19 7.83294e-05
16 gpio_ib_mode_sel[39] gpio_vtrip_sel[39] 0
17 *248:33 *825:23 0.000277887
18 *250:33 *825:23 0.000575639
19 *335:25 *825:23 0.0116543
20 *386:11 *825:11 0.00217938
21 *390:21 *825:21 0.000326415
22 *429:11 *825:11 3.92183e-05
23 *429:17 *825:11 0.00180155
24 *429:17 *825:21 0.000174845
25 *435:11 *825:11 0.00562497
26 *446:27 *825:23 0.010112
27 *447:21 *825:23 0.0114629
28 *449:29 *825:11 0.0248369
29 *453:49 *825:23 0.0001421
30 *473:15 *825:23 0.00625751
31 *541:59 *825:23 0.00192059
32 *546:23 *825:23 0.000387287
33 *553:23 *825:21 2.11419e-05
34 *554:13 *825:21 4.58194e-05
35 *558:23 *825:21 4.09312e-05
36 *739:122 *825:23 0.0285307
37 *781:23 *825:23 0.000139228
38 *783:15 *825:23 0.119951
39 *784:13 *825:23 0.0454321
40 *785:19 *825:23 0.00102744
41 *786:21 *825:23 0.000134473
42 *797:11 *825:11 0.000828821
43 *824:9 *825:9 0
*RES
1 *921:gpio_vtrip_sel[39] *825:9 7.38307 
2 *825:9 *825:11 847.241 
3 *825:11 *825:21 32.7582 
4 *825:21 *825:23 192.609 
5 *825:23 gpio_vtrip_sel[39] 14.8832 
*END

*D_NET *826 0.772138
*CONN
*P gpio_vtrip_sel[3] O
*I *921:gpio_vtrip_sel[3] O *D CF_CARAVEL_SOC
*CAP
1 gpio_vtrip_sel[3] 0.00206961
2 *921:gpio_vtrip_sel[3] 0.00161548
3 *826:131 0.0261673
4 *826:129 0.0240977
5 *826:127 0.00870481
6 *826:125 0.00875976
7 *826:119 0.00426498
8 *826:117 0.00515769
9 *826:109 0.00158123
10 *826:95 0.00283865
11 *826:93 0.00454617
12 *826:79 0.00346326
13 *826:77 0.00261533
14 *826:63 0.00234909
15 *826:61 0.00138298
16 *826:47 0.0254931
17 *826:45 0.0259429
18 *826:31 0.0205742
19 *826:29 0.0195974
20 *826:27 0.0365469
21 *826:11 0.056832
22 *826:9 0.0219005
23 *826:11 *846:39 0.00391649
24 *826:11 *852:27 0.00235723
25 *826:11 *864:15 0.00288035
26 *826:27 *840:19 0.00821558
27 *826:27 *867:21 0.00255929
28 gpio_ib_mode_sel[3] gpio_vtrip_sel[3] 0.000690623
29 gpio_out[39] *826:27 0.00108521
30 *921:gpio_in[10] *826:27 0.000157779
31 *921:gpio_in[12] *826:27 0.00295245
32 *921:gpio_in[16] *826:27 0.00199125
33 *921:gpio_in[18] *826:27 0
34 *921:gpio_in[37] *826:45 0
35 *118:27 *826:127 0.00469821
36 *118:37 *826:125 0.000119575
37 *118:39 *826:127 5.52238e-05
38 *118:65 *826:109 0.000253501
39 *118:115 *826:47 0.00800591
40 *118:137 *826:47 0
41 *118:205 *826:27 0.00279426
42 *125:15 *826:127 0.00156101
43 *261:11 *826:131 0.0585534
44 *283:11 *826:131 0
45 *293:15 *826:45 0.000168948
46 *322:39 *826:127 0.0206622
47 *322:61 *826:125 0.00012129
48 *322:101 *826:109 9.13864e-05
49 *322:173 *826:45 1.03196e-05
50 *322:189 *826:31 0.0016339
51 *322:207 *826:27 0.000128347
52 *322:221 *826:27 0.00146551
53 *322:235 *826:27 0.000246875
54 *322:255 *826:27 0.00157346
55 *325:129 *826:27 0.00139985
56 *325:137 *826:27 0.00198674
57 *325:157 *826:27 0.00353544
58 *335:45 *826:27 0.000146112
59 *335:55 *826:27 0.000168616
60 *336:41 *826:77 1.22998e-05
61 *338:35 *826:47 0.00694076
62 *338:81 *826:27 0.00192412
63 *347:11 *826:131 0.0250992
64 *386:11 *826:11 0.0377838
65 *386:35 *826:27 0.00470887
66 *386:55 *826:27 0.00222373
67 *386:77 *826:27 0.00293093
68 *386:175 *826:79 0.00202091
69 *386:189 *826:93 0.000188774
70 *386:189 *826:109 9.25014e-06
71 *386:211 *826:131 0.00625459
72 *397:25 *826:27 0.00458113
73 *397:39 *826:27 0.00363714
74 *397:55 *826:27 0.00288363
75 *397:71 *826:27 0.000967977
76 *397:77 *826:27 0.000372369
77 *397:79 *826:45 0.00171525
78 *397:93 *826:61 0.00081588
79 *397:95 *826:63 0.000172725
80 *397:109 *826:77 0.0100742
81 *397:111 *826:79 4.27338e-05
82 *397:135 *826:109 0.000110117
83 *408:61 *826:79 2.14658e-05
84 *408:63 *826:95 0.00704274
85 *408:95 *826:119 0.000684967
86 *419:19 *826:27 0.00491506
87 *419:23 *826:27 0.000592513
88 *419:95 *826:63 0.00559988
89 *419:119 *826:79 0.00738736
90 *419:133 *826:93 0.00854022
91 *425:11 *826:11 0.00241504
92 *435:11 *826:11 0.00136149
93 *444:37 *826:117 0
94 *444:55 *826:47 0
95 *444:61 *826:45 6.75178e-05
96 *444:71 *826:27 0.00303837
97 *448:31 *826:11 0.00611716
98 *471:11 *826:11 0.000551644
99 *471:25 *826:27 0.00031816
100 *472:55 *826:27 0.0122692
101 *472:55 *826:45 0.000320402
102 *530:27 *826:63 1.02821e-05
103 *530:55 *826:95 2.28499e-05
104 *530:75 *826:109 3.07351e-06
105 *530:75 *826:117 0.00722452
106 *532:14 *826:47 0.000470764
107 *532:14 *826:61 0
108 *532:32 *826:127 0.00139454
109 *533:30 *826:63 0.000595555
110 *533:40 *826:63 0.00188165
111 *533:68 *826:93 1.66787e-05
112 *533:84 *826:109 0.000220353
113 *533:94 *826:119 0
114 *533:102 *826:127 0.000101149
115 *535:35 *826:79 0.000611192
116 *535:59 *826:93 0.000866449
117 *535:59 *826:95 0.000167461
118 *535:91 *826:109 0.00187322
119 *535:91 *826:117 0.0020505
120 *536:35 *826:109 0
121 *536:59 *826:119 0.002019
122 *536:63 *826:119 0.000973791
123 *536:63 *826:127 0.00180829
124 *537:24 *826:109 0.000621854
125 *539:61 *826:45 7.40793e-05
126 *539:73 *826:31 0.00290114
127 *539:75 *826:31 0.00930399
128 *539:107 *826:27 0.00146464
129 *539:141 *826:27 0.00260531
130 *540:18 *826:61 0.000197658
131 *540:18 *826:77 0.000886404
132 *540:34 *826:119 0.00668848
133 *541:35 *826:31 0.0118635
134 *541:73 *826:27 0.00170279
135 *541:89 *826:27 0.00166319
136 *543:23 *826:11 0
137 *551:49 *826:61 0.00186609
138 *551:59 *826:63 0.00406834
139 *551:109 *826:117 4.57872e-05
140 *556:29 *826:27 0.00202246
141 *556:41 *826:27 0.00484803
142 *562:21 *826:47 0.000277098
143 *562:65 *826:77 0.0101181
144 *562:69 *826:79 0.00455425
145 *562:107 *826:117 0.00760377
146 *567:14 *826:127 0
147 *568:11 *826:127 0
148 *569:18 *826:47 0.00617807
149 *569:18 *826:127 0.0346974
150 *572:16 *826:127 0
151 *693:121 *826:27 0.00146878
152 *693:191 *826:27 0
153 *696:89 *826:119 0.000590844
154 *696:119 *826:63 5.52302e-05
155 *696:133 *826:77 2.04825e-05
156 *696:163 *826:47 0.000635606
157 *698:21 gpio_vtrip_sel[3] 3.84854e-05
158 *737:99 *826:27 0.00087819
159 *737:143 *826:27 0.00182182
160 *737:151 *826:27 0.00134415
161 *737:181 *826:27 0.000160145
162 *739:76 *826:27 0.00163826
163 *739:92 *826:27 0.00146551
164 *740:113 *826:119 5.52238e-05
165 *741:148 *826:93 0.000294815
166 *741:148 *826:95 0.000909446
167 *815:9 *826:9 0
168 *815:21 *826:27 0.000851641
169 *815:47 *826:27 0.00194476
*RES
1 *921:gpio_vtrip_sel[3] *826:9 7.5319 
2 *826:9 *826:11 107.539 
3 *826:11 *826:27 49.7264 
4 *826:27 *826:29 4.5 
5 *826:29 *826:31 447.393 
6 *826:31 *826:45 44.1071 
7 *826:45 *826:47 608.393 
8 *826:47 *826:61 23.4812 
9 *826:61 *826:63 57.625 
10 *826:63 *826:77 32.1311 
11 *826:77 *826:79 70.7679 
12 *826:79 *826:93 29.8403 
13 *826:93 *826:95 66.6607 
14 *826:95 *826:109 40.3832 
15 *826:109 *826:117 21.267 
16 *826:117 *826:119 132.786 
17 *826:119 *826:125 10.6429 
18 *826:125 *826:127 377.161 
19 *826:127 *826:129 4.5 
20 *826:129 *826:131 876.688 
21 *826:131 gpio_vtrip_sel[3] 8.06222 
*END

*D_NET *827 0.559893
*CONN
*P gpio_vtrip_sel[40] O
*I *921:gpio_vtrip_sel[40] O *D CF_CARAVEL_SOC
*CAP
1 gpio_vtrip_sel[40] 0.0014176
2 *921:gpio_vtrip_sel[40] 0.00284281
3 *827:19 0.0318343
4 *827:17 0.0305516
5 *827:11 0.0118379
6 *827:9 0.0145458
7 *827:9 *828:9 0
8 *827:9 *836:11 0.000255549
9 *827:11 *857:21 6.73707e-06
10 *827:11 *857:23 0.0259488
11 *827:19 *828:15 0.147761
12 *827:19 *837:11 0.000445624
13 gpio_ib_mode_sel[40] gpio_vtrip_sel[40] 0
14 *164:43 *827:19 0.0177796
15 *255:15 *827:19 0.00340403
16 *292:27 *827:11 0.0155634
17 *297:20 gpio_vtrip_sel[40] 0.000690638
18 *336:63 *827:19 0.000202855
19 *339:23 *827:19 0.00685987
20 *364:39 *827:19 0.0273885
21 *389:11 *827:11 0.010297
22 *438:19 *827:11 0.0252393
23 *453:41 *827:11 7.28057e-06
24 *453:47 *827:11 0.000518247
25 *462:21 *827:17 0.000113391
26 *464:21 *827:17 0.000113724
27 *464:21 *827:19 0.000193845
28 *472:11 *827:17 4.03774e-05
29 *472:11 *827:19 0.0632607
30 *482:15 *827:19 0.0262977
31 *555:17 *827:11 0.0700888
32 *558:13 *827:19 0.024386
33 *825:9 *827:9 0
*RES
1 *921:gpio_vtrip_sel[40] *827:9 9.61713 
2 *827:9 *827:11 859.839 
3 *827:11 *827:17 3.93483 
4 *827:17 *827:19 237.615 
5 *827:19 gpio_vtrip_sel[40] 28.0975 
*END

*D_NET *828 0.641594
*CONN
*P gpio_vtrip_sel[41] O
*I *921:gpio_vtrip_sel[41] O *D CF_CARAVEL_SOC
*CAP
1 gpio_vtrip_sel[41] 0.00166329
2 *921:gpio_vtrip_sel[41] 0.000789746
3 *828:15 0.0285645
4 *828:13 0.0269013
5 *828:11 0.0139677
6 *828:9 0.0147575
7 *828:9 *836:11 0.000255549
8 *828:11 *830:11 0.0703996
9 *828:11 *856:17 0.000285652
10 *828:11 *856:19 0.0252852
11 *828:11 *858:23 0.000554745
12 *828:15 *837:11 0.174961
13 gpio_ib_mode_sel[41] gpio_vtrip_sel[41] 0
14 *255:15 *828:15 3.14653e-05
15 *297:14 *828:15 0.027137
16 *400:11 *828:11 0.00244208
17 *403:11 *828:11 0.000554254
18 *405:11 *828:11 0.0332514
19 *434:11 *828:11 0
20 *450:27 *828:11 0.000985442
21 *483:23 *828:15 0.0313991
22 *555:13 *828:15 0.0291169
23 *558:13 *828:15 0.00498427
24 *786:11 *828:11 0.00554513
25 *827:9 *828:9 0
26 *827:19 *828:15 0.147761
*RES
1 *921:gpio_vtrip_sel[41] *828:9 5.22107 
2 *828:9 *828:11 865.911 
3 *828:11 *828:13 3.41 
4 *828:13 *828:15 276.423 
5 *828:15 gpio_vtrip_sel[41] 27.7582 
*END

*D_NET *829 0.565945
*CONN
*P gpio_vtrip_sel[42] O
*I *921:gpio_vtrip_sel[42] O *D CF_CARAVEL_SOC
*CAP
1 gpio_vtrip_sel[42] 0.000565583
2 *921:gpio_vtrip_sel[42] 0.00169783
3 *829:43 0.0353999
4 *829:41 0.0348571
5 *829:35 0.0160536
6 *829:33 0.0170814
7 *829:29 0.002158
8 *829:11 0.0125159
9 *829:9 0.0131063
10 *829:9 *830:9 0
11 *829:9 *836:11 0.000201414
12 *829:29 *865:15 0
13 *829:33 *852:27 9.01816e-05
14 *829:33 *854:25 0.000459379
15 *829:33 *854:27 8.85276e-05
16 *829:33 *864:15 0.00030028
17 *829:33 *865:15 0
18 *829:35 *859:11 0.00195512
19 *829:35 *859:19 0.00118638
20 *829:35 *863:21 0.000114325
21 *829:35 *873:13 0.00365191
22 *829:35 *873:29 0.00624126
23 *249:25 *829:33 0.000111033
24 *252:15 *829:35 0.000191998
25 *300:25 gpio_vtrip_sel[42] 4.80728e-05
26 *345:27 *829:43 0.000212929
27 *385:15 *829:35 0.0105656
28 *386:11 *829:11 0.00217938
29 *390:21 *829:29 6.58704e-05
30 *429:11 *829:11 0.0454319
31 *429:11 *829:29 0.000105874
32 *429:17 *829:29 0.0017367
33 *433:10 *829:35 0.0712691
34 *433:10 *829:43 0.0243012
35 *433:22 gpio_vtrip_sel[42] 0
36 *433:22 *829:43 0.00273532
37 *435:11 *829:11 0.00651472
38 *448:13 *829:11 0.0104145
39 *449:29 *829:11 0.000616021
40 *457:21 *829:29 6.75178e-05
41 *458:21 *829:29 2.2355e-05
42 *554:13 *829:29 1.96616e-05
43 *560:27 *829:35 0.00799378
44 *693:95 *829:29 9.58632e-05
45 *771:25 *829:29 0.000153338
46 *784:21 *829:43 0.0118322
47 *785:27 *829:35 0.0129298
48 *785:27 *829:43 0.118662
49 *786:23 *829:35 0.0139424
50 *786:23 *829:43 0.00133105
51 *797:11 *829:11 0.00284301
52 *798:19 *829:11 0.00465892
53 *804:23 *829:43 0
54 *825:11 *829:11 0.0671229
55 *825:21 *829:29 4.58194e-05
56 *825:21 *829:33 0
*RES
1 *921:gpio_vtrip_sel[42] *829:9 7.20447 
2 *829:9 *829:11 841.473 
3 *829:11 *829:29 45.4821 
4 *829:29 *829:33 26.4546 
5 *829:33 *829:35 116.146 
6 *829:35 *829:41 8.18679 
7 *829:41 *829:43 1171.48 
8 *829:43 gpio_vtrip_sel[42] 13.0714 
*END

*D_NET *830 0.628092
*CONN
*P gpio_vtrip_sel[43] O
*I *921:gpio_vtrip_sel[43] O *D CF_CARAVEL_SOC
*CAP
1 gpio_vtrip_sel[43] 0.000928416
2 *921:gpio_vtrip_sel[43] 0.000747655
3 *830:15 0.032759
4 *830:13 0.0318306
5 *830:11 0.0125502
6 *830:9 0.0132978
7 *830:9 *836:11 0.000255549
8 *830:11 *856:17 0.000155648
9 *830:11 *860:15 0.00136606
10 *830:11 *860:19 0.0233899
11 *830:15 *856:11 0.218398
12 *830:15 *864:11 0.0453766
13 gpio_ib_mode_sel[43] gpio_vtrip_sel[43] 0
14 *207:23 *830:15 0.00460428
15 *284:21 gpio_vtrip_sel[43] 0.000590672
16 *353:31 *830:15 0.117097
17 *400:11 *830:11 0.00698863
18 *401:11 *830:11 0.0362402
19 *405:11 *830:11 0.000558272
20 *450:13 *830:11 0.0043407
21 *450:27 *830:11 0.000582603
22 *454:51 *830:11 0.0020346
23 *546:11 gpio_vtrip_sel[43] 0
24 *749:9 *830:9 0
25 *786:11 *830:11 0.00359992
26 *828:11 *830:11 0.0703996
27 *829:9 *830:9 0
*RES
1 *921:gpio_vtrip_sel[43] *830:9 5.149 
2 *830:9 *830:11 885.188 
3 *830:11 *830:13 4.5 
4 *830:13 *830:15 2065.61 
5 *830:15 gpio_vtrip_sel[43] 20.0714 
*END

*D_NET *831 0.802119
*CONN
*P gpio_vtrip_sel[4] O
*I *921:gpio_vtrip_sel[4] O *D CF_CARAVEL_SOC
*CAP
1 gpio_vtrip_sel[4] 0.0081598
2 *921:gpio_vtrip_sel[4] 0.00179915
3 *831:83 0.0110166
4 *831:81 0.00522227
5 *831:75 0.00411763
6 *831:73 0.00218116
7 *831:69 0.00328051
8 *831:57 0.00345709
9 *831:43 0.00276706
10 *831:41 0.00492774
11 *831:31 0.0545419
12 *831:29 0.0517757
13 *831:27 0.00773631
14 *831:25 0.00873408
15 *831:19 0.00168438
16 *831:17 0.000948853
17 *831:11 0.0121618
18 *831:9 0.0136987
19 *831:9 *832:15 0
20 gpio_ib_mode_sel[4] gpio_vtrip_sel[4] 0.0013789
21 gpio_oeb[4] gpio_vtrip_sel[4] 0
22 gpio_out[4] gpio_vtrip_sel[4] 0
23 *101:11 *831:75 0.00833153
24 *102:11 *831:69 0.000158398
25 *106:11 *831:69 0.0012938
26 *110:11 *831:69 0.00129585
27 *116:39 *831:69 2.23987e-05
28 *116:53 *831:41 0.000682588
29 *117:35 *831:41 0.00010385
30 *140:65 *831:41 0
31 *141:9 *831:81 0.00412473
32 *141:29 *831:31 0.00256216
33 *150:19 *831:57 0.00219408
34 *150:19 *831:69 0.000877572
35 *152:19 *831:57 0.00219578
36 *157:37 *831:43 0.0012235
37 *158:22 *831:41 0.0003461
38 *159:13 *831:75 0.000303285
39 *161:19 *831:19 0.0007787
40 *165:9 *831:73 0
41 *168:9 *831:69 0.00407017
42 *169:9 *831:69 0
43 *170:17 gpio_vtrip_sel[4] 0.000547454
44 *179:11 *831:75 0.00136299
45 *190:9 gpio_vtrip_sel[4] 0
46 *191:9 gpio_vtrip_sel[4] 0.000285736
47 *194:33 *831:81 0
48 *196:27 *831:41 0.000359688
49 *197:11 *831:83 0.0128045
50 *204:21 *831:69 0.00131543
51 *212:17 gpio_vtrip_sel[4] 0.00170135
52 *213:11 *831:83 0.00379437
53 *214:11 *831:83 0.000836768
54 *227:11 *831:83 0.00138161
55 *228:25 *831:31 0.0137915
56 *230:25 *831:31 0.0046159
57 *242:25 *831:31 0.000213361
58 *247:15 *831:31 0.295227
59 *274:51 *831:83 0.00848695
60 *280:17 *831:69 7.59402e-06
61 *285:11 *831:83 0.000609136
62 *286:29 *831:31 0.000263686
63 *288:53 *831:73 0.000713637
64 *288:57 *831:75 5.59239e-05
65 *328:53 *831:43 0
66 *330:13 *831:43 0.0057943
67 *334:34 *831:57 0.000534108
68 *358:17 *831:25 0.00186139
69 *359:9 *831:25 0
70 *364:17 *831:11 0.0015923
71 *375:17 *831:11 0.000866792
72 *375:27 *831:27 0.000842961
73 *382:11 *831:11 0.00134856
74 *386:11 *831:11 0.0445919
75 *391:15 *831:31 0.0836652
76 *392:9 *831:17 0
77 *392:35 *831:41 0.00026784
78 *393:9 *831:17 0.000253515
79 *393:11 *831:11 7.15791e-05
80 *425:11 *831:11 0.0113401
81 *449:13 *831:27 0.00346828
82 *453:17 *831:27 0.0120587
83 *456:19 *831:27 0.0110312
84 *472:27 *831:27 0
85 *530:113 *831:75 0.00328313
86 *542:39 *831:27 0.00752276
87 *705:21 *831:31 0.0161344
88 *758:9 *831:27 0.00468492
89 *788:37 *831:69 0.000403083
90 *797:19 *831:19 0.00405671
91 *798:19 *831:19 0.00405464
92 *808:11 *831:11 0.00287523
93 *819:11 *831:11 0.000986308
*RES
1 *921:gpio_vtrip_sel[4] *831:9 7.8515 
2 *831:9 *831:11 95.5009 
3 *831:11 *831:17 7.4075 
4 *831:17 *831:19 49.9107 
5 *831:19 *831:25 9.8938 
6 *831:25 *831:27 318.268 
7 *831:27 *831:29 3.41 
8 *831:29 *831:31 456.265 
9 *831:31 *831:41 17.3317 
10 *831:41 *831:43 70.7054 
11 *831:43 *831:57 48.375 
12 *831:57 *831:69 49.3281 
13 *831:69 *831:73 4.61007 
14 *831:73 *831:75 102.125 
15 *831:75 *831:81 13.7133 
16 *831:81 *831:83 188.339 
17 *831:83 gpio_vtrip_sel[4] 22.2985 
*END

*D_NET *832 0.950504
*CONN
*P gpio_vtrip_sel[5] O
*I *921:gpio_vtrip_sel[5] O *D CF_CARAVEL_SOC
*CAP
1 gpio_vtrip_sel[5] 0.00274474
2 *921:gpio_vtrip_sel[5] 0.0103961
3 *832:59 0.00663323
4 *832:57 0.00453976
5 *832:51 0.00298841
6 *832:49 0.00379181
7 *832:39 0.0392073
8 *832:37 0.039286
9 *832:27 0.010075
10 *832:25 0.0104585
11 *832:19 0.0185017
12 *832:17 0.0165849
13 *832:15 0.0103961
14 *832:15 *833:9 0
15 gpio_dm0[36] *832:15 0.000286773
16 gpio_ib_mode_sel[32] *832:37 4.8817e-05
17 gpio_ib_mode_sel[5] gpio_vtrip_sel[5] 0.000520633
18 gpio_inp_dis[36] *832:15 0
19 *114:23 *832:49 0.000329856
20 *138:11 *832:49 3.05098e-05
21 *141:29 *832:39 0.0122214
22 *168:11 *832:59 0
23 *178:19 *832:51 0.00249569
24 *193:61 *832:39 0.000337535
25 *203:15 *832:39 0.305146
26 *203:15 *832:49 0.00082621
27 *205:53 *832:37 0.00159902
28 *205:53 *832:39 0.305303
29 *205:53 *832:49 0.000563913
30 *218:11 *832:59 0.00934405
31 *223:19 *832:49 9.99233e-05
32 *273:11 *832:59 0
33 *283:15 *832:39 0.000329806
34 *284:59 *832:27 0
35 *365:11 *832:19 0
36 *366:9 *832:25 0.000400385
37 *367:9 *832:25 0
38 *384:11 *832:15 0.00219607
39 *391:33 *832:57 3.60528e-05
40 *409:11 *832:27 0
41 *414:11 *832:15 0.00193106
42 *420:11 *832:15 0.00857723
43 *422:11 *832:27 0.0039309
44 *445:11 *832:51 0.0102253
45 *456:27 *832:15 0.00323528
46 *469:11 *832:19 0
47 *539:159 *832:19 0.00530108
48 *539:165 *832:19 0.000774525
49 *539:167 *832:19 0.017484
50 *546:25 *832:27 0.0216075
51 *691:11 *832:37 0.00319946
52 *691:11 *832:39 6.95307e-05
53 *705:21 *832:39 0.0483041
54 *733:10 *832:19 0
55 *737:55 *832:25 8.23111e-05
56 *760:11 *832:15 0.00208866
57 *765:17 *832:37 0.000277334
58 *782:15 *832:49 0
59 *787:19 *832:51 0.00552126
60 *821:21 *832:15 0.000175223
61 *831:9 *832:15 0
*RES
1 *921:gpio_vtrip_sel[5] *832:15 47.5001 
2 *832:15 *832:17 3.41 
3 *832:17 *832:19 450.625 
4 *832:19 *832:25 10.9027 
5 *832:25 *832:27 265.446 
6 *832:27 *832:37 9.32417 
7 *832:37 *832:39 472.768 
8 *832:39 *832:49 15.7962 
9 *832:49 *832:51 128.232 
10 *832:51 *832:57 7.948 
11 *832:57 *832:59 116.696 
12 *832:59 gpio_vtrip_sel[5] 9.42678 
*END

*D_NET *833 0.722588
*CONN
*P gpio_vtrip_sel[6] O
*I *921:gpio_vtrip_sel[6] O *D CF_CARAVEL_SOC
*CAP
1 gpio_vtrip_sel[6] 0.00234481
2 *921:gpio_vtrip_sel[6] 0.00390723
3 *833:31 0.013299
4 *833:29 0.0110703
5 *833:23 0.0577592
6 *833:21 0.0605206
7 *833:11 0.0174057
8 *833:9 0.0184354
9 gpio_ib_mode_sel[6] gpio_vtrip_sel[6] 0.000590791
10 *118:211 *833:11 0.0143982
11 *159:15 *833:23 0.273292
12 *161:15 *833:21 0.00412467
13 *161:15 *833:23 0.0867665
14 *271:15 *833:31 2.38501e-05
15 *274:125 *833:31 0
16 *315:15 *833:31 0.00901063
17 *393:27 gpio_vtrip_sel[6] 0.00190312
18 *413:17 *833:21 0.000143701
19 *440:19 *833:11 0.0702096
20 *471:9 *833:9 0
21 *689:15 *833:11 0.0433694
22 *692:13 *833:23 0.00381518
23 *693:27 *833:23 0.00282722
24 *731:14 *833:21 0.00745324
25 *731:14 *833:23 0.00950069
26 *734:11 *833:21 0.000501619
27 *734:15 *833:11 0.00664806
28 *782:19 gpio_vtrip_sel[6] 0
29 *789:23 *833:31 0.00318198
30 *808:21 *833:21 8.46339e-05
31 *832:15 *833:9 0
*RES
1 *921:gpio_vtrip_sel[6] *833:9 12.5781 
2 *833:9 *833:11 877.446 
3 *833:11 *833:21 23.9397 
4 *833:21 *833:23 431.366 
5 *833:23 *833:29 9.70464 
6 *833:29 *833:31 220.679 
7 *833:31 gpio_vtrip_sel[6] 35.1099 
*END

*D_NET *834 0.637246
*CONN
*P gpio_vtrip_sel[7] O
*I *921:gpio_vtrip_sel[7] O *D CF_CARAVEL_SOC
*CAP
1 gpio_vtrip_sel[7] 0.000144873
2 *921:gpio_vtrip_sel[7] 0.00133267
3 *834:15 0.150271
4 *834:13 0.150126
5 *834:11 0.0602915
6 *834:9 0.0616241
7 *834:9 *835:9 0
8 *834:11 *835:11 0.000951091
9 gpio_analog_pol[35] *834:11 0
10 gpio_ib_mode_sel[7] *834:15 0.0103562
11 *140:181 *834:15 0
12 *161:19 *834:11 0
13 *386:11 *834:11 0
14 *391:11 *834:11 0
15 *399:11 *834:11 0
16 *451:13 *834:11 0.0150628
17 *702:13 *834:15 0
18 *746:13 *834:15 0
19 *785:11 *834:11 0.00442024
20 *791:21 *834:11 0
21 *792:11 *834:11 0.115298
22 *795:15 *834:11 0.0213212
23 *797:11 *834:11 0
24 *801:11 *834:11 0.0133993
25 *805:11 *834:11 0.0123861
26 *807:11 *834:11 0.0202604
27 *819:11 *834:11 0
*RES
1 *921:gpio_vtrip_sel[7] *834:9 6.5543 
2 *834:9 *834:11 285.876 
3 *834:11 *834:13 3.41 
4 *834:13 *834:15 479.337 
5 *834:15 gpio_vtrip_sel[7] 0.48645 
*END

*D_NET *835 0.918242
*CONN
*P gpio_vtrip_sel[8] O
*I *921:gpio_vtrip_sel[8] O *D CF_CARAVEL_SOC
*CAP
1 gpio_vtrip_sel[8] 2.91613e-05
2 *921:gpio_vtrip_sel[8] 0.00122848
3 *835:15 0.0952913
4 *835:13 0.0952622
5 *835:11 0.0318936
6 *835:9 0.0331221
7 *835:9 *836:9 0
8 gpio_ib_mode_sel[8] *835:15 0.000971318
9 *399:11 *835:11 8.92877e-05
10 *439:15 *835:15 0.30719
11 *703:11 *835:15 0
12 *792:11 *835:11 0.132792
13 *794:11 *835:11 0.154988
14 *795:15 *835:11 0.0213069
15 *795:19 *835:11 0.0279499
16 *799:11 *835:11 0.00010385
17 *800:11 *835:11 0.0150736
18 *834:9 *835:9 0
19 *834:11 *835:11 0.000951091
*RES
1 *921:gpio_vtrip_sel[8] *835:9 6.26603 
2 *835:9 *835:11 320.606 
3 *835:11 *835:13 3.41 
4 *835:13 *835:15 479.049 
5 *835:15 gpio_vtrip_sel[8] 0.0979167 
*END

*D_NET *836 0.671075
*CONN
*P gpio_vtrip_sel[9] O
*I *921:gpio_vtrip_sel[9] O *D CF_CARAVEL_SOC
*CAP
1 gpio_vtrip_sel[9] 0.000247521
2 *921:gpio_vtrip_sel[9] 0.000355823
3 *836:15 0.150674
4 *836:13 0.150426
5 *836:11 0.0544301
6 *836:9 0.0547859
7 gpio_holdover[9] *836:15 0
8 *322:371 *836:15 0.00142141
9 *375:27 *836:11 0.00211078
10 *449:13 *836:11 0.00684958
11 *453:17 *836:11 0.00895243
12 *456:19 *836:11 0.00236117
13 *472:27 *836:11 0.00243044
14 *538:289 *836:15 0
15 *544:25 *836:11 0.00211078
16 *704:11 *836:15 0
17 *748:11 *836:15 0
18 *749:9 *836:11 0.000255549
19 *750:9 *836:11 0.000255549
20 *752:9 *836:11 0.000255549
21 *752:11 *836:11 0
22 *755:9 *836:11 0.000255549
23 *756:6 *836:11 0.146257
24 *758:9 *836:11 0.0413677
25 *771:9 *836:11 0.000255549
26 *783:11 *836:11 0.0015912
27 *784:9 *836:11 0.0391352
28 *790:9 *836:11 0.000255549
29 *791:21 *836:11 0.000255549
30 *792:9 *836:11 0.000255549
31 *794:9 *836:9 0
32 *794:9 *836:11 0.000255549
33 *795:9 *836:11 0.000255549
34 *796:9 *836:11 0.000255549
35 *797:11 *836:11 0.000255549
36 *798:17 *836:11 0.000255549
37 *799:9 *836:11 0.000255549
38 *800:9 *836:11 0.000255549
39 *801:9 *836:11 0.000255549
40 *824:9 *836:11 0.000255549
41 *825:9 *836:11 0.000255549
42 *827:9 *836:11 0.000255549
43 *828:9 *836:11 0.000255549
44 *829:9 *836:11 0.000201414
45 *830:9 *836:11 0.000255549
46 *835:9 *836:9 0
*RES
1 *921:gpio_vtrip_sel[9] *836:9 4.10403 
2 *836:9 *836:11 354.057 
3 *836:11 *836:13 3.41 
4 *836:13 *836:15 476.887 
5 *836:15 gpio_vtrip_sel[9] 0.831117 
*END

*D_NET *837 0.771317
*CONN
*P mask_rev[0] I
*I *921:mask_rev[0] I *D CF_CARAVEL_SOC
*CAP
1 mask_rev[0] 0.00114382
2 *921:mask_rev[0] 0.00160114
3 *837:15 0.00437257
4 *837:13 0.00277143
5 *837:11 0.0501949
6 *837:9 0.0513387
7 *837:9 *848:9 0
8 *837:9 *859:9 0
9 *837:9 *862:9 0
10 *837:9 *866:13 0.000298973
11 *837:11 *838:11 0.287746
12 *837:15 *845:25 5.28739e-05
13 *837:15 *845:27 0.011998
14 *837:15 *865:15 0.00650142
15 *289:23 *837:11 0.00804883
16 *297:14 *837:11 0.0603142
17 *336:63 *837:11 0.000741971
18 *428:21 *837:15 0.000961469
19 *430:11 *837:15 0.00244771
20 *433:6 *921:mask_rev[0] 0.000284346
21 *445:23 *837:11 0.0520093
22 *481:15 *837:11 0.0461021
23 *542:21 *921:mask_rev[0] 0
24 *555:13 *837:11 0.00564164
25 *566:11 *837:9 0.00104757
26 *760:21 *837:15 0.000290979
27 *785:19 *837:15 0
28 *827:19 *837:11 0.000445624
29 *828:15 *837:11 0.174961
*RES
1 mask_rev[0] *837:9 26.7671 
2 *837:9 *837:11 457.166 
3 *837:11 *837:13 3.41 
4 *837:13 *837:15 156.768 
5 *837:15 *921:mask_rev[0] 6.55587 
*END

*D_NET *838 0.800913
*CONN
*P mask_rev[10] I
*I *921:mask_rev[10] I *D CF_CARAVEL_SOC
*CAP
1 mask_rev[10] 0.00103917
2 *921:mask_rev[10] 0.000385649
3 *838:27 0.00268936
4 *838:25 0.00230371
5 *838:23 0.00127584
6 *838:11 0.0589224
7 *838:9 0.0586857
8 *921:mask_rev[10] *921:mask_rev[11] 0
9 *921:mask_rev[10] *921:mask_rev[9] 0
10 *838:9 *839:15 4.3177e-06
11 *838:9 *840:9 0
12 *838:9 *868:9 0.00127193
13 *838:23 *840:25 0.0011648
14 *838:23 *841:21 0.000201803
15 *838:27 *921:mask_rev[11] 0.00322462
16 *838:27 *840:27 0.0149417
17 *838:27 *841:23 1.3142e-05
18 *838:27 *842:23 0.0149154
19 *119:15 *838:11 0.0282858
20 *119:23 *838:11 0.0308675
21 *167:19 *838:11 0.077096
22 *208:21 *838:11 0.0309739
23 *289:23 *838:11 0.0378544
24 *297:14 *838:11 0.000393274
25 *336:15 *838:11 0.0124976
26 *336:63 *838:11 0.0181178
27 *464:23 *838:11 0.00957258
28 *465:23 *838:11 0.0210249
29 *481:23 *838:11 0.033239
30 *542:15 *838:23 0.000134326
31 *547:13 *838:11 0.0496112
32 *780:9 *838:23 0.000492055
33 *781:21 *838:23 0.0019666
34 *837:11 *838:11 0.287746
*RES
1 mask_rev[10] *838:9 25.4814 
2 *838:9 *838:11 456.661 
3 *838:11 *838:23 45.8118 
4 *838:23 *838:25 4.5 
5 *838:25 *838:27 182.723 
6 *838:27 *921:mask_rev[10] 4.10873 
*END

*D_NET *839 0.713266
*CONN
*P mask_rev[11] I
*I *921:mask_rev[11] I *D CF_CARAVEL_SOC
*CAP
1 mask_rev[11] 0.00364054
2 *921:mask_rev[11] 0.00859901
3 *839:217 0.0130339
4 *839:209 0.00845252
5 *839:197 0.010625
6 *839:189 0.00922403
7 *839:169 0.00702599
8 *839:157 0.00750517
9 *839:143 0.00707081
10 *839:125 0.00844426
11 *839:107 0.00739008
12 *839:83 0.0063524
13 *839:65 0.00731066
14 *839:53 0.00453056
15 *839:39 0.00383758
16 *839:17 0.0118859
17 *839:15 0.0123404
18 *921:mask_rev[11] *921:mask_rev[12] 0
19 *921:mask_rev[11] *840:27 0.00279314
20 *839:15 *840:9 1.26518e-05
21 *839:17 *840:11 0.012074
22 *839:17 *846:13 0.011197
23 *839:83 *866:17 0.00232072
24 *839:107 *858:11 0.0020102
25 *839:107 *866:17 0.00260321
26 *839:125 *858:11 0.00288049
27 *839:125 *866:17 0.00257874
28 *839:143 *858:11 0.000940761
29 *839:143 *866:17 0.0077453
30 *839:157 *858:11 0.00294644
31 *839:169 *858:11 0.00296531
32 *839:169 *866:17 0.00503792
33 *839:189 *858:11 0.0012517
34 *839:189 *866:17 0.00269273
35 *839:197 *866:17 0.00140215
36 *839:209 *846:13 0.00213018
37 *839:209 *858:11 0.000904662
38 *839:209 *866:17 0.00607399
39 *839:217 *846:33 0.0190241
40 *839:217 *846:37 0.00108986
41 *839:217 *866:17 0.000767817
42 *921:gpio_in[0] *839:217 0.000606866
43 *921:gpio_in[11] *839:197 0.00893858
44 *921:gpio_in[11] *839:209 0.000510245
45 *921:gpio_in[19] *839:197 0.00841493
46 *921:gpio_in[23] *839:189 0
47 *921:gpio_in[39] *839:143 2.77702e-05
48 *921:gpio_in[7] *839:209 9.88094e-05
49 *921:mask_rev[10] *921:mask_rev[11] 0
50 *120:15 *839:15 0.000160562
51 *211:13 *839:107 0.00524041
52 *211:13 *839:125 0.00206824
53 *212:23 *839:17 0.0556734
54 *212:23 *839:39 0.00770037
55 *212:23 *839:65 0.0191777
56 *212:23 *839:83 0.0135862
57 *258:31 *839:39 9.96383e-05
58 *292:15 *839:125 0.00156469
59 *292:15 *839:143 0.000924235
60 *292:15 *839:157 0.00181307
61 *295:15 *839:125 0.00136018
62 *295:15 *839:143 0.000803433
63 *297:10 *839:15 0.000431699
64 *299:23 *839:125 0.000893766
65 *325:79 *839:143 9.87903e-05
66 *325:129 *839:209 0.00232542
67 *338:29 *839:53 0
68 *344:15 *839:39 0.0110209
69 *344:15 *839:53 0.00276668
70 *344:15 *839:65 0.00473086
71 *344:15 *839:83 0.00116851
72 *386:55 *839:209 2.73438e-05
73 *430:23 *839:39 0.00234559
74 *430:23 *839:53 0.000506326
75 *430:23 *839:65 0.000992349
76 *430:23 *839:83 0.00121592
77 *430:23 *839:107 0.00108383
78 *430:23 *839:125 0.00107367
79 *430:23 *839:143 0.0031652
80 *430:23 *839:169 0.00206951
81 *430:23 *839:189 0.00101442
82 *430:23 *839:197 0.00242691
83 *430:23 *839:209 0.00313147
84 *430:23 *839:217 0.000282893
85 *431:15 *839:125 0.00172687
86 *431:15 *839:143 0.00108853
87 *450:27 *921:mask_rev[11] 0.00074509
88 *467:15 *839:217 2.83381e-05
89 *469:15 *839:157 0.0076204
90 *469:15 *839:169 0.00774095
91 *469:15 *839:189 0.00354975
92 *469:15 *839:197 0.00488529
93 *469:15 *839:209 0.00278075
94 *469:15 *839:217 0.00478337
95 *542:15 *921:mask_rev[11] 0.00208429
96 *544:11 *839:39 9.88094e-05
97 *550:11 *839:197 0.00285873
98 *550:11 *839:209 0.000796488
99 *550:11 *839:217 0.00360435
100 *693:191 *839:189 0
101 *737:117 *839:209 2.87916e-05
102 *737:117 *839:217 0.00249311
103 *737:127 *839:209 0.000653248
104 *737:127 *839:217 5.0145e-05
105 *741:148 *839:39 2.36268e-05
106 *784:9 *921:mask_rev[11] 0.00990065
107 *786:11 *921:mask_rev[11] 0
108 *793:25 *839:217 0.000429726
109 *815:39 *839:209 0.0147689
110 *815:39 *839:217 5.26048e-05
111 *815:49 *839:17 0.0556734
112 *815:49 *839:39 0.0187239
113 *815:49 *839:53 0.00276668
114 *815:49 *839:65 0.0239053
115 *815:49 *839:83 0.0190917
116 *815:49 *839:107 0.0146764
117 *815:49 *839:125 0.0190899
118 *815:49 *839:143 0.0192683
119 *815:49 *839:157 0.0143528
120 *815:49 *839:169 0.0239216
121 *815:49 *839:189 0.0117286
122 *815:49 *839:197 0.0117929
123 *838:9 *839:15 4.3177e-06
124 *838:27 *921:mask_rev[11] 0.00322462
*RES
1 mask_rev[11] *839:15 17.2829 
2 *839:15 *839:17 88.0764 
3 *839:17 *839:39 49.12 
4 *839:39 *839:53 20.6896 
5 *839:53 *839:65 49.4262 
6 *839:65 *839:83 47.8757 
7 *839:83 *839:107 47.6081 
8 *839:107 *839:125 49.9464 
9 *839:125 *839:143 46.7276 
10 *839:143 *839:157 39.0666 
11 *839:157 *839:169 49.2821 
12 *839:169 *839:189 39.6109 
13 *839:189 *839:197 42.8844 
14 *839:197 *839:209 38.5307 
15 *839:209 *839:217 35.7993 
16 *839:217 *921:mask_rev[11] 40.8048 
*END

*D_NET *840 0.639516
*CONN
*P mask_rev[12] I
*I *921:mask_rev[12] I *D CF_CARAVEL_SOC
*CAP
1 mask_rev[12] 0.00171816
2 *921:mask_rev[12] 0.000411928
3 *840:27 0.00418478
4 *840:25 0.00418458
5 *840:19 0.0527234
6 *840:17 0.0526474
7 *840:11 0.0101303
8 *840:9 0.0115127
9 *840:9 *841:9 0.000460863
10 *840:11 *846:13 0.0562147
11 *840:25 *841:23 0.000399561
12 *840:27 *841:23 2.09607e-05
13 *840:27 *842:23 0.000554745
14 *840:27 *860:19 0
15 *921:gpio_in[10] *840:19 0.0014418
16 *921:gpio_in[16] *840:19 0.00406523
17 *921:gpio_in[41] *840:19 0.0105496
18 *921:mask_rev[11] *921:mask_rev[12] 0
19 *921:mask_rev[11] *840:27 0.00279314
20 *118:87 *840:19 0.000369355
21 *118:179 *840:19 0.00124766
22 *118:187 *840:19 0.0023826
23 *123:15 *840:19 0.0111869
24 *258:31 *840:11 0.000589369
25 *293:15 *840:19 0.0281438
26 *302:13 *840:9 0.000237873
27 *302:19 *840:9 0.00142674
28 *322:123 *840:19 0.00014047
29 *322:161 *840:19 0.00873596
30 *322:163 *840:19 0.00110981
31 *322:167 *840:19 0.000904347
32 *325:149 *840:19 0.000724313
33 *338:63 *840:19 0.000753225
34 *340:35 *840:9 0.000351727
35 *346:15 *840:19 0.00285818
36 *386:77 *840:19 0.00213488
37 *397:25 *840:19 0.000317325
38 *397:39 *840:19 0.000919805
39 *397:71 *840:19 0.00171501
40 *397:79 *840:19 0.000671183
41 *408:23 *840:19 0.20613
42 *419:23 *840:19 0.00125238
43 *430:23 *840:11 0.0120693
44 *441:15 *840:19 0.00456952
45 *450:13 *840:27 0
46 *463:15 *840:19 0.00423929
47 *471:25 *840:19 0.00337383
48 *472:55 *840:19 0.0177553
49 *529:9 *840:19 0.0066688
50 *531:16 *840:19 0.00024282
51 *536:17 *840:19 0.00874405
52 *539:55 *840:19 0.00485601
53 *539:141 *840:19 0.00165175
54 *540:18 *840:19 0.00716441
55 *541:97 *840:19 0.00038303
56 *542:15 *840:25 1.09232e-05
57 *542:15 *840:27 0.0104452
58 *550:11 *840:11 0.0109012
59 *556:11 *840:19 0.00936388
60 *556:29 *840:19 0.00529014
61 *571:17 *840:19 0.00387427
62 *571:19 *840:19 0.00012071
63 *693:131 *840:19 0.000436957
64 *737:143 *840:19 0.0022125
65 *780:9 *840:25 0.000417221
66 *826:27 *840:19 0.00821558
67 *838:9 *840:9 0
68 *838:23 *840:25 0.0011648
69 *838:27 *840:27 0.0149417
70 *839:15 *840:9 1.26518e-05
71 *839:17 *840:11 0.012074
*RES
1 mask_rev[12] *840:9 42.7589 
2 *840:9 *840:11 532 
3 *840:11 *840:17 12.4368 
4 *840:17 *840:19 363.767 
5 *840:19 *840:25 19.66 
6 *840:25 *840:27 195.625 
7 *840:27 *921:mask_rev[12] 4.1808 
*END

*D_NET *841 0.70074
*CONN
*P mask_rev[13] I
*I *921:mask_rev[13] I *D CF_CARAVEL_SOC
*CAP
1 mask_rev[13] 0.000625228
2 *921:mask_rev[13] 0.000189663
3 *841:23 0.00286707
4 *841:21 0.00380632
5 *841:11 0.0725597
6 *841:9 0.072056
7 *921:mask_rev[13] *921:mask_rev[14] 0
8 *841:9 *842:9 0.000266515
9 *841:11 *849:11 0.000173637
10 *841:11 *868:11 0.288827
11 *841:23 *842:23 0.0164756
12 *119:23 *841:11 0.0152005
13 *167:19 *841:11 0.0213986
14 *208:29 *841:11 0.0422542
15 *301:13 *841:9 0.000242893
16 *302:19 *841:9 0.00041504
17 *435:23 *841:11 0.0408481
18 *541:107 *841:21 9.41642e-05
19 *544:13 *841:11 0.0439347
20 *553:13 *841:11 0.053046
21 *780:9 *841:21 0.00189715
22 *780:9 *841:23 0.0169484
23 *781:21 *841:21 0
24 *783:11 *841:21 0.00265459
25 *784:9 *841:23 0.00286221
26 *838:23 *841:21 0.000201803
27 *838:27 *841:23 1.3142e-05
28 *840:9 *841:9 0.000460863
29 *840:25 *841:23 0.000399561
30 *840:27 *841:23 2.09607e-05
*RES
1 mask_rev[13] *841:9 21.3564 
2 *841:9 *841:11 457.022 
3 *841:11 *841:21 48.5439 
4 *841:21 *841:23 207.616 
5 *841:23 *921:mask_rev[13] 3.7578 
*END

*D_NET *842 0.58966
*CONN
*P mask_rev[14] I
*I *921:mask_rev[14] I *D CF_CARAVEL_SOC
*CAP
1 mask_rev[14] 0.000995915
2 *921:mask_rev[14] 0.000218193
3 *842:23 0.00312183
4 *842:21 0.00402967
5 *842:11 0.0484067
6 *842:9 0.0482765
7 *842:9 *843:9 0.000404246
8 *842:21 *860:15 0
9 *921:mask_rev[13] *921:mask_rev[14] 0
10 *121:15 *842:11 0.0176719
11 *165:15 *842:11 0.0131479
12 *257:15 *842:11 0.0181692
13 *293:25 *842:21 0
14 *296:15 *842:11 0.0609882
15 *296:23 *842:11 0.00586385
16 *300:17 *842:9 0.00179168
17 *301:13 *842:9 0.00175934
18 *325:71 *842:11 0.0167028
19 *339:15 *842:11 0.087117
20 *408:21 *842:21 0.000139165
21 *430:21 *842:21 1.37495e-05
22 *432:15 *842:11 0.017365
23 *450:13 *842:23 0
24 *456:31 *842:11 0.0738711
25 *459:25 *842:11 0.0832576
26 *460:23 *842:11 0.00174106
27 *542:15 *842:21 0.00190996
28 *548:11 *842:11 0.0088876
29 *771:27 *842:11 0.0376274
30 *780:9 *842:23 0.000275604
31 *784:9 *842:23 0.00369434
32 *838:27 *842:23 0.0149154
33 *840:27 *842:23 0.000554745
34 *841:9 *842:9 0.000266515
35 *841:23 *842:23 0.0164756
*RES
1 mask_rev[14] *842:9 38.7589 
2 *842:9 *842:11 2608.57 
3 *842:11 *842:21 39.9821 
4 *842:21 *842:23 207.616 
5 *842:23 *921:mask_rev[14] 3.82987 
*END

*D_NET *843 0.745399
*CONN
*P mask_rev[15] I
*I *921:mask_rev[15] I *D CF_CARAVEL_SOC
*CAP
1 mask_rev[15] 0.000623685
2 *921:mask_rev[15] 0.000181454
3 *843:15 0.00409212
4 *843:13 0.00391067
5 *843:11 0.0793333
6 *843:9 0.079957
7 *843:9 *844:11 7.97194e-06
8 *843:9 *845:9 0
9 *843:11 *850:11 0.0533398
10 *843:11 *850:21 0.0186296
11 *843:11 *851:11 0.0576256
12 *843:11 *854:11 0.04316
13 *843:11 *861:11 0.0371567
14 *843:11 *862:11 0.080897
15 *843:15 *844:17 0.0207704
16 *124:13 *843:11 0.118836
17 *248:19 *843:11 0.0188013
18 *300:17 *843:9 0.000270146
19 *301:17 *843:11 0.000222972
20 *302:21 *843:11 0.0215674
21 *388:23 *843:11 0.0343317
22 *433:6 *843:15 0.00286221
23 *477:11 *843:11 0.00580973
24 *565:13 *843:11 0.00584461
25 *737:181 *843:11 0.000900141
26 *783:11 *843:15 0.0207736
27 *784:13 *843:11 0.0350896
28 *842:9 *843:9 0.000404246
*RES
1 mask_rev[15] *843:9 17.66 
2 *843:9 *843:11 457.238 
3 *843:11 *843:13 3.41 
4 *843:13 *843:15 257.554 
5 *843:15 *921:mask_rev[15] 3.67633 
*END

*D_NET *844 0.670775
*CONN
*P mask_rev[16] I
*I *921:mask_rev[16] I *D CF_CARAVEL_SOC
*CAP
1 mask_rev[16] 0.00037471
2 *921:mask_rev[16] 0.000159414
3 *844:17 0.00746409
4 *844:15 0.00730467
5 *844:13 0.0359364
6 *844:11 0.0363111
7 *844:11 *845:9 0.00072805
8 *844:13 *859:19 0.00640947
9 *844:17 *873:39 0.00390771
10 *250:23 *844:13 0.275647
11 *284:15 *844:13 7.42939e-05
12 *300:19 *844:13 0.0234397
13 *335:25 *844:13 0.162152
14 *433:6 *844:17 0.00392321
15 *433:10 *844:13 0.00106576
16 *446:27 *844:13 0.0249699
17 *447:21 *844:13 0.00116658
18 *449:37 *844:17 0
19 *453:49 *844:13 0.000695714
20 *541:59 *844:13 0.002757
21 *561:18 *844:13 0.000168246
22 *563:14 *844:13 0.0256316
23 *564:13 *844:13 0.00139047
24 *695:67 *844:13 0.0117835
25 *783:11 *844:17 0.000410696
26 *783:15 *844:13 0.0161042
27 *793:25 *844:17 2.06178e-05
28 *843:9 *844:11 7.97194e-06
29 *843:15 *844:17 0.0207704
*RES
1 mask_rev[16] *844:11 14.3661 
2 *844:11 *844:13 2606.93 
3 *844:13 *844:15 4.5 
4 *844:15 *844:17 267.723 
5 *844:17 *921:mask_rev[16] 3.67633 
*END

*D_NET *845 0.715863
*CONN
*P mask_rev[17] I
*I *921:mask_rev[17] I *D CF_CARAVEL_SOC
*CAP
1 mask_rev[17] 0.0010384
2 *921:mask_rev[17] 0.00125064
3 *845:27 0.00616857
4 *845:25 0.00508971
5 *845:19 0.0391302
6 *845:17 0.0390104
7 *845:11 0.0116159
8 *845:9 0.0126022
9 *921:mask_rev[17] *921:mask_rev[18] 0
10 *845:9 *846:11 0.0003478
11 *845:11 *847:8 0.0619487
12 *845:25 *847:36 2.16187e-05
13 *845:27 *847:36 0.000808875
14 *845:27 *865:15 0.00118924
15 gpio_analog_en[43] *845:17 0
16 *124:9 *845:9 0.000868996
17 *168:15 *845:19 0.0533709
18 *208:19 *845:9 1.75263e-05
19 *238:15 *845:19 0.0126867
20 *249:15 *845:11 0.0164991
21 *249:15 *845:19 0.0484408
22 *300:17 *845:9 0
23 *339:23 *845:19 0.199285
24 *340:39 *845:19 0.0271847
25 *343:15 *845:11 0.010841
26 *343:15 *845:19 0.0088632
27 *389:23 *845:19 0.000111763
28 *429:19 *845:19 0.121675
29 *430:11 *845:27 0.00369108
30 *448:13 *845:27 0
31 *760:21 *845:25 0.00023427
32 *785:11 *845:27 0.018931
33 *785:19 *845:25 0.000153069
34 *785:19 *845:27 7.48679e-06
35 *837:15 *845:25 5.28739e-05
36 *837:15 *845:27 0.011998
37 *843:9 *845:9 0
38 *844:11 *845:9 0.00072805
*RES
1 mask_rev[17] *845:9 30.6875 
2 *845:9 *845:11 586.214 
3 *845:11 *845:17 8.79393 
4 *845:17 *845:19 357.281 
5 *845:19 *845:25 8.46357 
6 *845:25 *845:27 253.161 
7 *845:27 *921:mask_rev[17] 6.1642 
*END

*D_NET *846 0.650888
*CONN
*P mask_rev[18] I
*I *921:mask_rev[18] I *D CF_CARAVEL_SOC
*CAP
1 mask_rev[18] 0.00130173
2 *921:mask_rev[18] 0.00174392
3 *846:39 0.00975666
4 *846:37 0.00911741
5 *846:33 0.00442334
6 *846:13 0.0398624
7 *846:11 0.0378455
8 *846:11 *847:6 0.00028746
9 *846:11 *847:51 2.3272e-06
10 *846:13 *858:11 0.2568
11 *846:33 *866:17 0.000192057
12 *846:39 *864:15 0.0139906
13 *921:gpio_in[0] *846:33 0.0144171
14 *921:mask_rev[17] *921:mask_rev[18] 0
15 *121:11 *846:11 0.000240316
16 *124:9 *846:11 0.000459105
17 *126:11 *846:11 0.000833292
18 *258:31 *846:13 0.000546563
19 *293:25 *846:37 0.00176936
20 *345:11 *846:11 0.000871426
21 *386:55 *846:13 0.000394902
22 *430:23 *846:13 5.47908e-05
23 *430:23 *846:33 0.00343117
24 *469:15 *846:13 0.0023368
25 *469:15 *846:33 0.00130077
26 *469:15 *846:37 0.000393274
27 *471:11 *846:39 0.00367606
28 *550:11 *846:13 0.109396
29 *550:21 *846:39 0.000319549
30 *737:117 *846:33 8.83388e-05
31 *749:11 *846:39 0
32 *749:25 *846:39 0
33 *771:25 *846:39 0
34 *793:25 *846:37 0.00159979
35 *815:39 *846:33 0.00195684
36 *815:49 *846:13 0.0375585
37 *826:11 *846:39 0.00391649
38 *839:17 *846:13 0.011197
39 *839:209 *846:13 0.00213018
40 *839:217 *846:33 0.0190241
41 *839:217 *846:37 0.00108986
42 *840:11 *846:13 0.0562147
43 *845:9 *846:11 0.0003478
*RES
1 mask_rev[18] *846:11 42.4196 
2 *846:11 *846:13 2429.5 
3 *846:13 *846:33 48.6106 
4 *846:33 *846:37 8.46563 
5 *846:37 *846:39 252.089 
6 *846:39 *921:mask_rev[18] 7.38933 
*END

*D_NET *847 0.620184
*CONN
*P mask_rev[19] I
*I *921:mask_rev[19] I *D CF_CARAVEL_SOC
*CAP
1 mask_rev[19] 0.0007696
2 *921:mask_rev[19] 0.00111673
3 *847:51 2.11905e-06
4 *847:38 0.00426278
5 *847:36 0.00504483
6 *847:16 0.0562702
7 *847:14 0.0546416
8 *847:8 0.0154865
9 *847:6 0.0159839
10 *921:mask_rev[19] *921:mask_rev[20] 0
11 *847:6 *849:9 0.00124703
12 *847:6 *852:9 0
13 *847:8 *852:11 0.0324755
14 *847:16 *852:19 0.00932472
15 *847:16 *852:25 2.98389e-05
16 *847:36 *852:25 0.000679812
17 *847:36 *853:21 6.25562e-05
18 *847:38 *853:21 0.000911829
19 *847:38 *853:23 0.0182044
20 *921:gpio_in[17] *847:16 0.00216949
21 *165:23 *847:16 0.0127942
22 *167:15 *847:6 9.21621e-05
23 *169:15 *847:16 0.00111638
24 *209:15 *847:16 0.0811345
25 *249:15 *847:8 0.0023212
26 *253:15 *847:16 0.000448256
27 *294:15 *847:16 0.000171275
28 *295:25 *847:36 0.000145424
29 *296:23 *847:16 0
30 *322:141 *847:14 0
31 *338:71 *847:16 0.0991889
32 *343:11 *847:6 3.14967e-05
33 *343:15 *847:8 0.0174275
34 *345:11 *847:6 0.00109262
35 *389:23 *847:8 0.000395672
36 *390:23 *847:8 0.0267513
37 *430:11 *847:38 0.00458626
38 *434:23 *847:16 0.0103908
39 *470:15 *847:16 0.0168217
40 *470:15 *847:36 0.000603768
41 *474:15 *847:16 0.000443584
42 *480:15 *847:16 0.0361975
43 *541:107 *847:36 5.49489e-05
44 *559:19 *847:16 0.00395656
45 *739:108 *847:16 0.000654268
46 *740:167 *847:14 8.00017e-05
47 *785:11 *847:36 2.45677e-05
48 *785:11 *847:38 0.0198805
49 *785:19 *847:36 0.00162686
50 *845:11 *847:8 0.0619487
51 *845:25 *847:36 2.16187e-05
52 *845:27 *847:36 0.000808875
53 *846:11 *847:6 0.00028746
54 *846:11 *847:51 2.3272e-06
*RES
1 mask_rev[19] *847:6 29.8482 
2 *847:6 *847:8 814.982 
3 *847:8 *847:14 12.1332 
4 *847:14 *847:16 313.861 
5 *847:16 *847:36 40.2671 
6 *847:36 *847:38 243.589 
7 *847:38 *921:mask_rev[19] 6.02007 
8 mask_rev[19] *847:51 0.21875 
*END

*D_NET *848 0.712084
*CONN
*P mask_rev[1] I
*I *921:mask_rev[1] I *D CF_CARAVEL_SOC
*CAP
1 mask_rev[1] 0.0002008
2 *921:mask_rev[1] 0.00302722
3 *848:23 0.00605576
4 *848:21 0.00500824
5 *848:11 0.0344309
6 *848:9 0.032652
7 *921:mask_rev[1] *921:mask_rev[2] 0
8 *848:9 *859:9 0.000131666
9 *848:11 *863:11 0.265477
10 *848:23 *863:23 0.0147338
11 gpio_out[42] *848:11 0.000254013
12 *207:31 *848:11 0.171957
13 *284:39 *848:11 0.011048
14 *297:22 *848:11 0.00572031
15 *385:11 *848:23 1.78393e-05
16 *385:15 *848:11 0.00397874
17 *387:21 *848:21 0.0132918
18 *419:11 *848:23 0.00234286
19 *428:23 *848:11 0.00681026
20 *467:11 *848:23 0.0119916
21 *542:21 *921:mask_rev[1] 0.000249138
22 *549:13 *848:11 0.0146212
23 *549:23 *848:23 0
24 *552:25 *848:23 0.0011294
25 *692:27 *848:11 0.055753
26 *692:35 *848:11 0.0116471
27 *693:193 *848:11 0.00963203
28 *697:115 *848:11 0.0104386
29 *698:27 *848:11 0.0061888
30 *736:43 *848:21 0.013295
31 *837:9 *848:9 0
*RES
1 mask_rev[1] *848:9 8.54464 
2 *848:9 *848:11 2510.82 
3 *848:11 *848:21 33.7574 
4 *848:21 *848:23 185.304 
5 *848:23 *921:mask_rev[1] 10.272 
*END

*D_NET *849 0.768324
*CONN
*P mask_rev[20] I
*I *921:mask_rev[20] I *D CF_CARAVEL_SOC
*CAP
1 mask_rev[20] 0.000521625
2 *921:mask_rev[20] 0.000691346
3 *849:15 0.00493625
4 *849:13 0.00424491
5 *849:11 0.0450317
6 *849:9 0.0455533
7 *921:mask_rev[20] *921:mask_rev[21] 0
8 *849:9 *850:9 0.000345161
9 *849:9 *852:9 0
10 *849:11 *864:11 0.289162
11 *849:11 *868:11 0.289669
12 *849:15 *850:23 0.0231254
13 *849:15 *868:15 0.000594235
14 *921:mask_rev[19] *921:mask_rev[20] 0
15 *124:13 *849:11 0.000418905
16 *353:31 *849:11 0.0178773
17 *434:11 *849:15 0.0218558
18 *454:41 *849:15 0.00364686
19 *760:31 *849:11 0.0192297
20 *841:11 *849:11 0.000173637
21 *847:6 *849:9 0.00124703
*RES
1 mask_rev[20] *849:9 20.16 
2 *849:9 *849:11 459.616 
3 *849:11 *849:13 3.41 
4 *849:13 *849:15 286.089 
5 *849:15 *921:mask_rev[20] 5.0832 
*END

*D_NET *850 0.668462
*CONN
*P mask_rev[21] I
*I *921:mask_rev[21] I *D CF_CARAVEL_SOC
*CAP
1 mask_rev[21] 0.000492886
2 *921:mask_rev[21] 0.000647163
3 *850:23 0.00504893
4 *850:21 0.00745706
5 *850:11 0.0539523
6 *850:9 0.0513898
7 *921:mask_rev[21] *921:mask_rev[22] 0
8 *850:9 *851:9 0.000339014
9 *850:11 *851:11 0.258433
10 *850:11 *856:11 0
11 *850:21 *854:25 0.000334542
12 *850:21 *862:11 0.0191181
13 *850:21 *862:21 0.000425303
14 *850:21 *864:11 3.14653e-05
15 *850:23 *851:15 0
16 *850:23 *856:17 0.00116722
17 *850:23 *856:19 0.000351756
18 *850:23 *858:23 0.0217628
19 *921:mask_rev[20] *921:mask_rev[21] 0
20 *335:39 *850:21 6.51414e-05
21 *388:23 *850:11 0.147016
22 *434:11 *850:23 0.000282057
23 *454:41 *850:23 0.00463568
24 *784:13 *850:21 2.01527e-05
25 *786:21 *850:21 4.61737e-06
26 *804:21 *850:21 4.69987e-05
27 *843:11 *850:11 0.0533398
28 *843:11 *850:21 0.0186296
29 *849:9 *850:9 0.000345161
30 *849:15 *850:23 0.0231254
*RES
1 mask_rev[21] *850:9 18.4375 
2 *850:9 *850:11 2444.7 
3 *850:11 *850:21 43.0234 
4 *850:21 *850:23 293.982 
5 *850:23 *921:mask_rev[21] 5.01113 
*END

*D_NET *851 0.711499
*CONN
*P mask_rev[22] I
*I *921:mask_rev[22] I *D CF_CARAVEL_SOC
*CAP
1 mask_rev[22] 0.000425292
2 *921:mask_rev[22] 0.000818323
3 *851:19 0.00691425
4 *851:17 0.00612214
5 *851:15 0.0026231
6 *851:13 0.00259689
7 *851:11 0.033878
8 *851:9 0.0343033
9 *851:9 *852:9 0.00053072
10 *851:11 *854:11 0.2768
11 *851:11 *856:11 0
12 *851:11 *861:11 0.000277911
13 *851:15 *853:17 0
14 *851:15 *853:21 0
15 *851:15 *861:25 2.3978e-05
16 *851:15 *868:15 0.00228282
17 *851:19 *868:15 0.00526842
18 *921:mask_rev[21] *921:mask_rev[22] 0
19 *207:49 *851:15 1.15313e-05
20 *295:25 *851:15 9.12946e-05
21 *353:29 *851:15 8.6985e-06
22 *388:21 *851:15 0.00018398
23 *388:23 *851:11 0.0102641
24 *428:11 *851:15 0
25 *428:11 *851:19 0.00779857
26 *434:11 *851:19 0
27 *435:21 *851:15 5.50372e-05
28 *454:41 *851:15 0.000336552
29 *454:51 *851:15 0
30 *557:29 *851:15 3.10403e-05
31 *804:11 *851:19 0.00345473
32 *843:11 *851:11 0.0576256
33 *850:9 *851:9 0.000339014
34 *850:11 *851:11 0.258433
35 *850:23 *851:15 0
*RES
1 mask_rev[22] *851:9 17.9018 
2 *851:9 *851:11 2623.36 
3 *851:11 *851:13 4.5 
4 *851:13 *851:15 60.8482 
5 *851:15 *851:17 0.535714 
6 *851:17 *851:19 240.393 
7 *851:19 *921:mask_rev[22] 5.44353 
*END

*D_NET *852 0.649458
*CONN
*P mask_rev[23] I
*I *921:mask_rev[23] I *D CF_CARAVEL_SOC
*CAP
1 mask_rev[23] 0.000848641
2 *921:mask_rev[23] 0.00155635
3 *852:27 0.0058904
4 *852:25 0.00583732
5 *852:19 0.0103259
6 *852:17 0.00908732
7 *852:11 0.0349391
8 *852:9 0.0355231
9 *921:mask_rev[23] *921:mask_rev[24] 0
10 *852:9 *853:9 0.000198241
11 *852:27 *854:27 0.00598707
12 *852:27 *864:15 0.000489813
13 *164:43 *852:11 0.0117677
14 *167:15 *852:9 0
15 *249:15 *852:11 0
16 *249:25 *852:25 0.000113836
17 *252:11 *852:9 0.00152581
18 *255:15 *852:11 0.000359457
19 *289:21 *852:9 7.69776e-06
20 *295:25 *852:25 6.60981e-06
21 *322:153 *852:11 0.00178163
22 *338:71 *852:19 0.036449
23 *339:23 *852:11 0.00480482
24 *343:15 *852:11 0.0284132
25 *364:39 *852:11 0.121822
26 *386:11 *852:27 0.00207338
27 *390:23 *852:11 0.164538
28 *429:19 *852:25 0.000129773
29 *448:31 *852:27 0.000339321
30 *449:29 *852:27 0.0126408
31 *471:11 *852:27 0.0227455
32 *472:11 *852:11 0.000805482
33 *474:15 *852:19 0.00419626
34 *545:11 *852:19 0.010935
35 *554:13 *852:19 0.0117999
36 *559:29 *852:25 0.000754619
37 *693:163 *852:11 0.000254433
38 *760:21 *852:25 0.000635705
39 *780:13 *852:19 0.0539338
40 *780:13 *852:25 0.000452832
41 *826:11 *852:27 0.00235723
42 *829:33 *852:27 9.01816e-05
43 *847:6 *852:9 0
44 *847:8 *852:11 0.0324755
45 *847:16 *852:19 0.00932472
46 *847:16 *852:25 2.98389e-05
47 *847:36 *852:25 0.000679812
48 *849:9 *852:9 0
49 *851:9 *852:9 0.00053072
*RES
1 mask_rev[23] *852:9 29.6161 
2 *852:9 *852:11 2121.88 
3 *852:11 *852:17 11.5261 
4 *852:17 *852:19 85.1938 
5 *852:19 *852:25 8.40297 
6 *852:25 *852:27 292.161 
7 *852:27 *921:mask_rev[23] 7.17313 
*END

*D_NET *853 0.588254
*CONN
*P mask_rev[24] I
*I *921:mask_rev[24] I *D CF_CARAVEL_SOC
*CAP
1 mask_rev[24] 0.000198401
2 *921:mask_rev[24] 0.00104137
3 *853:23 0.00453583
4 *853:21 0.00446843
5 *853:17 0.00231996
6 *853:11 0.0491351
7 *853:9 0.0479875
8 *921:mask_rev[24] *921:mask_rev[25] 0
9 *853:9 *854:9 0.00020922
10 *853:11 *859:11 0.0831335
11 *853:11 *860:11 0.277044
12 *853:11 *865:11 0.000405452
13 *853:17 *861:25 0
14 *921:mask_rev[23] *921:mask_rev[24] 0
15 *207:49 *853:17 1.31525e-05
16 *248:33 *853:17 1.84396e-05
17 *252:11 *853:9 1.90936e-05
18 *252:15 *853:11 0.0440667
19 *295:25 *853:21 0
20 *353:29 *853:17 2.64229e-05
21 *385:15 *853:11 0.0128307
22 *397:11 *853:21 0.000393959
23 *397:11 *853:23 0.00384058
24 *428:21 *853:17 0
25 *431:11 *853:21 0.0030928
26 *431:11 *853:23 0.00512759
27 *432:11 *853:21 4.07379e-05
28 *435:21 *853:17 0
29 *542:23 *853:23 0.0116017
30 *546:23 *853:17 0
31 *785:11 *853:21 7.48679e-06
32 *785:11 *853:23 0.00140444
33 *785:19 *853:17 0.000729622
34 *785:19 *853:21 0.00163781
35 *785:27 *853:11 2.59824e-05
36 *786:23 *853:11 0.0135206
37 *847:36 *853:21 6.25562e-05
38 *847:38 *853:21 0.000911829
39 *847:38 *853:23 0.0182044
40 *851:15 *853:17 0
41 *851:15 *853:21 0
42 *852:9 *853:9 0.000198241
*RES
1 mask_rev[24] *853:9 10.3661 
2 *853:9 *853:11 2627.46 
3 *853:11 *853:17 30.6518 
4 *853:17 *853:21 43.7857 
5 *853:21 *853:23 253.143 
6 *853:23 *921:mask_rev[24] 5.948 
*END

*D_NET *854 0.74421
*CONN
*P mask_rev[25] I
*I *921:mask_rev[25] I *D CF_CARAVEL_SOC
*CAP
1 mask_rev[25] 0.00057183
2 *921:mask_rev[25] 0.00131171
3 *854:27 0.00576091
4 *854:25 0.00545224
5 *854:11 0.0343633
6 *854:9 0.0339321
7 *921:mask_rev[25] *921:mask_rev[26] 0.000364728
8 *854:9 *855:9 3.4114e-05
9 *854:9 *856:9 0
10 *854:11 *856:11 0
11 *854:11 *861:11 0.277052
12 *854:25 *860:15 0.00015781
13 *854:25 *861:25 0.000921679
14 *854:25 *862:21 0.000196433
15 *854:25 *864:11 0.00154211
16 *921:mask_rev[24] *921:mask_rev[25] 0
17 *248:17 *854:9 7.80059e-05
18 *249:25 *854:25 0.00010951
19 *252:11 *854:9 0.00017924
20 *302:21 *854:11 0.0106304
21 *429:17 *854:25 0.000143355
22 *429:17 *854:27 1.21637e-05
23 *435:11 *854:27 0.00249753
24 *448:31 *854:27 0.00266353
25 *449:29 *854:27 0.0136301
26 *737:181 *854:11 0.000421129
27 *781:21 *854:25 0
28 *825:11 *854:27 0.0247024
29 *825:21 *854:25 0.000442844
30 *829:33 *854:25 0.000459379
31 *829:33 *854:27 8.85276e-05
32 *843:11 *854:11 0.04316
33 *850:21 *854:25 0.000334542
34 *851:11 *854:11 0.2768
35 *852:27 *854:27 0.00598707
36 *853:9 *854:9 0.00020922
*RES
1 mask_rev[25] *854:9 18.1339 
2 *854:9 *854:11 2620.89 
3 *854:11 *854:25 30.5405 
4 *854:25 *854:27 304.304 
5 *854:27 *921:mask_rev[25] 7.029 
*END

*D_NET *855 0.640601
*CONN
*P mask_rev[26] I
*I *921:mask_rev[26] I *D CF_CARAVEL_SOC
*CAP
1 mask_rev[26] 7.16021e-05
2 *921:mask_rev[26] 0.00205088
3 *855:23 0.00555313
4 *855:21 0.0036171
5 *855:15 0.00240342
6 *855:13 0.00228857
7 *855:11 0.0830281
8 *855:9 0.0830997
9 *921:mask_rev[26] *921:mask_rev[27] 0
10 *855:9 *856:9 5.3874e-05
11 *855:15 *859:23 0.000214901
12 *855:15 *862:23 0.00312142
13 *855:23 *861:27 0.0230737
14 gpio_analog_en[38] *855:11 0.000590306
15 *921:mask_rev[25] *921:mask_rev[26] 0.000364728
16 *120:15 *855:11 0.0931933
17 *248:33 *855:15 0
18 *248:35 *855:15 0
19 *251:15 *855:11 0.279664
20 *251:25 *855:15 0
21 *384:15 *855:11 0.029694
22 *433:6 *921:mask_rev[26] 0.000360771
23 *461:21 *855:15 0
24 *543:23 *855:23 0.00482937
25 *558:25 *855:23 0.0230758
26 *693:95 *855:21 0.000218409
27 *824:19 *855:15 0
28 *854:9 *855:9 3.4114e-05
*RES
1 mask_rev[26] *855:9 6.36607 
2 *855:9 *855:11 2645.12 
3 *855:11 *855:13 4.5 
4 *855:13 *855:15 52.6429 
5 *855:15 *855:21 11.1786 
6 *855:21 *855:23 282.295 
7 *855:23 *921:mask_rev[26] 8.6082 
*END

*D_NET *856 0.574853
*CONN
*P mask_rev[27] I
*I *921:mask_rev[27] I *D CF_CARAVEL_SOC
*CAP
1 mask_rev[27] 0.000834448
2 *921:mask_rev[27] 0.000805835
3 *856:19 0.00513535
4 *856:17 0.0049163
5 *856:11 0.075973
6 *856:9 0.0762206
7 *921:mask_rev[27] *921:mask_rev[28] 0
8 *856:9 *857:9 0
9 *856:9 *858:9 0
10 *856:11 *861:11 0
11 *856:11 *862:11 0.0611351
12 *856:19 *858:23 0.0245309
13 *921:mask_rev[26] *921:mask_rev[27] 0
14 *207:23 *856:11 0.00171919
15 *335:17 *856:11 0.0558566
16 *353:31 *856:11 4.59602e-05
17 *388:23 *856:11 0.0164171
18 *433:6 *921:mask_rev[27] 0.000360771
19 *786:11 *856:19 0.00520425
20 *828:11 *856:17 0.000285652
21 *828:11 *856:19 0.0252852
22 *830:11 *856:17 0.000155648
23 *830:15 *856:11 0.218398
24 *850:11 *856:11 0
25 *850:23 *856:17 0.00116722
26 *850:23 *856:19 0.000351756
27 *851:11 *856:11 0
28 *854:9 *856:9 0
29 *854:11 *856:11 0
30 *855:9 *856:9 5.3874e-05
*RES
1 mask_rev[27] *856:9 20.5089 
2 *856:9 *856:11 2625.41 
3 *856:11 *856:17 20.6339 
4 *856:17 *856:19 311.446 
5 *856:19 *921:mask_rev[27] 5.29313 
*END

*D_NET *857 0.698307
*CONN
*P mask_rev[28] I
*I *921:mask_rev[28] I *D CF_CARAVEL_SOC
*CAP
1 mask_rev[28] 0.000106217
2 *921:mask_rev[28] 0.00260746
3 *857:23 0.00675166
4 *857:21 0.00552501
5 *857:11 0.0403429
6 *857:9 0.0390683
7 *921:mask_rev[28] *921:mask_rev[29] 0
8 *857:9 *858:9 0.000226077
9 *857:11 *863:11 0.276154
10 *921:mask_rev[27] *921:mask_rev[28] 0
11 *251:15 *857:11 0.0134663
12 *251:25 *857:21 0
13 *284:23 *857:11 0.164456
14 *284:31 *857:11 0.00726602
15 *284:39 *857:11 0.000604922
16 *353:19 *857:21 0
17 *385:11 *857:21 0
18 *385:15 *857:11 0.000126072
19 *387:21 *857:11 0.00400197
20 *387:23 *857:11 0.0200179
21 *389:11 *857:23 0.025933
22 *428:23 *857:11 0.0027233
23 *433:6 *921:mask_rev[28] 0.000360771
24 *453:41 *857:23 5.19522e-06
25 *453:47 *857:21 0.000309521
26 *538:43 *857:11 0.0157207
27 *554:13 *857:21 2.72887e-05
28 *555:17 *857:21 0.000544076
29 *692:27 *857:11 0.000886532
30 *692:35 *857:11 0.0312029
31 *697:115 *857:11 0.000782475
32 *741:126 *857:11 0.00789742
33 *793:11 *857:23 0.00523827
34 *827:11 *857:21 6.73707e-06
35 *827:11 *857:23 0.0259488
36 *856:9 *857:9 0
*RES
1 mask_rev[28] *857:9 7.55893 
2 *857:9 *857:11 2652.11 
3 *857:11 *857:21 42 
4 *857:21 *857:23 318.42 
5 *857:23 *921:mask_rev[28] 9.54507 
*END

*D_NET *858 0.63397
*CONN
*P mask_rev[29] I
*I *921:mask_rev[29] I *D CF_CARAVEL_SOC
*CAP
1 mask_rev[29] 0.00154924
2 *921:mask_rev[29] 0.000836953
3 *858:23 0.00517933
4 *858:21 0.00528903
5 *858:11 0.0422567
6 *858:9 0.0428592
7 *921:mask_rev[29] *921:mask_rev[30] 0
8 *858:9 *860:9 0.000131948
9 *921:gpio_in[0] *858:21 5.46709e-05
10 *921:mask_rev[28] *921:mask_rev[29] 0
11 *118:107 *858:11 0.00664741
12 *118:197 *858:11 0.00230257
13 *170:19 *858:9 0
14 *211:13 *858:11 0.00239881
15 *212:23 *858:11 0.0248358
16 *248:11 *858:9 0
17 *249:11 *858:9 0
18 *292:15 *858:11 0.142658
19 *325:19 *858:9 0.002009
20 *386:55 *858:11 0.000433444
21 *408:23 *858:21 0.00253104
22 *430:21 *858:21 0.000327586
23 *430:23 *858:11 0
24 *433:6 *921:mask_rev[29] 0.000360771
25 *434:11 *858:23 0.00148787
26 *466:15 *858:11 0.00170502
27 *467:15 *858:21 0.00291905
28 *469:15 *858:11 0.00917007
29 *471:25 *858:21 1.93503e-05
30 *539:43 *858:11 0.00526944
31 *550:11 *858:11 0.00629023
32 *786:11 *858:23 0.00396731
33 *815:49 *858:11 0.00270665
34 *828:11 *858:23 0.000554745
35 *839:107 *858:11 0.0020102
36 *839:125 *858:11 0.00288049
37 *839:143 *858:11 0.000940761
38 *839:157 *858:11 0.00294644
39 *839:169 *858:11 0.00296531
40 *839:189 *858:11 0.0012517
41 *839:209 *858:11 0.000904662
42 *846:13 *858:11 0.2568
43 *850:23 *858:23 0.0217628
44 *856:9 *858:9 0
45 *856:19 *858:23 0.0245309
46 *857:9 *858:9 0.000226077
*RES
1 mask_rev[29] *858:9 42.3125 
2 *858:9 *858:11 2600.77 
3 *858:11 *858:21 19.971 
4 *858:21 *858:23 313.411 
5 *858:23 *921:mask_rev[29] 5.3652 
*END

*D_NET *859 0.563131
*CONN
*P mask_rev[2] I
*I *921:mask_rev[2] I *D CF_CARAVEL_SOC
*CAP
1 mask_rev[2] 0.000333398
2 *921:mask_rev[2] 0.00245184
3 *859:23 0.00534809
4 *859:21 0.00289624
5 *859:19 0.0084941
6 *859:17 0.00863453
7 *859:11 0.0485281
8 *859:9 0.048721
9 *921:mask_rev[2] *921:mask_rev[3] 0
10 *859:9 *862:9 0.000141475
11 *859:19 *863:21 0.00012184
12 *859:23 *862:23 0.0143721
13 *921:mask_rev[1] *921:mask_rev[2] 0
14 *250:33 *859:19 0.00248154
15 *252:15 *859:11 0.0106655
16 *300:27 *859:11 0.00620718
17 *345:27 *859:11 0.00474804
18 *364:27 *859:23 0.00234286
19 *364:37 *859:23 0.000973748
20 *433:6 *921:mask_rev[2] 0.000207921
21 *433:10 *859:19 0.0528383
22 *468:11 *859:23 0.0125641
23 *558:25 *859:23 1.21637e-05
24 *560:27 *859:11 0.0211398
25 *781:23 *859:19 0.0531766
26 *786:23 *859:11 0.162235
27 *804:23 *859:11 0
28 *824:19 *859:23 0.000386586
29 *825:23 *859:19 7.83294e-05
30 *829:35 *859:11 0.00195512
31 *829:35 *859:19 0.00118638
32 *837:9 *859:9 0
33 *844:13 *859:19 0.00640947
34 *848:9 *859:9 0.000131666
35 *853:11 *859:11 0.0831335
36 *855:15 *859:23 0.000214901
*RES
1 mask_rev[2] *859:9 11.4554 
2 *859:9 *859:11 2117.36 
3 *859:11 *859:17 10.0082 
4 *859:17 *859:19 88.2566 
5 *859:19 *859:21 3.41 
6 *859:21 *859:23 183.482 
7 *859:23 *921:mask_rev[2] 8.61133 
*END

*D_NET *860 0.737688
*CONN
*P mask_rev[30] I
*I *921:mask_rev[30] I *D CF_CARAVEL_SOC
*CAP
1 mask_rev[30] 0.000166799
2 *921:mask_rev[30] 0.000708529
3 *860:19 0.00734389
4 *860:17 0.00666158
5 *860:15 0.00281275
6 *860:13 0.00278654
7 *860:11 0.0336274
8 *860:9 0.0337942
9 *921:mask_rev[30] *921:mask_rev[31] 0
10 *860:9 *861:9 0.000205028
11 *860:11 *865:11 0.27517
12 *860:11 *867:11 0.000115295
13 gpio_dm0[43] *860:11 0.000721457
14 gpio_out[40] *860:11 0.000406448
15 *921:mask_rev[29] *921:mask_rev[30] 0
16 *250:33 *860:15 4.52619e-05
17 *252:15 *860:11 0.025855
18 *293:25 *860:15 0.000381111
19 *385:15 *860:11 0.0259237
20 *433:6 *921:mask_rev[30] 0.000360771
21 *450:13 *860:19 0.0102417
22 *454:51 *860:15 0.00236928
23 *465:21 *860:15 0.0002469
24 *538:53 *860:11 0.00273361
25 *542:15 *860:15 0
26 *542:15 *860:19 0
27 *559:29 *860:15 0.000109706
28 *692:27 *860:11 0.00056478
29 *781:21 *860:15 0
30 *785:25 *860:15 7.73688e-05
31 *786:11 *860:15 0.000193758
32 *786:11 *860:19 0.0019754
33 *786:21 *860:15 0
34 *830:11 *860:15 0.00136606
35 *830:11 *860:19 0.0233899
36 *840:27 *860:19 0
37 *842:21 *860:15 0
38 *853:11 *860:11 0.277044
39 *854:25 *860:15 0.00015781
40 *858:9 *860:9 0.000131948
*RES
1 mask_rev[30] *860:9 9.90179 
2 *860:9 *860:11 2626.64 
3 *860:11 *860:13 4.5 
4 *860:13 *860:15 69.0446 
5 *860:15 *860:17 0.535714 
6 *860:17 *860:19 286.536 
7 *860:19 *921:mask_rev[30] 5.07693 
*END

*D_NET *861 0.645394
*CONN
*P mask_rev[31] I
*I *921:mask_rev[31] I *D CF_CARAVEL_SOC
*CAP
1 mask_rev[31] 0.000621173
2 *921:mask_rev[31] 0.00214709
3 *861:27 0.00671281
4 *861:25 0.00554411
5 *861:11 0.0419361
6 *861:9 0.0415789
7 *861:25 *862:21 0.00160478
8 *861:25 *864:11 0.000118177
9 *921:mask_rev[30] *921:mask_rev[31] 0
10 *248:19 *861:11 0.147154
11 *251:11 *861:9 0
12 *284:15 *861:11 0
13 *302:21 *861:11 0.0124416
14 *325:23 *861:11 0.000127482
15 *325:103 *861:11 0.0068724
16 *335:17 *861:11 0
17 *353:29 *861:25 5.00377e-06
18 *388:11 *861:25 0.00112786
19 *388:11 *861:27 0.000796371
20 *388:21 *861:25 0.000182353
21 *388:23 *861:11 1.16543e-05
22 *397:9 *921:mask_rev[31] 0
23 *433:6 *921:mask_rev[31] 0.000360771
24 *460:21 *861:27 4.37992e-05
25 *539:21 *861:11 0.0019581
26 *543:21 *861:27 6.75178e-05
27 *543:23 *861:27 0.0053598
28 *558:25 *861:27 0.00144788
29 *737:181 *861:11 0.000484449
30 *824:11 *861:27 0.0256658
31 *824:19 *861:25 0.000625388
32 *824:19 *861:27 0.00168751
33 *843:11 *861:11 0.0371567
34 *851:11 *861:11 0.000277911
35 *851:15 *861:25 2.3978e-05
36 *853:17 *861:25 0
37 *854:11 *861:11 0.277052
38 *854:25 *861:25 0.000921679
39 *855:23 *861:27 0.0230737
40 *856:11 *861:11 0
41 *860:9 *861:9 0.000205028
*RES
1 mask_rev[31] *861:9 17.6696 
2 *861:9 *861:11 2632.8 
3 *861:11 *861:25 32.8804 
4 *861:25 *861:27 335.732 
5 *861:27 *921:mask_rev[31] 8.53613 
*END

*D_NET *862 0.710537
*CONN
*P mask_rev[3] I
*I *921:mask_rev[3] I *D CF_CARAVEL_SOC
*CAP
1 mask_rev[3] 0.000845829
2 *921:mask_rev[3] 0.00249005
3 *862:23 0.007836
4 *862:21 0.00622881
5 *862:11 0.0511318
6 *862:9 0.0510948
7 *862:9 *863:9 0.000121275
8 *862:9 *864:9 0
9 *862:11 *864:11 0.28849
10 *921:mask_rev[2] *921:mask_rev[3] 0
11 *124:13 *862:11 0.117548
12 *248:33 *862:21 5.53357e-05
13 *248:35 *862:23 0
14 *364:27 *862:23 0.00244669
15 *433:6 *921:mask_rev[3] 0.000207921
16 *468:11 *862:23 0.00027853
17 *552:23 *862:21 0.000475675
18 *804:21 *862:21 0.000274422
19 *837:9 *862:9 0
20 *843:11 *862:11 0.080897
21 *850:21 *862:11 0.0191181
22 *850:21 *862:21 0.000425303
23 *854:25 *862:21 0.000196433
24 *855:15 *862:23 0.00312142
25 *856:11 *862:11 0.0611351
26 *859:9 *862:9 0.000141475
27 *859:23 *862:23 0.0143721
28 *861:25 *862:21 0.00160478
*RES
1 mask_rev[3] *862:9 18.785 
2 *862:9 *862:11 455.941 
3 *862:11 *862:21 15.7241 
4 *862:21 *862:23 184.089 
5 *862:23 *921:mask_rev[3] 8.6834 
*END

*D_NET *863 0.721611
*CONN
*P mask_rev[4] I
*I *921:mask_rev[4] I *D CF_CARAVEL_SOC
*CAP
1 mask_rev[4] 0.000159129
2 *921:mask_rev[4] 0.0030735
3 *863:23 0.00611453
4 *863:21 0.00374465
5 *863:11 0.033993
6 *863:9 0.0334485
7 *921:mask_rev[4] *921:mask_rev[5] 0
8 *863:9 *864:9 7.56066e-05
9 *863:21 *865:15 1.31525e-05
10 *251:25 *863:21 0.000796109
11 *284:31 *863:11 0.00784351
12 *284:39 *863:11 0.00569622
13 *385:11 *863:23 0.00136755
14 *385:15 *863:11 0.00148441
15 *385:15 *863:21 0.00220807
16 *387:21 *863:11 0.00189858
17 *387:21 *863:21 2.10638e-05
18 *419:11 *863:23 0.00297927
19 *428:21 *863:21 0
20 *428:23 *863:11 0.00243456
21 *451:21 *863:23 0.0135374
22 *467:11 *863:23 0.000846172
23 *692:27 *863:11 0.000155086
24 *692:35 *863:11 0.0337567
25 *697:115 *863:11 0.000725643
26 *741:126 *863:11 0.00851594
27 *829:35 *863:21 0.000114325
28 *848:11 *863:11 0.265477
29 *848:23 *863:23 0.0147338
30 *857:11 *863:11 0.276154
31 *859:19 *863:21 0.00012184
32 *862:9 *863:9 0.000121275
*RES
1 mask_rev[4] *863:9 8.36607 
2 *863:9 *863:11 2611.86 
3 *863:11 *863:21 17.0685 
4 *863:21 *863:23 200.482 
5 *863:23 *921:mask_rev[4] 10.1999 
*END

*D_NET *864 0.785491
*CONN
*P mask_rev[5] I
*I *921:mask_rev[5] I *D CF_CARAVEL_SOC
*CAP
1 mask_rev[5] 0.000883523
2 *921:mask_rev[5] 0.00196281
3 *864:15 0.00543785
4 *864:13 0.00347504
5 *864:11 0.0447522
6 *864:9 0.0456358
7 *921:mask_rev[5] *921:mask_rev[6] 0
8 *864:9 *865:9 0.000178189
9 *864:11 *868:11 4.89453e-05
10 *921:mask_rev[4] *921:mask_rev[5] 0
11 *124:13 *864:11 0.000118177
12 *207:23 *864:11 0.0140218
13 *335:17 *864:11 0.0114407
14 *388:11 *864:15 0
15 *388:21 *864:11 0.00118981
16 *433:6 *921:mask_rev[5] 0.000207921
17 *465:21 *864:11 1.35067e-05
18 *471:11 *864:15 0.0136676
19 *749:25 *864:15 0
20 *771:25 *864:15 0
21 *826:11 *864:15 0.00288035
22 *829:33 *864:15 0.00030028
23 *830:15 *864:11 0.0453766
24 *846:39 *864:15 0.0139906
25 *849:11 *864:11 0.289162
26 *850:21 *864:11 3.14653e-05
27 *852:27 *864:15 0.000489813
28 *854:25 *864:11 0.00154211
29 *861:25 *864:11 0.000118177
30 *862:9 *864:9 0
31 *862:11 *864:11 0.28849
32 *863:9 *864:9 7.56066e-05
*RES
1 mask_rev[5] *864:9 19.3386 
2 *864:9 *864:11 459.256 
3 *864:11 *864:13 3.41 
4 *864:13 *864:15 194.411 
5 *864:15 *921:mask_rev[5] 7.53033 
*END

*D_NET *865 0.701001
*CONN
*P mask_rev[6] I
*I *921:mask_rev[6] I *D CF_CARAVEL_SOC
*CAP
1 mask_rev[6] 0.000261736
2 *921:mask_rev[6] 0.00156164
3 *865:15 0.0091972
4 *865:13 0.00763556
5 *865:11 0.0333671
6 *865:9 0.0336288
7 *865:9 *866:13 1.24166e-06
8 *865:9 *867:9 0
9 *865:11 *867:11 0.26504
10 gpio_dm0[43] *865:11 0.000669057
11 gpio_out[40] *865:11 0.000376927
12 *921:mask_rev[5] *921:mask_rev[6] 0
13 *252:15 *865:11 0.0279815
14 *292:25 *865:15 6.39334e-05
15 *385:15 *865:11 0.024047
16 *389:21 *865:15 0
17 *428:21 *865:15 0.0022975
18 *429:11 *865:15 0
19 *430:11 *865:15 0.0023656
20 *433:6 *921:mask_rev[6] 0.000207921
21 *448:13 *865:15 0
22 *458:21 *865:15 0
23 *538:53 *865:11 0.00253507
24 *549:13 *865:11 0.00614937
25 *771:25 *865:15 0
26 *824:23 *865:11 0.000157397
27 *825:21 *865:15 0
28 *829:29 *865:15 0
29 *829:33 *865:15 0
30 *837:15 *865:15 0.00650142
31 *845:27 *865:15 0.00118924
32 *853:11 *865:11 0.000405452
33 *860:11 *865:11 0.27517
34 *863:21 *865:15 1.31525e-05
35 *864:9 *865:9 0.000178189
*RES
1 mask_rev[6] *865:9 9.83036 
2 *865:9 *865:11 2612.68 
3 *865:11 *865:13 4.5 
4 *865:13 *865:15 211.259 
5 *865:15 *921:mask_rev[6] 6.59347 
*END

*D_NET *866 0.724587
*CONN
*P mask_rev[7] I
*I *921:mask_rev[7] I *D CF_CARAVEL_SOC
*CAP
1 mask_rev[7] 0.00256824
2 *921:mask_rev[7] 0.0060185
3 *866:17 0.0578886
4 *866:15 0.0518701
5 *866:13 0.00256824
6 *921:mask_rev[7] *921:mask_rev[8] 0.0153327
7 *866:13 *867:9 1.55125e-05
8 *921:gpio_in[0] *866:17 0.0155553
9 *921:gpio_in[11] *866:17 0.0161518
10 *921:gpio_in[19] *866:17 0.00840978
11 *120:15 *866:13 0.00100055
12 *325:129 *866:17 0.0023166
13 *341:18 *866:17 0.168893
14 *344:15 *866:17 0.114498
15 *433:6 *921:mask_rev[7] 0.000231709
16 *443:31 *866:17 0.0245896
17 *448:33 *866:17 0.00731285
18 *449:37 *921:mask_rev[7] 0.00138969
19 *450:29 *921:mask_rev[7] 0.00138969
20 *451:25 *866:17 0.0059874
21 *457:23 *866:17 0.0167874
22 *467:15 *866:17 0.109819
23 *471:27 *866:17 0.00444949
24 *557:19 *866:17 0.000436002
25 *566:11 *866:13 0.00233968
26 *793:27 *866:17 0.0269414
27 *815:39 *866:17 0.00685873
28 *815:49 *866:17 0.021253
29 *837:9 *866:13 0.000298973
30 *839:83 *866:17 0.00232072
31 *839:107 *866:17 0.00260321
32 *839:125 *866:17 0.00257874
33 *839:143 *866:17 0.0077453
34 *839:169 *866:17 0.00503792
35 *839:189 *866:17 0.00269273
36 *839:197 *866:17 0.00140215
37 *839:209 *866:17 0.00607399
38 *839:217 *866:17 0.000767817
39 *846:33 *866:17 0.000192057
40 *865:9 *866:13 1.24166e-06
*RES
1 mask_rev[7] *866:13 48.2687 
2 *866:13 *866:15 3.41 
3 *866:15 *866:17 454.031 
4 *866:17 *921:mask_rev[7] 39.0933 
*END

*D_NET *867 0.694791
*CONN
*P mask_rev[8] I
*I *921:mask_rev[8] I *D CF_CARAVEL_SOC
*CAP
1 mask_rev[8] 0.000291919
2 *921:mask_rev[8] 0.00250157
3 *867:21 0.00541933
4 *867:17 0.00573675
5 *867:11 0.0358254
6 *867:9 0.0332983
7 *921:mask_rev[8] *873:39 0.00237353
8 *867:9 *868:9 0
9 gpio_dm0[43] *867:11 0.000471169
10 gpio_out[40] *867:11 0.000376927
11 gpio_out[42] *867:11 0.00344319
12 *921:mask_rev[7] *921:mask_rev[8] 0.0153327
13 *252:15 *867:11 0.01001
14 *297:22 *867:11 0.00398676
15 *385:15 *867:11 0.00127389
16 *386:35 *867:21 0.0101592
17 *433:6 *921:mask_rev[8] 0.0158151
18 *471:25 *867:21 0.000632467
19 *549:13 *867:11 0.217378
20 *692:27 *867:11 0.0262284
21 *693:193 *867:11 0.0102943
22 *697:115 *867:11 0.00124747
23 *698:27 *867:11 0.0128128
24 *824:23 *867:11 0.0121522
25 *826:27 *867:21 0.00255929
26 *860:11 *867:11 0.000115295
27 *865:9 *867:9 0
28 *865:11 *867:11 0.26504
29 *866:13 *867:9 1.55125e-05
*RES
1 mask_rev[8] *867:9 9.47321 
2 *867:9 *867:11 2508.77 
3 *867:11 *867:17 49.4725 
4 *867:17 *867:21 19.0594 
5 *867:21 *921:mask_rev[8] 35.6833 
*END

*D_NET *868 0.808036
*CONN
*P mask_rev[9] I
*I *921:mask_rev[9] I *D CF_CARAVEL_SOC
*CAP
1 mask_rev[9] 0.000733909
2 *921:mask_rev[9] 0.000845529
3 *868:15 0.00509344
4 *868:13 0.00424791
5 *868:11 0.0454154
6 *868:9 0.0461493
7 *921:mask_rev[10] *921:mask_rev[9] 0
8 *119:23 *868:11 6.67959e-05
9 *336:47 *868:11 0.0353872
10 *434:11 *868:15 0.0164152
11 *450:27 *921:mask_rev[9] 8.94556e-05
12 *454:41 *868:15 0.00331298
13 *465:21 *868:11 0.000137154
14 *542:11 *868:11 0.045892
15 *570:22 *868:11 0.0162879
16 *838:9 *868:9 0.00127193
17 *841:11 *868:11 0.288827
18 *849:11 *868:11 0.289669
19 *849:15 *868:15 0.000594235
20 *851:15 *868:15 0.00228282
21 *851:19 *868:15 0.00526842
22 *864:11 *868:11 4.89453e-05
23 *867:9 *868:9 0
*RES
1 mask_rev[9] *868:9 20.3029 
2 *868:9 *868:11 457.959 
3 *868:11 *868:13 3.41 
4 *868:13 *868:15 218.696 
5 *868:15 *921:mask_rev[9] 5.22733 
*END

*D_NET *871 0.027493
*CONN
*P porb_l I
*I *921:porb_l I *D CF_CARAVEL_SOC
*CAP
1 porb_l 0.0111436
2 *921:porb_l 0.0111436
3 *921:porb_l *873:47 0.000647695
4 *295:27 *921:porb_l 0
5 *385:11 *921:porb_l 0.000218103
6 *419:11 *921:porb_l 0.00339285
7 *450:27 *921:porb_l 0.000109971
8 *737:81 *921:porb_l 0.000837185
*RES
1 porb_l *921:porb_l 38.8113 
*END

*D_NET *873 0.51099
*CONN
*P resetb_l I
*I *921:resetb_l I *D CF_CARAVEL_SOC
*I *920:resetb I *D counter_macro
*CAP
1 resetb_l 0.0023122
2 *921:resetb_l 0.000356048
3 *920:resetb 0
4 *873:61 0.0151588
5 *873:59 0.0151588
6 *873:57 0.00436359
7 *873:55 0.0065332
8 *873:49 0.0298214
9 *873:47 0.032903
10 *873:43 0.00575604
11 *873:39 0.00430577
12 *873:37 0.00527668
13 *873:31 0.004285
14 *873:29 0.00571229
15 *873:23 0.00615532
16 *873:21 0.0104066
17 *873:15 0.0104385
18 *873:13 0.00595236
19 *921:gpio_in[10] *873:15 0
20 *921:mask_rev[8] *873:39 0.00237353
21 *921:porb_l *873:47 0.000647695
22 *202:27 *873:61 0.0683359
23 *322:235 *873:15 0
24 *325:159 *873:57 0.00616846
25 *334:44 *873:61 0.0379285
26 *335:57 *873:57 0.00252864
27 *361:33 *873:61 0.0108072
28 *381:9 *873:55 0
29 *385:15 *873:13 0.00365533
30 *385:15 *873:29 0.00624811
31 *398:11 *873:49 0.00157192
32 *398:19 *873:49 0
33 *410:11 *873:57 0.0178191
34 *422:11 *873:49 0.0123475
35 *433:6 *921:resetb_l 0.000360771
36 *448:31 *873:47 0
37 *449:37 *873:39 0
38 *539:155 *873:37 0.00185649
39 *541:89 *873:21 0
40 *541:89 *873:23 0
41 *546:25 *873:49 0.0991626
42 *554:25 *873:57 0.00126102
43 *693:91 *873:49 0
44 *693:95 *873:37 0.00185963
45 *693:121 *873:21 0
46 *737:99 *873:37 0.00938727
47 *737:127 *873:23 0
48 *739:68 *873:23 0
49 *761:11 *873:49 0.0289389
50 *813:11 *873:49 0
51 *814:11 *873:49 0.000194444
52 *815:21 *873:37 0.00938727
53 *816:11 *873:49 0.00945335
54 *829:35 *873:13 0.00365191
55 *829:35 *873:29 0.00624126
56 *844:17 *873:39 0.00390771
*RES
1 resetb_l *873:13 24.9818 
2 *873:13 *873:15 55.9821 
3 *873:15 *873:21 29.568 
4 *873:21 *873:23 55.9821 
5 *873:23 *873:29 25.244 
6 *873:29 *873:31 47.4821 
7 *873:31 *873:37 21.2803 
8 *873:37 *873:39 119.125 
9 *873:39 *873:43 3.70923 
10 *873:43 *873:47 15.7444 
11 *873:47 *873:49 1213.8 
12 *873:49 *873:55 10.8307 
13 *873:55 *873:57 222.946 
14 *873:57 *873:59 3.41 
15 *873:59 *873:61 106.525 
16 *873:61 *920:resetb 3.41 
17 *873:43 *921:resetb_l 0.5029 
*END
