*SPEF "ieee 1481-1999"
*DESIGN "counter_macro"
*DATE "03:09:14 Tuesday September 22, 2026"
*VENDOR "The OpenROAD Project"
*PROGRAM "OpenROAD"
*VERSION "edf00dff99f6c40d67a30c0e22a8191c5d2ed9d6"
*DESIGN_FLOW "NAME_SCOPE LOCAL" "PIN_CAP NONE"
*DIVIDER /
*DELIMITER :
*BUS_DELIMITER []
*T_UNIT 1 NS
*C_UNIT 1 PF
*R_UNIT 1 OHM
*L_UNIT 1 HENRY

*NAME_MAP
*3 clk
*4 count[0]
*5 count[10]
*6 count[11]
*7 count[12]
*8 count[13]
*9 count[14]
*10 count[15]
*11 count[1]
*12 count[2]
*13 count[3]
*14 count[4]
*15 count[5]
*16 count[6]
*17 count[7]
*18 count[8]
*19 count[9]
*20 net18
*21 net28
*22 net29
*23 net30
*24 net31
*25 net32
*26 net33
*27 net19
*28 net20
*29 net21
*30 net22
*31 net23
*32 net24
*33 net25
*34 net26
*35 net27
*36 resetb
*37 _000_
*38 _001_
*39 _002_
*40 _003_
*41 _004_
*42 _005_
*43 _006_
*44 _007_
*45 _008_
*46 _009_
*47 _010_
*48 _011_
*49 _012_
*50 _013_
*51 _014_
*52 _015_
*53 _016_
*54 _017_
*55 _018_
*56 _019_
*57 _020_
*58 _021_
*59 _022_
*60 _023_
*61 _024_
*62 _025_
*63 _026_
*64 _027_
*65 _028_
*66 _029_
*67 _030_
*68 _031_
*69 _032_
*70 _033_
*71 _034_
*72 _035_
*73 _036_
*74 _037_
*75 _038_
*76 _039_
*77 _040_
*78 _041_
*79 _042_
*80 _043_
*81 _044_
*82 clknet_0_clk
*83 clknet_1_0__leaf_clk
*84 clknet_1_1__leaf_clk
*85 net1
*86 net10
*87 net11
*88 net12
*89 net13
*90 net14
*91 net15
*92 net16
*93 net17
*94 net2
*95 net3
*96 net34
*97 net35
*98 net36
*99 net37
*100 net38
*101 net39
*102 net4
*103 net40
*104 net41
*105 net42
*106 net43
*107 net44
*108 net45
*109 net46
*110 net47
*111 net5
*112 net6
*113 net7
*114 net8
*115 net9
*116 ANTENNA_1
*117 ANTENNA_clkbuf_0_clk_A
*118 ANTENNA_input1_A
*119 FILLER_0_109
*120 FILLER_0_111
*121 FILLER_0_113
*122 FILLER_0_125
*123 FILLER_0_137
*124 FILLER_0_139
*125 FILLER_0_141
*126 FILLER_0_15
*127 FILLER_0_153
*128 FILLER_0_165
*129 FILLER_0_167
*130 FILLER_0_169
*131 FILLER_0_181
*132 FILLER_0_193
*133 FILLER_0_195
*134 FILLER_0_197
*135 FILLER_0_209
*136 FILLER_0_221
*137 FILLER_0_223
*138 FILLER_0_225
*139 FILLER_0_237
*140 FILLER_0_249
*141 FILLER_0_251
*142 FILLER_0_253
*143 FILLER_0_265
*144 FILLER_0_27
*145 FILLER_0_277
*146 FILLER_0_279
*147 FILLER_0_281
*148 FILLER_0_29
*149 FILLER_0_293
*150 FILLER_0_3
*151 FILLER_0_305
*152 FILLER_0_307
*153 FILLER_0_309
*154 FILLER_0_321
*155 FILLER_0_333
*156 FILLER_0_335
*157 FILLER_0_337
*158 FILLER_0_349
*159 FILLER_0_361
*160 FILLER_0_363
*161 FILLER_0_365
*162 FILLER_0_377
*163 FILLER_0_389
*164 FILLER_0_391
*165 FILLER_0_393
*166 FILLER_0_405
*167 FILLER_0_41
*168 FILLER_0_417
*169 FILLER_0_419
*170 FILLER_0_421
*171 FILLER_0_433
*172 FILLER_0_445
*173 FILLER_0_447
*174 FILLER_0_449
*175 FILLER_0_461
*176 FILLER_0_473
*177 FILLER_0_475
*178 FILLER_0_477
*179 FILLER_0_489
*180 FILLER_0_501
*181 FILLER_0_503
*182 FILLER_0_505
*183 FILLER_0_517
*184 FILLER_0_529
*185 FILLER_0_53
*186 FILLER_0_531
*187 FILLER_0_533
*188 FILLER_0_545
*189 FILLER_0_55
*190 FILLER_0_557
*191 FILLER_0_559
*192 FILLER_0_561
*193 FILLER_0_57
*194 FILLER_0_573
*195 FILLER_0_585
*196 FILLER_0_587
*197 FILLER_0_589
*198 FILLER_0_601
*199 FILLER_0_613
*200 FILLER_0_615
*201 FILLER_0_617
*202 FILLER_0_629
*203 FILLER_0_641
*204 FILLER_0_656
*205 FILLER_0_668
*206 FILLER_0_673
*207 FILLER_0_685
*208 FILLER_0_69
*209 FILLER_0_697
*210 FILLER_0_699
*211 FILLER_0_701
*212 FILLER_0_713
*213 FILLER_0_725
*214 FILLER_0_727
*215 FILLER_0_729
*216 FILLER_0_741
*217 FILLER_0_753
*218 FILLER_0_755
*219 FILLER_0_757
*220 FILLER_0_769
*221 FILLER_0_781
*222 FILLER_0_783
*223 FILLER_0_785
*224 FILLER_0_797
*225 FILLER_0_809
*226 FILLER_0_81
*227 FILLER_0_811
*228 FILLER_0_813
*229 FILLER_0_825
*230 FILLER_0_83
*231 FILLER_0_837
*232 FILLER_0_839
*233 FILLER_0_841
*234 FILLER_0_85
*235 FILLER_0_97
*236 FILLER_100_109
*237 FILLER_100_121
*238 FILLER_100_133
*239 FILLER_100_137
*240 FILLER_100_139
*241 FILLER_100_141
*242 FILLER_100_15
*243 FILLER_100_153
*244 FILLER_100_165
*245 FILLER_100_177
*246 FILLER_100_189
*247 FILLER_100_193
*248 FILLER_100_195
*249 FILLER_100_197
*250 FILLER_100_209
*251 FILLER_100_221
*252 FILLER_100_233
*253 FILLER_100_245
*254 FILLER_100_249
*255 FILLER_100_251
*256 FILLER_100_253
*257 FILLER_100_265
*258 FILLER_100_27
*259 FILLER_100_277
*260 FILLER_100_289
*261 FILLER_100_29
*262 FILLER_100_3
*263 FILLER_100_301
*264 FILLER_100_305
*265 FILLER_100_307
*266 FILLER_100_309
*267 FILLER_100_321
*268 FILLER_100_333
*269 FILLER_100_345
*270 FILLER_100_357
*271 FILLER_100_361
*272 FILLER_100_363
*273 FILLER_100_365
*274 FILLER_100_377
*275 FILLER_100_389
*276 FILLER_100_401
*277 FILLER_100_41
*278 FILLER_100_413
*279 FILLER_100_417
*280 FILLER_100_419
*281 FILLER_100_421
*282 FILLER_100_433
*283 FILLER_100_445
*284 FILLER_100_457
*285 FILLER_100_469
*286 FILLER_100_473
*287 FILLER_100_475
*288 FILLER_100_477
*289 FILLER_100_489
*290 FILLER_100_501
*291 FILLER_100_513
*292 FILLER_100_525
*293 FILLER_100_529
*294 FILLER_100_53
*295 FILLER_100_531
*296 FILLER_100_533
*297 FILLER_100_545
*298 FILLER_100_557
*299 FILLER_100_569
*300 FILLER_100_581
*301 FILLER_100_585
*302 FILLER_100_587
*303 FILLER_100_589
*304 FILLER_100_601
*305 FILLER_100_613
*306 FILLER_100_625
*307 FILLER_100_637
*308 FILLER_100_641
*309 FILLER_100_643
*310 FILLER_100_645
*311 FILLER_100_65
*312 FILLER_100_657
*313 FILLER_100_669
*314 FILLER_100_681
*315 FILLER_100_693
*316 FILLER_100_697
*317 FILLER_100_699
*318 FILLER_100_701
*319 FILLER_100_713
*320 FILLER_100_725
*321 FILLER_100_737
*322 FILLER_100_749
*323 FILLER_100_753
*324 FILLER_100_755
*325 FILLER_100_757
*326 FILLER_100_769
*327 FILLER_100_77
*328 FILLER_100_781
*329 FILLER_100_793
*330 FILLER_100_805
*331 FILLER_100_809
*332 FILLER_100_81
*333 FILLER_100_811
*334 FILLER_100_813
*335 FILLER_100_825
*336 FILLER_100_83
*337 FILLER_100_837
*338 FILLER_100_841
*339 FILLER_100_85
*340 FILLER_100_97
*341 FILLER_101_105
*342 FILLER_101_109
*343 FILLER_101_111
*344 FILLER_101_113
*345 FILLER_101_125
*346 FILLER_101_137
*347 FILLER_101_149
*348 FILLER_101_15
*349 FILLER_101_161
*350 FILLER_101_165
*351 FILLER_101_167
*352 FILLER_101_169
*353 FILLER_101_181
*354 FILLER_101_193
*355 FILLER_101_205
*356 FILLER_101_217
*357 FILLER_101_221
*358 FILLER_101_223
*359 FILLER_101_225
*360 FILLER_101_237
*361 FILLER_101_249
*362 FILLER_101_261
*363 FILLER_101_27
*364 FILLER_101_273
*365 FILLER_101_277
*366 FILLER_101_279
*367 FILLER_101_281
*368 FILLER_101_293
*369 FILLER_101_3
*370 FILLER_101_305
*371 FILLER_101_317
*372 FILLER_101_329
*373 FILLER_101_333
*374 FILLER_101_335
*375 FILLER_101_337
*376 FILLER_101_349
*377 FILLER_101_361
*378 FILLER_101_373
*379 FILLER_101_385
*380 FILLER_101_389
*381 FILLER_101_39
*382 FILLER_101_391
*383 FILLER_101_393
*384 FILLER_101_405
*385 FILLER_101_417
*386 FILLER_101_429
*387 FILLER_101_441
*388 FILLER_101_445
*389 FILLER_101_447
*390 FILLER_101_449
*391 FILLER_101_461
*392 FILLER_101_473
*393 FILLER_101_485
*394 FILLER_101_497
*395 FILLER_101_501
*396 FILLER_101_503
*397 FILLER_101_505
*398 FILLER_101_51
*399 FILLER_101_517
*400 FILLER_101_529
*401 FILLER_101_541
*402 FILLER_101_55
*403 FILLER_101_553
*404 FILLER_101_557
*405 FILLER_101_559
*406 FILLER_101_561
*407 FILLER_101_57
*408 FILLER_101_573
*409 FILLER_101_585
*410 FILLER_101_597
*411 FILLER_101_609
*412 FILLER_101_613
*413 FILLER_101_615
*414 FILLER_101_617
*415 FILLER_101_629
*416 FILLER_101_641
*417 FILLER_101_653
*418 FILLER_101_665
*419 FILLER_101_669
*420 FILLER_101_671
*421 FILLER_101_673
*422 FILLER_101_685
*423 FILLER_101_69
*424 FILLER_101_697
*425 FILLER_101_709
*426 FILLER_101_721
*427 FILLER_101_725
*428 FILLER_101_727
*429 FILLER_101_729
*430 FILLER_101_741
*431 FILLER_101_753
*432 FILLER_101_765
*433 FILLER_101_777
*434 FILLER_101_781
*435 FILLER_101_783
*436 FILLER_101_785
*437 FILLER_101_797
*438 FILLER_101_809
*439 FILLER_101_81
*440 FILLER_101_821
*441 FILLER_101_833
*442 FILLER_101_837
*443 FILLER_101_839
*444 FILLER_101_841
*445 FILLER_101_93
*446 FILLER_102_109
*447 FILLER_102_121
*448 FILLER_102_133
*449 FILLER_102_137
*450 FILLER_102_139
*451 FILLER_102_141
*452 FILLER_102_15
*453 FILLER_102_153
*454 FILLER_102_165
*455 FILLER_102_177
*456 FILLER_102_189
*457 FILLER_102_193
*458 FILLER_102_195
*459 FILLER_102_197
*460 FILLER_102_209
*461 FILLER_102_221
*462 FILLER_102_233
*463 FILLER_102_245
*464 FILLER_102_249
*465 FILLER_102_251
*466 FILLER_102_253
*467 FILLER_102_265
*468 FILLER_102_27
*469 FILLER_102_277
*470 FILLER_102_289
*471 FILLER_102_29
*472 FILLER_102_3
*473 FILLER_102_301
*474 FILLER_102_305
*475 FILLER_102_307
*476 FILLER_102_309
*477 FILLER_102_321
*478 FILLER_102_333
*479 FILLER_102_345
*480 FILLER_102_357
*481 FILLER_102_361
*482 FILLER_102_363
*483 FILLER_102_365
*484 FILLER_102_377
*485 FILLER_102_389
*486 FILLER_102_401
*487 FILLER_102_41
*488 FILLER_102_413
*489 FILLER_102_417
*490 FILLER_102_419
*491 FILLER_102_421
*492 FILLER_102_433
*493 FILLER_102_445
*494 FILLER_102_457
*495 FILLER_102_469
*496 FILLER_102_473
*497 FILLER_102_475
*498 FILLER_102_477
*499 FILLER_102_489
*500 FILLER_102_501
*501 FILLER_102_513
*502 FILLER_102_525
*503 FILLER_102_529
*504 FILLER_102_53
*505 FILLER_102_531
*506 FILLER_102_533
*507 FILLER_102_545
*508 FILLER_102_557
*509 FILLER_102_569
*510 FILLER_102_581
*511 FILLER_102_585
*512 FILLER_102_587
*513 FILLER_102_589
*514 FILLER_102_601
*515 FILLER_102_613
*516 FILLER_102_625
*517 FILLER_102_637
*518 FILLER_102_641
*519 FILLER_102_643
*520 FILLER_102_645
*521 FILLER_102_65
*522 FILLER_102_657
*523 FILLER_102_669
*524 FILLER_102_681
*525 FILLER_102_693
*526 FILLER_102_697
*527 FILLER_102_699
*528 FILLER_102_701
*529 FILLER_102_713
*530 FILLER_102_725
*531 FILLER_102_737
*532 FILLER_102_749
*533 FILLER_102_753
*534 FILLER_102_755
*535 FILLER_102_757
*536 FILLER_102_769
*537 FILLER_102_77
*538 FILLER_102_781
*539 FILLER_102_793
*540 FILLER_102_805
*541 FILLER_102_809
*542 FILLER_102_81
*543 FILLER_102_811
*544 FILLER_102_813
*545 FILLER_102_825
*546 FILLER_102_83
*547 FILLER_102_837
*548 FILLER_102_841
*549 FILLER_102_85
*550 FILLER_102_97
*551 FILLER_103_105
*552 FILLER_103_109
*553 FILLER_103_111
*554 FILLER_103_113
*555 FILLER_103_125
*556 FILLER_103_137
*557 FILLER_103_149
*558 FILLER_103_15
*559 FILLER_103_161
*560 FILLER_103_165
*561 FILLER_103_167
*562 FILLER_103_169
*563 FILLER_103_181
*564 FILLER_103_193
*565 FILLER_103_205
*566 FILLER_103_217
*567 FILLER_103_221
*568 FILLER_103_223
*569 FILLER_103_225
*570 FILLER_103_237
*571 FILLER_103_249
*572 FILLER_103_261
*573 FILLER_103_27
*574 FILLER_103_273
*575 FILLER_103_277
*576 FILLER_103_279
*577 FILLER_103_281
*578 FILLER_103_293
*579 FILLER_103_3
*580 FILLER_103_305
*581 FILLER_103_317
*582 FILLER_103_329
*583 FILLER_103_333
*584 FILLER_103_335
*585 FILLER_103_337
*586 FILLER_103_349
*587 FILLER_103_361
*588 FILLER_103_373
*589 FILLER_103_385
*590 FILLER_103_389
*591 FILLER_103_39
*592 FILLER_103_391
*593 FILLER_103_393
*594 FILLER_103_405
*595 FILLER_103_417
*596 FILLER_103_429
*597 FILLER_103_441
*598 FILLER_103_445
*599 FILLER_103_447
*600 FILLER_103_449
*601 FILLER_103_461
*602 FILLER_103_473
*603 FILLER_103_485
*604 FILLER_103_497
*605 FILLER_103_501
*606 FILLER_103_503
*607 FILLER_103_505
*608 FILLER_103_51
*609 FILLER_103_517
*610 FILLER_103_529
*611 FILLER_103_541
*612 FILLER_103_55
*613 FILLER_103_553
*614 FILLER_103_557
*615 FILLER_103_559
*616 FILLER_103_561
*617 FILLER_103_57
*618 FILLER_103_573
*619 FILLER_103_585
*620 FILLER_103_597
*621 FILLER_103_609
*622 FILLER_103_613
*623 FILLER_103_615
*624 FILLER_103_617
*625 FILLER_103_629
*626 FILLER_103_641
*627 FILLER_103_653
*628 FILLER_103_665
*629 FILLER_103_669
*630 FILLER_103_671
*631 FILLER_103_673
*632 FILLER_103_685
*633 FILLER_103_69
*634 FILLER_103_697
*635 FILLER_103_709
*636 FILLER_103_721
*637 FILLER_103_725
*638 FILLER_103_727
*639 FILLER_103_729
*640 FILLER_103_741
*641 FILLER_103_753
*642 FILLER_103_765
*643 FILLER_103_777
*644 FILLER_103_781
*645 FILLER_103_783
*646 FILLER_103_785
*647 FILLER_103_797
*648 FILLER_103_809
*649 FILLER_103_81
*650 FILLER_103_821
*651 FILLER_103_833
*652 FILLER_103_837
*653 FILLER_103_839
*654 FILLER_103_841
*655 FILLER_103_93
*656 FILLER_104_109
*657 FILLER_104_121
*658 FILLER_104_133
*659 FILLER_104_137
*660 FILLER_104_139
*661 FILLER_104_141
*662 FILLER_104_15
*663 FILLER_104_153
*664 FILLER_104_165
*665 FILLER_104_177
*666 FILLER_104_189
*667 FILLER_104_193
*668 FILLER_104_195
*669 FILLER_104_197
*670 FILLER_104_209
*671 FILLER_104_221
*672 FILLER_104_233
*673 FILLER_104_245
*674 FILLER_104_249
*675 FILLER_104_251
*676 FILLER_104_253
*677 FILLER_104_265
*678 FILLER_104_27
*679 FILLER_104_277
*680 FILLER_104_289
*681 FILLER_104_29
*682 FILLER_104_3
*683 FILLER_104_301
*684 FILLER_104_305
*685 FILLER_104_307
*686 FILLER_104_309
*687 FILLER_104_321
*688 FILLER_104_333
*689 FILLER_104_345
*690 FILLER_104_357
*691 FILLER_104_361
*692 FILLER_104_363
*693 FILLER_104_365
*694 FILLER_104_377
*695 FILLER_104_389
*696 FILLER_104_401
*697 FILLER_104_41
*698 FILLER_104_413
*699 FILLER_104_417
*700 FILLER_104_419
*701 FILLER_104_421
*702 FILLER_104_433
*703 FILLER_104_445
*704 FILLER_104_457
*705 FILLER_104_469
*706 FILLER_104_473
*707 FILLER_104_475
*708 FILLER_104_477
*709 FILLER_104_489
*710 FILLER_104_501
*711 FILLER_104_513
*712 FILLER_104_525
*713 FILLER_104_529
*714 FILLER_104_53
*715 FILLER_104_531
*716 FILLER_104_533
*717 FILLER_104_545
*718 FILLER_104_557
*719 FILLER_104_569
*720 FILLER_104_581
*721 FILLER_104_585
*722 FILLER_104_587
*723 FILLER_104_589
*724 FILLER_104_601
*725 FILLER_104_613
*726 FILLER_104_625
*727 FILLER_104_637
*728 FILLER_104_641
*729 FILLER_104_643
*730 FILLER_104_645
*731 FILLER_104_65
*732 FILLER_104_657
*733 FILLER_104_669
*734 FILLER_104_681
*735 FILLER_104_693
*736 FILLER_104_697
*737 FILLER_104_699
*738 FILLER_104_701
*739 FILLER_104_713
*740 FILLER_104_725
*741 FILLER_104_737
*742 FILLER_104_749
*743 FILLER_104_753
*744 FILLER_104_755
*745 FILLER_104_757
*746 FILLER_104_769
*747 FILLER_104_77
*748 FILLER_104_781
*749 FILLER_104_793
*750 FILLER_104_805
*751 FILLER_104_809
*752 FILLER_104_81
*753 FILLER_104_811
*754 FILLER_104_813
*755 FILLER_104_825
*756 FILLER_104_83
*757 FILLER_104_837
*758 FILLER_104_841
*759 FILLER_104_85
*760 FILLER_104_97
*761 FILLER_105_105
*762 FILLER_105_109
*763 FILLER_105_111
*764 FILLER_105_113
*765 FILLER_105_125
*766 FILLER_105_137
*767 FILLER_105_149
*768 FILLER_105_15
*769 FILLER_105_161
*770 FILLER_105_165
*771 FILLER_105_167
*772 FILLER_105_169
*773 FILLER_105_181
*774 FILLER_105_193
*775 FILLER_105_205
*776 FILLER_105_217
*777 FILLER_105_221
*778 FILLER_105_223
*779 FILLER_105_225
*780 FILLER_105_237
*781 FILLER_105_249
*782 FILLER_105_261
*783 FILLER_105_27
*784 FILLER_105_273
*785 FILLER_105_277
*786 FILLER_105_279
*787 FILLER_105_281
*788 FILLER_105_293
*789 FILLER_105_3
*790 FILLER_105_305
*791 FILLER_105_317
*792 FILLER_105_329
*793 FILLER_105_333
*794 FILLER_105_335
*795 FILLER_105_337
*796 FILLER_105_349
*797 FILLER_105_361
*798 FILLER_105_373
*799 FILLER_105_385
*800 FILLER_105_389
*801 FILLER_105_39
*802 FILLER_105_391
*803 FILLER_105_393
*804 FILLER_105_405
*805 FILLER_105_417
*806 FILLER_105_429
*807 FILLER_105_441
*808 FILLER_105_445
*809 FILLER_105_447
*810 FILLER_105_449
*811 FILLER_105_461
*812 FILLER_105_473
*813 FILLER_105_485
*814 FILLER_105_497
*815 FILLER_105_501
*816 FILLER_105_503
*817 FILLER_105_505
*818 FILLER_105_51
*819 FILLER_105_517
*820 FILLER_105_529
*821 FILLER_105_541
*822 FILLER_105_55
*823 FILLER_105_553
*824 FILLER_105_557
*825 FILLER_105_559
*826 FILLER_105_561
*827 FILLER_105_57
*828 FILLER_105_573
*829 FILLER_105_585
*830 FILLER_105_597
*831 FILLER_105_609
*832 FILLER_105_613
*833 FILLER_105_615
*834 FILLER_105_617
*835 FILLER_105_629
*836 FILLER_105_641
*837 FILLER_105_653
*838 FILLER_105_665
*839 FILLER_105_669
*840 FILLER_105_671
*841 FILLER_105_673
*842 FILLER_105_685
*843 FILLER_105_69
*844 FILLER_105_697
*845 FILLER_105_709
*846 FILLER_105_721
*847 FILLER_105_725
*848 FILLER_105_727
*849 FILLER_105_729
*850 FILLER_105_741
*851 FILLER_105_753
*852 FILLER_105_765
*853 FILLER_105_777
*854 FILLER_105_781
*855 FILLER_105_783
*856 FILLER_105_785
*857 FILLER_105_797
*858 FILLER_105_809
*859 FILLER_105_81
*860 FILLER_105_821
*861 FILLER_105_833
*862 FILLER_105_837
*863 FILLER_105_839
*864 FILLER_105_841
*865 FILLER_105_93
*866 FILLER_106_109
*867 FILLER_106_121
*868 FILLER_106_133
*869 FILLER_106_137
*870 FILLER_106_139
*871 FILLER_106_141
*872 FILLER_106_15
*873 FILLER_106_153
*874 FILLER_106_165
*875 FILLER_106_177
*876 FILLER_106_189
*877 FILLER_106_193
*878 FILLER_106_195
*879 FILLER_106_197
*880 FILLER_106_209
*881 FILLER_106_221
*882 FILLER_106_233
*883 FILLER_106_245
*884 FILLER_106_249
*885 FILLER_106_251
*886 FILLER_106_253
*887 FILLER_106_265
*888 FILLER_106_27
*889 FILLER_106_277
*890 FILLER_106_289
*891 FILLER_106_29
*892 FILLER_106_3
*893 FILLER_106_301
*894 FILLER_106_305
*895 FILLER_106_307
*896 FILLER_106_309
*897 FILLER_106_321
*898 FILLER_106_333
*899 FILLER_106_345
*900 FILLER_106_357
*901 FILLER_106_361
*902 FILLER_106_363
*903 FILLER_106_365
*904 FILLER_106_377
*905 FILLER_106_389
*906 FILLER_106_401
*907 FILLER_106_41
*908 FILLER_106_413
*909 FILLER_106_417
*910 FILLER_106_419
*911 FILLER_106_421
*912 FILLER_106_433
*913 FILLER_106_445
*914 FILLER_106_457
*915 FILLER_106_469
*916 FILLER_106_473
*917 FILLER_106_475
*918 FILLER_106_477
*919 FILLER_106_489
*920 FILLER_106_501
*921 FILLER_106_513
*922 FILLER_106_525
*923 FILLER_106_529
*924 FILLER_106_53
*925 FILLER_106_531
*926 FILLER_106_533
*927 FILLER_106_545
*928 FILLER_106_557
*929 FILLER_106_569
*930 FILLER_106_581
*931 FILLER_106_585
*932 FILLER_106_587
*933 FILLER_106_589
*934 FILLER_106_601
*935 FILLER_106_613
*936 FILLER_106_625
*937 FILLER_106_637
*938 FILLER_106_641
*939 FILLER_106_643
*940 FILLER_106_645
*941 FILLER_106_65
*942 FILLER_106_657
*943 FILLER_106_669
*944 FILLER_106_681
*945 FILLER_106_693
*946 FILLER_106_697
*947 FILLER_106_699
*948 FILLER_106_701
*949 FILLER_106_713
*950 FILLER_106_725
*951 FILLER_106_737
*952 FILLER_106_749
*953 FILLER_106_753
*954 FILLER_106_755
*955 FILLER_106_757
*956 FILLER_106_769
*957 FILLER_106_77
*958 FILLER_106_781
*959 FILLER_106_793
*960 FILLER_106_805
*961 FILLER_106_809
*962 FILLER_106_81
*963 FILLER_106_811
*964 FILLER_106_813
*965 FILLER_106_825
*966 FILLER_106_83
*967 FILLER_106_837
*968 FILLER_106_841
*969 FILLER_106_85
*970 FILLER_106_97
*971 FILLER_107_105
*972 FILLER_107_109
*973 FILLER_107_111
*974 FILLER_107_113
*975 FILLER_107_125
*976 FILLER_107_137
*977 FILLER_107_149
*978 FILLER_107_15
*979 FILLER_107_161
*980 FILLER_107_165
*981 FILLER_107_167
*982 FILLER_107_169
*983 FILLER_107_181
*984 FILLER_107_193
*985 FILLER_107_205
*986 FILLER_107_217
*987 FILLER_107_221
*988 FILLER_107_223
*989 FILLER_107_225
*990 FILLER_107_237
*991 FILLER_107_249
*992 FILLER_107_261
*993 FILLER_107_27
*994 FILLER_107_273
*995 FILLER_107_277
*996 FILLER_107_279
*997 FILLER_107_281
*998 FILLER_107_293
*999 FILLER_107_3
*1000 FILLER_107_305
*1001 FILLER_107_317
*1002 FILLER_107_329
*1003 FILLER_107_333
*1004 FILLER_107_335
*1005 FILLER_107_337
*1006 FILLER_107_349
*1007 FILLER_107_361
*1008 FILLER_107_373
*1009 FILLER_107_385
*1010 FILLER_107_389
*1011 FILLER_107_39
*1012 FILLER_107_391
*1013 FILLER_107_393
*1014 FILLER_107_405
*1015 FILLER_107_417
*1016 FILLER_107_429
*1017 FILLER_107_441
*1018 FILLER_107_445
*1019 FILLER_107_447
*1020 FILLER_107_449
*1021 FILLER_107_461
*1022 FILLER_107_473
*1023 FILLER_107_485
*1024 FILLER_107_497
*1025 FILLER_107_501
*1026 FILLER_107_503
*1027 FILLER_107_505
*1028 FILLER_107_51
*1029 FILLER_107_517
*1030 FILLER_107_529
*1031 FILLER_107_541
*1032 FILLER_107_55
*1033 FILLER_107_553
*1034 FILLER_107_557
*1035 FILLER_107_559
*1036 FILLER_107_561
*1037 FILLER_107_57
*1038 FILLER_107_573
*1039 FILLER_107_585
*1040 FILLER_107_597
*1041 FILLER_107_609
*1042 FILLER_107_613
*1043 FILLER_107_615
*1044 FILLER_107_617
*1045 FILLER_107_629
*1046 FILLER_107_641
*1047 FILLER_107_653
*1048 FILLER_107_665
*1049 FILLER_107_669
*1050 FILLER_107_671
*1051 FILLER_107_673
*1052 FILLER_107_685
*1053 FILLER_107_69
*1054 FILLER_107_697
*1055 FILLER_107_709
*1056 FILLER_107_721
*1057 FILLER_107_725
*1058 FILLER_107_727
*1059 FILLER_107_729
*1060 FILLER_107_741
*1061 FILLER_107_753
*1062 FILLER_107_765
*1063 FILLER_107_777
*1064 FILLER_107_781
*1065 FILLER_107_783
*1066 FILLER_107_785
*1067 FILLER_107_797
*1068 FILLER_107_809
*1069 FILLER_107_81
*1070 FILLER_107_821
*1071 FILLER_107_833
*1072 FILLER_107_837
*1073 FILLER_107_839
*1074 FILLER_107_841
*1075 FILLER_107_93
*1076 FILLER_108_109
*1077 FILLER_108_121
*1078 FILLER_108_133
*1079 FILLER_108_137
*1080 FILLER_108_139
*1081 FILLER_108_141
*1082 FILLER_108_15
*1083 FILLER_108_153
*1084 FILLER_108_165
*1085 FILLER_108_177
*1086 FILLER_108_189
*1087 FILLER_108_193
*1088 FILLER_108_195
*1089 FILLER_108_197
*1090 FILLER_108_209
*1091 FILLER_108_221
*1092 FILLER_108_233
*1093 FILLER_108_245
*1094 FILLER_108_249
*1095 FILLER_108_251
*1096 FILLER_108_253
*1097 FILLER_108_265
*1098 FILLER_108_27
*1099 FILLER_108_277
*1100 FILLER_108_289
*1101 FILLER_108_29
*1102 FILLER_108_3
*1103 FILLER_108_301
*1104 FILLER_108_305
*1105 FILLER_108_307
*1106 FILLER_108_309
*1107 FILLER_108_321
*1108 FILLER_108_333
*1109 FILLER_108_345
*1110 FILLER_108_357
*1111 FILLER_108_361
*1112 FILLER_108_363
*1113 FILLER_108_365
*1114 FILLER_108_377
*1115 FILLER_108_389
*1116 FILLER_108_401
*1117 FILLER_108_41
*1118 FILLER_108_413
*1119 FILLER_108_417
*1120 FILLER_108_419
*1121 FILLER_108_421
*1122 FILLER_108_433
*1123 FILLER_108_445
*1124 FILLER_108_457
*1125 FILLER_108_469
*1126 FILLER_108_473
*1127 FILLER_108_475
*1128 FILLER_108_477
*1129 FILLER_108_489
*1130 FILLER_108_501
*1131 FILLER_108_513
*1132 FILLER_108_525
*1133 FILLER_108_529
*1134 FILLER_108_53
*1135 FILLER_108_531
*1136 FILLER_108_533
*1137 FILLER_108_545
*1138 FILLER_108_557
*1139 FILLER_108_569
*1140 FILLER_108_581
*1141 FILLER_108_585
*1142 FILLER_108_587
*1143 FILLER_108_589
*1144 FILLER_108_601
*1145 FILLER_108_613
*1146 FILLER_108_625
*1147 FILLER_108_637
*1148 FILLER_108_641
*1149 FILLER_108_643
*1150 FILLER_108_645
*1151 FILLER_108_65
*1152 FILLER_108_657
*1153 FILLER_108_669
*1154 FILLER_108_681
*1155 FILLER_108_693
*1156 FILLER_108_697
*1157 FILLER_108_699
*1158 FILLER_108_701
*1159 FILLER_108_713
*1160 FILLER_108_725
*1161 FILLER_108_737
*1162 FILLER_108_749
*1163 FILLER_108_753
*1164 FILLER_108_755
*1165 FILLER_108_757
*1166 FILLER_108_769
*1167 FILLER_108_77
*1168 FILLER_108_781
*1169 FILLER_108_793
*1170 FILLER_108_805
*1171 FILLER_108_809
*1172 FILLER_108_81
*1173 FILLER_108_811
*1174 FILLER_108_813
*1175 FILLER_108_825
*1176 FILLER_108_83
*1177 FILLER_108_837
*1178 FILLER_108_841
*1179 FILLER_108_85
*1180 FILLER_108_97
*1181 FILLER_109_105
*1182 FILLER_109_109
*1183 FILLER_109_111
*1184 FILLER_109_113
*1185 FILLER_109_125
*1186 FILLER_109_137
*1187 FILLER_109_149
*1188 FILLER_109_15
*1189 FILLER_109_161
*1190 FILLER_109_165
*1191 FILLER_109_167
*1192 FILLER_109_169
*1193 FILLER_109_181
*1194 FILLER_109_193
*1195 FILLER_109_205
*1196 FILLER_109_217
*1197 FILLER_109_221
*1198 FILLER_109_223
*1199 FILLER_109_225
*1200 FILLER_109_237
*1201 FILLER_109_249
*1202 FILLER_109_261
*1203 FILLER_109_27
*1204 FILLER_109_273
*1205 FILLER_109_277
*1206 FILLER_109_279
*1207 FILLER_109_281
*1208 FILLER_109_293
*1209 FILLER_109_3
*1210 FILLER_109_305
*1211 FILLER_109_317
*1212 FILLER_109_329
*1213 FILLER_109_333
*1214 FILLER_109_335
*1215 FILLER_109_337
*1216 FILLER_109_349
*1217 FILLER_109_361
*1218 FILLER_109_373
*1219 FILLER_109_385
*1220 FILLER_109_389
*1221 FILLER_109_39
*1222 FILLER_109_391
*1223 FILLER_109_393
*1224 FILLER_109_405
*1225 FILLER_109_417
*1226 FILLER_109_429
*1227 FILLER_109_441
*1228 FILLER_109_445
*1229 FILLER_109_447
*1230 FILLER_109_449
*1231 FILLER_109_461
*1232 FILLER_109_473
*1233 FILLER_109_485
*1234 FILLER_109_497
*1235 FILLER_109_501
*1236 FILLER_109_503
*1237 FILLER_109_505
*1238 FILLER_109_51
*1239 FILLER_109_517
*1240 FILLER_109_529
*1241 FILLER_109_541
*1242 FILLER_109_55
*1243 FILLER_109_553
*1244 FILLER_109_557
*1245 FILLER_109_559
*1246 FILLER_109_561
*1247 FILLER_109_57
*1248 FILLER_109_573
*1249 FILLER_109_585
*1250 FILLER_109_597
*1251 FILLER_109_609
*1252 FILLER_109_613
*1253 FILLER_109_615
*1254 FILLER_109_617
*1255 FILLER_109_629
*1256 FILLER_109_641
*1257 FILLER_109_653
*1258 FILLER_109_665
*1259 FILLER_109_669
*1260 FILLER_109_671
*1261 FILLER_109_673
*1262 FILLER_109_685
*1263 FILLER_109_69
*1264 FILLER_109_697
*1265 FILLER_109_709
*1266 FILLER_109_721
*1267 FILLER_109_725
*1268 FILLER_109_727
*1269 FILLER_109_729
*1270 FILLER_109_741
*1271 FILLER_109_753
*1272 FILLER_109_765
*1273 FILLER_109_777
*1274 FILLER_109_781
*1275 FILLER_109_783
*1276 FILLER_109_785
*1277 FILLER_109_797
*1278 FILLER_109_809
*1279 FILLER_109_81
*1280 FILLER_109_821
*1281 FILLER_109_833
*1282 FILLER_109_837
*1283 FILLER_109_839
*1284 FILLER_109_841
*1285 FILLER_109_93
*1286 FILLER_10_109
*1287 FILLER_10_121
*1288 FILLER_10_133
*1289 FILLER_10_137
*1290 FILLER_10_139
*1291 FILLER_10_141
*1292 FILLER_10_15
*1293 FILLER_10_153
*1294 FILLER_10_165
*1295 FILLER_10_177
*1296 FILLER_10_189
*1297 FILLER_10_193
*1298 FILLER_10_195
*1299 FILLER_10_197
*1300 FILLER_10_209
*1301 FILLER_10_221
*1302 FILLER_10_233
*1303 FILLER_10_245
*1304 FILLER_10_249
*1305 FILLER_10_251
*1306 FILLER_10_253
*1307 FILLER_10_265
*1308 FILLER_10_27
*1309 FILLER_10_277
*1310 FILLER_10_289
*1311 FILLER_10_29
*1312 FILLER_10_3
*1313 FILLER_10_301
*1314 FILLER_10_305
*1315 FILLER_10_307
*1316 FILLER_10_309
*1317 FILLER_10_321
*1318 FILLER_10_333
*1319 FILLER_10_345
*1320 FILLER_10_357
*1321 FILLER_10_361
*1322 FILLER_10_363
*1323 FILLER_10_365
*1324 FILLER_10_377
*1325 FILLER_10_389
*1326 FILLER_10_401
*1327 FILLER_10_41
*1328 FILLER_10_413
*1329 FILLER_10_417
*1330 FILLER_10_419
*1331 FILLER_10_421
*1332 FILLER_10_433
*1333 FILLER_10_445
*1334 FILLER_10_457
*1335 FILLER_10_469
*1336 FILLER_10_473
*1337 FILLER_10_475
*1338 FILLER_10_477
*1339 FILLER_10_489
*1340 FILLER_10_501
*1341 FILLER_10_513
*1342 FILLER_10_525
*1343 FILLER_10_529
*1344 FILLER_10_53
*1345 FILLER_10_531
*1346 FILLER_10_533
*1347 FILLER_10_545
*1348 FILLER_10_557
*1349 FILLER_10_569
*1350 FILLER_10_581
*1351 FILLER_10_585
*1352 FILLER_10_587
*1353 FILLER_10_589
*1354 FILLER_10_601
*1355 FILLER_10_613
*1356 FILLER_10_625
*1357 FILLER_10_637
*1358 FILLER_10_641
*1359 FILLER_10_643
*1360 FILLER_10_645
*1361 FILLER_10_65
*1362 FILLER_10_657
*1363 FILLER_10_669
*1364 FILLER_10_681
*1365 FILLER_10_693
*1366 FILLER_10_697
*1367 FILLER_10_699
*1368 FILLER_10_701
*1369 FILLER_10_713
*1370 FILLER_10_725
*1371 FILLER_10_737
*1372 FILLER_10_749
*1373 FILLER_10_753
*1374 FILLER_10_755
*1375 FILLER_10_757
*1376 FILLER_10_769
*1377 FILLER_10_77
*1378 FILLER_10_781
*1379 FILLER_10_793
*1380 FILLER_10_805
*1381 FILLER_10_809
*1382 FILLER_10_81
*1383 FILLER_10_811
*1384 FILLER_10_813
*1385 FILLER_10_825
*1386 FILLER_10_83
*1387 FILLER_10_837
*1388 FILLER_10_841
*1389 FILLER_10_85
*1390 FILLER_10_97
*1391 FILLER_110_109
*1392 FILLER_110_121
*1393 FILLER_110_133
*1394 FILLER_110_137
*1395 FILLER_110_139
*1396 FILLER_110_141
*1397 FILLER_110_15
*1398 FILLER_110_153
*1399 FILLER_110_165
*1400 FILLER_110_177
*1401 FILLER_110_189
*1402 FILLER_110_193
*1403 FILLER_110_195
*1404 FILLER_110_197
*1405 FILLER_110_209
*1406 FILLER_110_221
*1407 FILLER_110_233
*1408 FILLER_110_245
*1409 FILLER_110_249
*1410 FILLER_110_251
*1411 FILLER_110_253
*1412 FILLER_110_265
*1413 FILLER_110_27
*1414 FILLER_110_277
*1415 FILLER_110_289
*1416 FILLER_110_29
*1417 FILLER_110_3
*1418 FILLER_110_301
*1419 FILLER_110_305
*1420 FILLER_110_307
*1421 FILLER_110_309
*1422 FILLER_110_321
*1423 FILLER_110_333
*1424 FILLER_110_345
*1425 FILLER_110_357
*1426 FILLER_110_361
*1427 FILLER_110_363
*1428 FILLER_110_365
*1429 FILLER_110_377
*1430 FILLER_110_389
*1431 FILLER_110_401
*1432 FILLER_110_41
*1433 FILLER_110_413
*1434 FILLER_110_417
*1435 FILLER_110_419
*1436 FILLER_110_421
*1437 FILLER_110_433
*1438 FILLER_110_445
*1439 FILLER_110_457
*1440 FILLER_110_469
*1441 FILLER_110_473
*1442 FILLER_110_475
*1443 FILLER_110_477
*1444 FILLER_110_489
*1445 FILLER_110_501
*1446 FILLER_110_513
*1447 FILLER_110_525
*1448 FILLER_110_529
*1449 FILLER_110_53
*1450 FILLER_110_531
*1451 FILLER_110_533
*1452 FILLER_110_545
*1453 FILLER_110_557
*1454 FILLER_110_569
*1455 FILLER_110_581
*1456 FILLER_110_585
*1457 FILLER_110_587
*1458 FILLER_110_589
*1459 FILLER_110_601
*1460 FILLER_110_613
*1461 FILLER_110_625
*1462 FILLER_110_637
*1463 FILLER_110_641
*1464 FILLER_110_643
*1465 FILLER_110_645
*1466 FILLER_110_65
*1467 FILLER_110_657
*1468 FILLER_110_669
*1469 FILLER_110_681
*1470 FILLER_110_693
*1471 FILLER_110_697
*1472 FILLER_110_699
*1473 FILLER_110_701
*1474 FILLER_110_713
*1475 FILLER_110_725
*1476 FILLER_110_737
*1477 FILLER_110_749
*1478 FILLER_110_753
*1479 FILLER_110_755
*1480 FILLER_110_757
*1481 FILLER_110_769
*1482 FILLER_110_77
*1483 FILLER_110_781
*1484 FILLER_110_793
*1485 FILLER_110_805
*1486 FILLER_110_809
*1487 FILLER_110_81
*1488 FILLER_110_811
*1489 FILLER_110_813
*1490 FILLER_110_825
*1491 FILLER_110_83
*1492 FILLER_110_837
*1493 FILLER_110_841
*1494 FILLER_110_85
*1495 FILLER_110_97
*1496 FILLER_111_105
*1497 FILLER_111_109
*1498 FILLER_111_111
*1499 FILLER_111_113
*1500 FILLER_111_125
*1501 FILLER_111_137
*1502 FILLER_111_149
*1503 FILLER_111_15
*1504 FILLER_111_161
*1505 FILLER_111_165
*1506 FILLER_111_167
*1507 FILLER_111_169
*1508 FILLER_111_181
*1509 FILLER_111_193
*1510 FILLER_111_205
*1511 FILLER_111_217
*1512 FILLER_111_221
*1513 FILLER_111_223
*1514 FILLER_111_225
*1515 FILLER_111_237
*1516 FILLER_111_249
*1517 FILLER_111_261
*1518 FILLER_111_27
*1519 FILLER_111_273
*1520 FILLER_111_277
*1521 FILLER_111_279
*1522 FILLER_111_281
*1523 FILLER_111_293
*1524 FILLER_111_3
*1525 FILLER_111_305
*1526 FILLER_111_317
*1527 FILLER_111_329
*1528 FILLER_111_333
*1529 FILLER_111_335
*1530 FILLER_111_337
*1531 FILLER_111_349
*1532 FILLER_111_361
*1533 FILLER_111_373
*1534 FILLER_111_385
*1535 FILLER_111_389
*1536 FILLER_111_39
*1537 FILLER_111_391
*1538 FILLER_111_393
*1539 FILLER_111_405
*1540 FILLER_111_417
*1541 FILLER_111_429
*1542 FILLER_111_441
*1543 FILLER_111_445
*1544 FILLER_111_447
*1545 FILLER_111_449
*1546 FILLER_111_461
*1547 FILLER_111_473
*1548 FILLER_111_485
*1549 FILLER_111_497
*1550 FILLER_111_501
*1551 FILLER_111_503
*1552 FILLER_111_505
*1553 FILLER_111_51
*1554 FILLER_111_517
*1555 FILLER_111_529
*1556 FILLER_111_541
*1557 FILLER_111_55
*1558 FILLER_111_553
*1559 FILLER_111_557
*1560 FILLER_111_559
*1561 FILLER_111_561
*1562 FILLER_111_57
*1563 FILLER_111_573
*1564 FILLER_111_585
*1565 FILLER_111_597
*1566 FILLER_111_609
*1567 FILLER_111_613
*1568 FILLER_111_615
*1569 FILLER_111_617
*1570 FILLER_111_629
*1571 FILLER_111_641
*1572 FILLER_111_653
*1573 FILLER_111_665
*1574 FILLER_111_669
*1575 FILLER_111_671
*1576 FILLER_111_673
*1577 FILLER_111_685
*1578 FILLER_111_69
*1579 FILLER_111_697
*1580 FILLER_111_709
*1581 FILLER_111_721
*1582 FILLER_111_725
*1583 FILLER_111_727
*1584 FILLER_111_729
*1585 FILLER_111_741
*1586 FILLER_111_753
*1587 FILLER_111_765
*1588 FILLER_111_777
*1589 FILLER_111_781
*1590 FILLER_111_783
*1591 FILLER_111_785
*1592 FILLER_111_797
*1593 FILLER_111_809
*1594 FILLER_111_81
*1595 FILLER_111_821
*1596 FILLER_111_833
*1597 FILLER_111_837
*1598 FILLER_111_839
*1599 FILLER_111_841
*1600 FILLER_111_93
*1601 FILLER_112_109
*1602 FILLER_112_121
*1603 FILLER_112_133
*1604 FILLER_112_137
*1605 FILLER_112_139
*1606 FILLER_112_141
*1607 FILLER_112_15
*1608 FILLER_112_153
*1609 FILLER_112_165
*1610 FILLER_112_177
*1611 FILLER_112_189
*1612 FILLER_112_193
*1613 FILLER_112_195
*1614 FILLER_112_197
*1615 FILLER_112_209
*1616 FILLER_112_221
*1617 FILLER_112_233
*1618 FILLER_112_245
*1619 FILLER_112_249
*1620 FILLER_112_251
*1621 FILLER_112_253
*1622 FILLER_112_265
*1623 FILLER_112_27
*1624 FILLER_112_277
*1625 FILLER_112_289
*1626 FILLER_112_29
*1627 FILLER_112_3
*1628 FILLER_112_301
*1629 FILLER_112_305
*1630 FILLER_112_307
*1631 FILLER_112_309
*1632 FILLER_112_321
*1633 FILLER_112_333
*1634 FILLER_112_345
*1635 FILLER_112_357
*1636 FILLER_112_361
*1637 FILLER_112_363
*1638 FILLER_112_365
*1639 FILLER_112_377
*1640 FILLER_112_389
*1641 FILLER_112_401
*1642 FILLER_112_41
*1643 FILLER_112_413
*1644 FILLER_112_417
*1645 FILLER_112_419
*1646 FILLER_112_421
*1647 FILLER_112_433
*1648 FILLER_112_445
*1649 FILLER_112_457
*1650 FILLER_112_469
*1651 FILLER_112_473
*1652 FILLER_112_475
*1653 FILLER_112_477
*1654 FILLER_112_489
*1655 FILLER_112_501
*1656 FILLER_112_513
*1657 FILLER_112_525
*1658 FILLER_112_529
*1659 FILLER_112_53
*1660 FILLER_112_531
*1661 FILLER_112_533
*1662 FILLER_112_545
*1663 FILLER_112_557
*1664 FILLER_112_569
*1665 FILLER_112_581
*1666 FILLER_112_585
*1667 FILLER_112_587
*1668 FILLER_112_589
*1669 FILLER_112_601
*1670 FILLER_112_613
*1671 FILLER_112_625
*1672 FILLER_112_637
*1673 FILLER_112_641
*1674 FILLER_112_643
*1675 FILLER_112_645
*1676 FILLER_112_65
*1677 FILLER_112_657
*1678 FILLER_112_669
*1679 FILLER_112_681
*1680 FILLER_112_693
*1681 FILLER_112_697
*1682 FILLER_112_699
*1683 FILLER_112_701
*1684 FILLER_112_713
*1685 FILLER_112_725
*1686 FILLER_112_737
*1687 FILLER_112_749
*1688 FILLER_112_753
*1689 FILLER_112_755
*1690 FILLER_112_757
*1691 FILLER_112_769
*1692 FILLER_112_77
*1693 FILLER_112_781
*1694 FILLER_112_793
*1695 FILLER_112_805
*1696 FILLER_112_809
*1697 FILLER_112_81
*1698 FILLER_112_811
*1699 FILLER_112_813
*1700 FILLER_112_825
*1701 FILLER_112_83
*1702 FILLER_112_837
*1703 FILLER_112_841
*1704 FILLER_112_85
*1705 FILLER_112_97
*1706 FILLER_113_105
*1707 FILLER_113_109
*1708 FILLER_113_111
*1709 FILLER_113_113
*1710 FILLER_113_125
*1711 FILLER_113_137
*1712 FILLER_113_149
*1713 FILLER_113_15
*1714 FILLER_113_161
*1715 FILLER_113_165
*1716 FILLER_113_167
*1717 FILLER_113_169
*1718 FILLER_113_181
*1719 FILLER_113_193
*1720 FILLER_113_205
*1721 FILLER_113_217
*1722 FILLER_113_221
*1723 FILLER_113_223
*1724 FILLER_113_225
*1725 FILLER_113_237
*1726 FILLER_113_249
*1727 FILLER_113_261
*1728 FILLER_113_27
*1729 FILLER_113_273
*1730 FILLER_113_277
*1731 FILLER_113_279
*1732 FILLER_113_281
*1733 FILLER_113_293
*1734 FILLER_113_3
*1735 FILLER_113_305
*1736 FILLER_113_317
*1737 FILLER_113_329
*1738 FILLER_113_333
*1739 FILLER_113_335
*1740 FILLER_113_337
*1741 FILLER_113_349
*1742 FILLER_113_361
*1743 FILLER_113_373
*1744 FILLER_113_385
*1745 FILLER_113_389
*1746 FILLER_113_39
*1747 FILLER_113_391
*1748 FILLER_113_393
*1749 FILLER_113_405
*1750 FILLER_113_417
*1751 FILLER_113_429
*1752 FILLER_113_441
*1753 FILLER_113_445
*1754 FILLER_113_447
*1755 FILLER_113_449
*1756 FILLER_113_461
*1757 FILLER_113_473
*1758 FILLER_113_485
*1759 FILLER_113_497
*1760 FILLER_113_501
*1761 FILLER_113_503
*1762 FILLER_113_505
*1763 FILLER_113_51
*1764 FILLER_113_517
*1765 FILLER_113_529
*1766 FILLER_113_541
*1767 FILLER_113_55
*1768 FILLER_113_553
*1769 FILLER_113_557
*1770 FILLER_113_559
*1771 FILLER_113_561
*1772 FILLER_113_57
*1773 FILLER_113_573
*1774 FILLER_113_585
*1775 FILLER_113_597
*1776 FILLER_113_609
*1777 FILLER_113_613
*1778 FILLER_113_615
*1779 FILLER_113_617
*1780 FILLER_113_629
*1781 FILLER_113_641
*1782 FILLER_113_653
*1783 FILLER_113_665
*1784 FILLER_113_669
*1785 FILLER_113_671
*1786 FILLER_113_673
*1787 FILLER_113_685
*1788 FILLER_113_69
*1789 FILLER_113_697
*1790 FILLER_113_709
*1791 FILLER_113_721
*1792 FILLER_113_725
*1793 FILLER_113_727
*1794 FILLER_113_729
*1795 FILLER_113_741
*1796 FILLER_113_753
*1797 FILLER_113_765
*1798 FILLER_113_777
*1799 FILLER_113_781
*1800 FILLER_113_783
*1801 FILLER_113_785
*1802 FILLER_113_797
*1803 FILLER_113_809
*1804 FILLER_113_81
*1805 FILLER_113_821
*1806 FILLER_113_833
*1807 FILLER_113_837
*1808 FILLER_113_839
*1809 FILLER_113_841
*1810 FILLER_113_93
*1811 FILLER_114_109
*1812 FILLER_114_121
*1813 FILLER_114_133
*1814 FILLER_114_137
*1815 FILLER_114_139
*1816 FILLER_114_141
*1817 FILLER_114_15
*1818 FILLER_114_153
*1819 FILLER_114_165
*1820 FILLER_114_177
*1821 FILLER_114_189
*1822 FILLER_114_193
*1823 FILLER_114_195
*1824 FILLER_114_197
*1825 FILLER_114_209
*1826 FILLER_114_221
*1827 FILLER_114_233
*1828 FILLER_114_245
*1829 FILLER_114_249
*1830 FILLER_114_251
*1831 FILLER_114_253
*1832 FILLER_114_265
*1833 FILLER_114_27
*1834 FILLER_114_277
*1835 FILLER_114_289
*1836 FILLER_114_29
*1837 FILLER_114_3
*1838 FILLER_114_301
*1839 FILLER_114_305
*1840 FILLER_114_307
*1841 FILLER_114_309
*1842 FILLER_114_321
*1843 FILLER_114_333
*1844 FILLER_114_345
*1845 FILLER_114_357
*1846 FILLER_114_361
*1847 FILLER_114_363
*1848 FILLER_114_365
*1849 FILLER_114_377
*1850 FILLER_114_389
*1851 FILLER_114_401
*1852 FILLER_114_41
*1853 FILLER_114_413
*1854 FILLER_114_417
*1855 FILLER_114_419
*1856 FILLER_114_421
*1857 FILLER_114_433
*1858 FILLER_114_445
*1859 FILLER_114_457
*1860 FILLER_114_469
*1861 FILLER_114_473
*1862 FILLER_114_475
*1863 FILLER_114_477
*1864 FILLER_114_489
*1865 FILLER_114_501
*1866 FILLER_114_513
*1867 FILLER_114_525
*1868 FILLER_114_529
*1869 FILLER_114_53
*1870 FILLER_114_531
*1871 FILLER_114_533
*1872 FILLER_114_545
*1873 FILLER_114_557
*1874 FILLER_114_569
*1875 FILLER_114_581
*1876 FILLER_114_585
*1877 FILLER_114_587
*1878 FILLER_114_589
*1879 FILLER_114_601
*1880 FILLER_114_613
*1881 FILLER_114_625
*1882 FILLER_114_637
*1883 FILLER_114_641
*1884 FILLER_114_643
*1885 FILLER_114_645
*1886 FILLER_114_65
*1887 FILLER_114_657
*1888 FILLER_114_669
*1889 FILLER_114_681
*1890 FILLER_114_693
*1891 FILLER_114_697
*1892 FILLER_114_699
*1893 FILLER_114_701
*1894 FILLER_114_713
*1895 FILLER_114_725
*1896 FILLER_114_737
*1897 FILLER_114_749
*1898 FILLER_114_753
*1899 FILLER_114_755
*1900 FILLER_114_757
*1901 FILLER_114_769
*1902 FILLER_114_77
*1903 FILLER_114_781
*1904 FILLER_114_793
*1905 FILLER_114_805
*1906 FILLER_114_809
*1907 FILLER_114_81
*1908 FILLER_114_811
*1909 FILLER_114_813
*1910 FILLER_114_825
*1911 FILLER_114_83
*1912 FILLER_114_837
*1913 FILLER_114_841
*1914 FILLER_114_85
*1915 FILLER_114_97
*1916 FILLER_115_105
*1917 FILLER_115_109
*1918 FILLER_115_111
*1919 FILLER_115_113
*1920 FILLER_115_125
*1921 FILLER_115_137
*1922 FILLER_115_149
*1923 FILLER_115_15
*1924 FILLER_115_161
*1925 FILLER_115_165
*1926 FILLER_115_167
*1927 FILLER_115_169
*1928 FILLER_115_181
*1929 FILLER_115_193
*1930 FILLER_115_205
*1931 FILLER_115_217
*1932 FILLER_115_221
*1933 FILLER_115_223
*1934 FILLER_115_225
*1935 FILLER_115_237
*1936 FILLER_115_249
*1937 FILLER_115_261
*1938 FILLER_115_27
*1939 FILLER_115_273
*1940 FILLER_115_277
*1941 FILLER_115_279
*1942 FILLER_115_281
*1943 FILLER_115_293
*1944 FILLER_115_3
*1945 FILLER_115_305
*1946 FILLER_115_317
*1947 FILLER_115_329
*1948 FILLER_115_333
*1949 FILLER_115_335
*1950 FILLER_115_337
*1951 FILLER_115_349
*1952 FILLER_115_361
*1953 FILLER_115_373
*1954 FILLER_115_385
*1955 FILLER_115_389
*1956 FILLER_115_39
*1957 FILLER_115_391
*1958 FILLER_115_393
*1959 FILLER_115_405
*1960 FILLER_115_417
*1961 FILLER_115_429
*1962 FILLER_115_441
*1963 FILLER_115_445
*1964 FILLER_115_447
*1965 FILLER_115_449
*1966 FILLER_115_461
*1967 FILLER_115_473
*1968 FILLER_115_485
*1969 FILLER_115_497
*1970 FILLER_115_501
*1971 FILLER_115_503
*1972 FILLER_115_505
*1973 FILLER_115_51
*1974 FILLER_115_517
*1975 FILLER_115_529
*1976 FILLER_115_541
*1977 FILLER_115_55
*1978 FILLER_115_553
*1979 FILLER_115_557
*1980 FILLER_115_559
*1981 FILLER_115_561
*1982 FILLER_115_57
*1983 FILLER_115_573
*1984 FILLER_115_585
*1985 FILLER_115_597
*1986 FILLER_115_609
*1987 FILLER_115_613
*1988 FILLER_115_615
*1989 FILLER_115_617
*1990 FILLER_115_629
*1991 FILLER_115_641
*1992 FILLER_115_653
*1993 FILLER_115_665
*1994 FILLER_115_669
*1995 FILLER_115_671
*1996 FILLER_115_673
*1997 FILLER_115_685
*1998 FILLER_115_69
*1999 FILLER_115_697
*2000 FILLER_115_709
*2001 FILLER_115_721
*2002 FILLER_115_725
*2003 FILLER_115_727
*2004 FILLER_115_729
*2005 FILLER_115_741
*2006 FILLER_115_753
*2007 FILLER_115_765
*2008 FILLER_115_777
*2009 FILLER_115_781
*2010 FILLER_115_783
*2011 FILLER_115_785
*2012 FILLER_115_797
*2013 FILLER_115_809
*2014 FILLER_115_81
*2015 FILLER_115_821
*2016 FILLER_115_833
*2017 FILLER_115_837
*2018 FILLER_115_839
*2019 FILLER_115_841
*2020 FILLER_115_93
*2021 FILLER_116_109
*2022 FILLER_116_121
*2023 FILLER_116_133
*2024 FILLER_116_137
*2025 FILLER_116_139
*2026 FILLER_116_141
*2027 FILLER_116_15
*2028 FILLER_116_153
*2029 FILLER_116_165
*2030 FILLER_116_177
*2031 FILLER_116_189
*2032 FILLER_116_193
*2033 FILLER_116_195
*2034 FILLER_116_197
*2035 FILLER_116_209
*2036 FILLER_116_221
*2037 FILLER_116_233
*2038 FILLER_116_245
*2039 FILLER_116_249
*2040 FILLER_116_251
*2041 FILLER_116_253
*2042 FILLER_116_265
*2043 FILLER_116_27
*2044 FILLER_116_277
*2045 FILLER_116_289
*2046 FILLER_116_29
*2047 FILLER_116_3
*2048 FILLER_116_301
*2049 FILLER_116_305
*2050 FILLER_116_307
*2051 FILLER_116_309
*2052 FILLER_116_321
*2053 FILLER_116_333
*2054 FILLER_116_345
*2055 FILLER_116_357
*2056 FILLER_116_361
*2057 FILLER_116_363
*2058 FILLER_116_365
*2059 FILLER_116_377
*2060 FILLER_116_389
*2061 FILLER_116_401
*2062 FILLER_116_41
*2063 FILLER_116_413
*2064 FILLER_116_417
*2065 FILLER_116_419
*2066 FILLER_116_421
*2067 FILLER_116_433
*2068 FILLER_116_445
*2069 FILLER_116_457
*2070 FILLER_116_469
*2071 FILLER_116_473
*2072 FILLER_116_475
*2073 FILLER_116_477
*2074 FILLER_116_489
*2075 FILLER_116_501
*2076 FILLER_116_513
*2077 FILLER_116_525
*2078 FILLER_116_529
*2079 FILLER_116_53
*2080 FILLER_116_531
*2081 FILLER_116_533
*2082 FILLER_116_545
*2083 FILLER_116_557
*2084 FILLER_116_569
*2085 FILLER_116_581
*2086 FILLER_116_585
*2087 FILLER_116_587
*2088 FILLER_116_589
*2089 FILLER_116_601
*2090 FILLER_116_613
*2091 FILLER_116_625
*2092 FILLER_116_637
*2093 FILLER_116_641
*2094 FILLER_116_643
*2095 FILLER_116_645
*2096 FILLER_116_65
*2097 FILLER_116_657
*2098 FILLER_116_669
*2099 FILLER_116_681
*2100 FILLER_116_693
*2101 FILLER_116_697
*2102 FILLER_116_699
*2103 FILLER_116_701
*2104 FILLER_116_713
*2105 FILLER_116_725
*2106 FILLER_116_737
*2107 FILLER_116_749
*2108 FILLER_116_753
*2109 FILLER_116_755
*2110 FILLER_116_757
*2111 FILLER_116_769
*2112 FILLER_116_77
*2113 FILLER_116_781
*2114 FILLER_116_793
*2115 FILLER_116_805
*2116 FILLER_116_809
*2117 FILLER_116_81
*2118 FILLER_116_811
*2119 FILLER_116_813
*2120 FILLER_116_825
*2121 FILLER_116_83
*2122 FILLER_116_837
*2123 FILLER_116_841
*2124 FILLER_116_85
*2125 FILLER_116_97
*2126 FILLER_117_105
*2127 FILLER_117_109
*2128 FILLER_117_111
*2129 FILLER_117_113
*2130 FILLER_117_125
*2131 FILLER_117_137
*2132 FILLER_117_149
*2133 FILLER_117_15
*2134 FILLER_117_161
*2135 FILLER_117_165
*2136 FILLER_117_167
*2137 FILLER_117_169
*2138 FILLER_117_181
*2139 FILLER_117_193
*2140 FILLER_117_205
*2141 FILLER_117_217
*2142 FILLER_117_221
*2143 FILLER_117_223
*2144 FILLER_117_225
*2145 FILLER_117_237
*2146 FILLER_117_249
*2147 FILLER_117_261
*2148 FILLER_117_27
*2149 FILLER_117_273
*2150 FILLER_117_277
*2151 FILLER_117_279
*2152 FILLER_117_281
*2153 FILLER_117_293
*2154 FILLER_117_3
*2155 FILLER_117_305
*2156 FILLER_117_317
*2157 FILLER_117_329
*2158 FILLER_117_333
*2159 FILLER_117_335
*2160 FILLER_117_337
*2161 FILLER_117_349
*2162 FILLER_117_361
*2163 FILLER_117_373
*2164 FILLER_117_385
*2165 FILLER_117_389
*2166 FILLER_117_39
*2167 FILLER_117_391
*2168 FILLER_117_393
*2169 FILLER_117_405
*2170 FILLER_117_417
*2171 FILLER_117_429
*2172 FILLER_117_441
*2173 FILLER_117_445
*2174 FILLER_117_447
*2175 FILLER_117_449
*2176 FILLER_117_461
*2177 FILLER_117_473
*2178 FILLER_117_485
*2179 FILLER_117_497
*2180 FILLER_117_501
*2181 FILLER_117_503
*2182 FILLER_117_505
*2183 FILLER_117_51
*2184 FILLER_117_517
*2185 FILLER_117_529
*2186 FILLER_117_541
*2187 FILLER_117_55
*2188 FILLER_117_553
*2189 FILLER_117_557
*2190 FILLER_117_559
*2191 FILLER_117_561
*2192 FILLER_117_57
*2193 FILLER_117_573
*2194 FILLER_117_585
*2195 FILLER_117_597
*2196 FILLER_117_609
*2197 FILLER_117_613
*2198 FILLER_117_615
*2199 FILLER_117_617
*2200 FILLER_117_629
*2201 FILLER_117_641
*2202 FILLER_117_653
*2203 FILLER_117_665
*2204 FILLER_117_669
*2205 FILLER_117_671
*2206 FILLER_117_673
*2207 FILLER_117_685
*2208 FILLER_117_69
*2209 FILLER_117_697
*2210 FILLER_117_709
*2211 FILLER_117_721
*2212 FILLER_117_725
*2213 FILLER_117_727
*2214 FILLER_117_729
*2215 FILLER_117_741
*2216 FILLER_117_753
*2217 FILLER_117_765
*2218 FILLER_117_777
*2219 FILLER_117_781
*2220 FILLER_117_783
*2221 FILLER_117_785
*2222 FILLER_117_797
*2223 FILLER_117_809
*2224 FILLER_117_81
*2225 FILLER_117_821
*2226 FILLER_117_833
*2227 FILLER_117_837
*2228 FILLER_117_839
*2229 FILLER_117_841
*2230 FILLER_117_93
*2231 FILLER_118_109
*2232 FILLER_118_121
*2233 FILLER_118_133
*2234 FILLER_118_137
*2235 FILLER_118_139
*2236 FILLER_118_141
*2237 FILLER_118_15
*2238 FILLER_118_153
*2239 FILLER_118_165
*2240 FILLER_118_177
*2241 FILLER_118_189
*2242 FILLER_118_193
*2243 FILLER_118_195
*2244 FILLER_118_197
*2245 FILLER_118_209
*2246 FILLER_118_221
*2247 FILLER_118_233
*2248 FILLER_118_245
*2249 FILLER_118_249
*2250 FILLER_118_251
*2251 FILLER_118_253
*2252 FILLER_118_265
*2253 FILLER_118_27
*2254 FILLER_118_277
*2255 FILLER_118_289
*2256 FILLER_118_29
*2257 FILLER_118_3
*2258 FILLER_118_301
*2259 FILLER_118_305
*2260 FILLER_118_307
*2261 FILLER_118_309
*2262 FILLER_118_321
*2263 FILLER_118_333
*2264 FILLER_118_345
*2265 FILLER_118_357
*2266 FILLER_118_361
*2267 FILLER_118_363
*2268 FILLER_118_365
*2269 FILLER_118_377
*2270 FILLER_118_389
*2271 FILLER_118_401
*2272 FILLER_118_41
*2273 FILLER_118_413
*2274 FILLER_118_417
*2275 FILLER_118_419
*2276 FILLER_118_421
*2277 FILLER_118_433
*2278 FILLER_118_445
*2279 FILLER_118_457
*2280 FILLER_118_469
*2281 FILLER_118_473
*2282 FILLER_118_475
*2283 FILLER_118_477
*2284 FILLER_118_489
*2285 FILLER_118_501
*2286 FILLER_118_513
*2287 FILLER_118_525
*2288 FILLER_118_529
*2289 FILLER_118_53
*2290 FILLER_118_531
*2291 FILLER_118_533
*2292 FILLER_118_545
*2293 FILLER_118_557
*2294 FILLER_118_569
*2295 FILLER_118_581
*2296 FILLER_118_585
*2297 FILLER_118_587
*2298 FILLER_118_589
*2299 FILLER_118_601
*2300 FILLER_118_613
*2301 FILLER_118_625
*2302 FILLER_118_637
*2303 FILLER_118_641
*2304 FILLER_118_643
*2305 FILLER_118_645
*2306 FILLER_118_65
*2307 FILLER_118_657
*2308 FILLER_118_669
*2309 FILLER_118_681
*2310 FILLER_118_693
*2311 FILLER_118_697
*2312 FILLER_118_699
*2313 FILLER_118_701
*2314 FILLER_118_713
*2315 FILLER_118_725
*2316 FILLER_118_737
*2317 FILLER_118_749
*2318 FILLER_118_753
*2319 FILLER_118_755
*2320 FILLER_118_757
*2321 FILLER_118_769
*2322 FILLER_118_77
*2323 FILLER_118_781
*2324 FILLER_118_793
*2325 FILLER_118_805
*2326 FILLER_118_809
*2327 FILLER_118_81
*2328 FILLER_118_811
*2329 FILLER_118_813
*2330 FILLER_118_825
*2331 FILLER_118_83
*2332 FILLER_118_837
*2333 FILLER_118_841
*2334 FILLER_118_85
*2335 FILLER_118_97
*2336 FILLER_119_105
*2337 FILLER_119_109
*2338 FILLER_119_111
*2339 FILLER_119_113
*2340 FILLER_119_125
*2341 FILLER_119_137
*2342 FILLER_119_149
*2343 FILLER_119_15
*2344 FILLER_119_161
*2345 FILLER_119_165
*2346 FILLER_119_167
*2347 FILLER_119_169
*2348 FILLER_119_181
*2349 FILLER_119_193
*2350 FILLER_119_205
*2351 FILLER_119_217
*2352 FILLER_119_221
*2353 FILLER_119_223
*2354 FILLER_119_225
*2355 FILLER_119_237
*2356 FILLER_119_249
*2357 FILLER_119_261
*2358 FILLER_119_27
*2359 FILLER_119_273
*2360 FILLER_119_277
*2361 FILLER_119_279
*2362 FILLER_119_281
*2363 FILLER_119_293
*2364 FILLER_119_3
*2365 FILLER_119_305
*2366 FILLER_119_317
*2367 FILLER_119_329
*2368 FILLER_119_333
*2369 FILLER_119_335
*2370 FILLER_119_337
*2371 FILLER_119_349
*2372 FILLER_119_361
*2373 FILLER_119_373
*2374 FILLER_119_385
*2375 FILLER_119_389
*2376 FILLER_119_39
*2377 FILLER_119_391
*2378 FILLER_119_393
*2379 FILLER_119_405
*2380 FILLER_119_417
*2381 FILLER_119_429
*2382 FILLER_119_441
*2383 FILLER_119_445
*2384 FILLER_119_447
*2385 FILLER_119_449
*2386 FILLER_119_461
*2387 FILLER_119_473
*2388 FILLER_119_485
*2389 FILLER_119_497
*2390 FILLER_119_501
*2391 FILLER_119_503
*2392 FILLER_119_505
*2393 FILLER_119_51
*2394 FILLER_119_517
*2395 FILLER_119_529
*2396 FILLER_119_541
*2397 FILLER_119_55
*2398 FILLER_119_553
*2399 FILLER_119_557
*2400 FILLER_119_559
*2401 FILLER_119_561
*2402 FILLER_119_57
*2403 FILLER_119_573
*2404 FILLER_119_585
*2405 FILLER_119_597
*2406 FILLER_119_609
*2407 FILLER_119_613
*2408 FILLER_119_615
*2409 FILLER_119_617
*2410 FILLER_119_629
*2411 FILLER_119_641
*2412 FILLER_119_653
*2413 FILLER_119_665
*2414 FILLER_119_669
*2415 FILLER_119_671
*2416 FILLER_119_673
*2417 FILLER_119_685
*2418 FILLER_119_69
*2419 FILLER_119_697
*2420 FILLER_119_709
*2421 FILLER_119_721
*2422 FILLER_119_725
*2423 FILLER_119_727
*2424 FILLER_119_729
*2425 FILLER_119_741
*2426 FILLER_119_753
*2427 FILLER_119_765
*2428 FILLER_119_777
*2429 FILLER_119_781
*2430 FILLER_119_783
*2431 FILLER_119_785
*2432 FILLER_119_797
*2433 FILLER_119_809
*2434 FILLER_119_81
*2435 FILLER_119_821
*2436 FILLER_119_833
*2437 FILLER_119_837
*2438 FILLER_119_839
*2439 FILLER_119_841
*2440 FILLER_119_93
*2441 FILLER_11_105
*2442 FILLER_11_109
*2443 FILLER_11_111
*2444 FILLER_11_113
*2445 FILLER_11_125
*2446 FILLER_11_137
*2447 FILLER_11_149
*2448 FILLER_11_15
*2449 FILLER_11_161
*2450 FILLER_11_165
*2451 FILLER_11_167
*2452 FILLER_11_169
*2453 FILLER_11_181
*2454 FILLER_11_193
*2455 FILLER_11_205
*2456 FILLER_11_217
*2457 FILLER_11_221
*2458 FILLER_11_223
*2459 FILLER_11_225
*2460 FILLER_11_237
*2461 FILLER_11_249
*2462 FILLER_11_261
*2463 FILLER_11_27
*2464 FILLER_11_273
*2465 FILLER_11_277
*2466 FILLER_11_279
*2467 FILLER_11_281
*2468 FILLER_11_293
*2469 FILLER_11_3
*2470 FILLER_11_305
*2471 FILLER_11_317
*2472 FILLER_11_329
*2473 FILLER_11_333
*2474 FILLER_11_335
*2475 FILLER_11_337
*2476 FILLER_11_349
*2477 FILLER_11_361
*2478 FILLER_11_373
*2479 FILLER_11_385
*2480 FILLER_11_389
*2481 FILLER_11_39
*2482 FILLER_11_391
*2483 FILLER_11_393
*2484 FILLER_11_405
*2485 FILLER_11_417
*2486 FILLER_11_429
*2487 FILLER_11_441
*2488 FILLER_11_445
*2489 FILLER_11_447
*2490 FILLER_11_449
*2491 FILLER_11_461
*2492 FILLER_11_473
*2493 FILLER_11_485
*2494 FILLER_11_497
*2495 FILLER_11_501
*2496 FILLER_11_503
*2497 FILLER_11_505
*2498 FILLER_11_51
*2499 FILLER_11_517
*2500 FILLER_11_529
*2501 FILLER_11_541
*2502 FILLER_11_55
*2503 FILLER_11_553
*2504 FILLER_11_557
*2505 FILLER_11_559
*2506 FILLER_11_561
*2507 FILLER_11_57
*2508 FILLER_11_573
*2509 FILLER_11_585
*2510 FILLER_11_597
*2511 FILLER_11_609
*2512 FILLER_11_613
*2513 FILLER_11_615
*2514 FILLER_11_617
*2515 FILLER_11_629
*2516 FILLER_11_641
*2517 FILLER_11_653
*2518 FILLER_11_665
*2519 FILLER_11_669
*2520 FILLER_11_671
*2521 FILLER_11_673
*2522 FILLER_11_685
*2523 FILLER_11_69
*2524 FILLER_11_697
*2525 FILLER_11_709
*2526 FILLER_11_721
*2527 FILLER_11_725
*2528 FILLER_11_727
*2529 FILLER_11_729
*2530 FILLER_11_741
*2531 FILLER_11_753
*2532 FILLER_11_765
*2533 FILLER_11_777
*2534 FILLER_11_781
*2535 FILLER_11_783
*2536 FILLER_11_785
*2537 FILLER_11_797
*2538 FILLER_11_809
*2539 FILLER_11_81
*2540 FILLER_11_821
*2541 FILLER_11_833
*2542 FILLER_11_837
*2543 FILLER_11_839
*2544 FILLER_11_841
*2545 FILLER_11_93
*2546 FILLER_120_109
*2547 FILLER_120_121
*2548 FILLER_120_133
*2549 FILLER_120_137
*2550 FILLER_120_139
*2551 FILLER_120_141
*2552 FILLER_120_15
*2553 FILLER_120_153
*2554 FILLER_120_165
*2555 FILLER_120_177
*2556 FILLER_120_189
*2557 FILLER_120_193
*2558 FILLER_120_195
*2559 FILLER_120_197
*2560 FILLER_120_209
*2561 FILLER_120_221
*2562 FILLER_120_233
*2563 FILLER_120_245
*2564 FILLER_120_249
*2565 FILLER_120_251
*2566 FILLER_120_253
*2567 FILLER_120_265
*2568 FILLER_120_27
*2569 FILLER_120_277
*2570 FILLER_120_289
*2571 FILLER_120_29
*2572 FILLER_120_3
*2573 FILLER_120_301
*2574 FILLER_120_305
*2575 FILLER_120_307
*2576 FILLER_120_309
*2577 FILLER_120_321
*2578 FILLER_120_333
*2579 FILLER_120_345
*2580 FILLER_120_357
*2581 FILLER_120_361
*2582 FILLER_120_363
*2583 FILLER_120_365
*2584 FILLER_120_377
*2585 FILLER_120_389
*2586 FILLER_120_401
*2587 FILLER_120_41
*2588 FILLER_120_413
*2589 FILLER_120_417
*2590 FILLER_120_419
*2591 FILLER_120_421
*2592 FILLER_120_433
*2593 FILLER_120_445
*2594 FILLER_120_457
*2595 FILLER_120_469
*2596 FILLER_120_473
*2597 FILLER_120_475
*2598 FILLER_120_477
*2599 FILLER_120_489
*2600 FILLER_120_501
*2601 FILLER_120_513
*2602 FILLER_120_525
*2603 FILLER_120_529
*2604 FILLER_120_53
*2605 FILLER_120_531
*2606 FILLER_120_533
*2607 FILLER_120_545
*2608 FILLER_120_557
*2609 FILLER_120_569
*2610 FILLER_120_581
*2611 FILLER_120_585
*2612 FILLER_120_587
*2613 FILLER_120_589
*2614 FILLER_120_601
*2615 FILLER_120_613
*2616 FILLER_120_625
*2617 FILLER_120_637
*2618 FILLER_120_641
*2619 FILLER_120_643
*2620 FILLER_120_645
*2621 FILLER_120_65
*2622 FILLER_120_657
*2623 FILLER_120_669
*2624 FILLER_120_681
*2625 FILLER_120_693
*2626 FILLER_120_697
*2627 FILLER_120_699
*2628 FILLER_120_701
*2629 FILLER_120_713
*2630 FILLER_120_725
*2631 FILLER_120_737
*2632 FILLER_120_749
*2633 FILLER_120_753
*2634 FILLER_120_755
*2635 FILLER_120_757
*2636 FILLER_120_769
*2637 FILLER_120_77
*2638 FILLER_120_781
*2639 FILLER_120_793
*2640 FILLER_120_805
*2641 FILLER_120_809
*2642 FILLER_120_81
*2643 FILLER_120_811
*2644 FILLER_120_813
*2645 FILLER_120_825
*2646 FILLER_120_83
*2647 FILLER_120_837
*2648 FILLER_120_841
*2649 FILLER_120_85
*2650 FILLER_120_97
*2651 FILLER_121_105
*2652 FILLER_121_109
*2653 FILLER_121_111
*2654 FILLER_121_113
*2655 FILLER_121_125
*2656 FILLER_121_137
*2657 FILLER_121_149
*2658 FILLER_121_15
*2659 FILLER_121_161
*2660 FILLER_121_165
*2661 FILLER_121_167
*2662 FILLER_121_169
*2663 FILLER_121_181
*2664 FILLER_121_193
*2665 FILLER_121_205
*2666 FILLER_121_217
*2667 FILLER_121_221
*2668 FILLER_121_223
*2669 FILLER_121_225
*2670 FILLER_121_237
*2671 FILLER_121_249
*2672 FILLER_121_261
*2673 FILLER_121_27
*2674 FILLER_121_273
*2675 FILLER_121_277
*2676 FILLER_121_279
*2677 FILLER_121_281
*2678 FILLER_121_293
*2679 FILLER_121_3
*2680 FILLER_121_305
*2681 FILLER_121_317
*2682 FILLER_121_329
*2683 FILLER_121_333
*2684 FILLER_121_335
*2685 FILLER_121_337
*2686 FILLER_121_349
*2687 FILLER_121_361
*2688 FILLER_121_373
*2689 FILLER_121_385
*2690 FILLER_121_389
*2691 FILLER_121_39
*2692 FILLER_121_391
*2693 FILLER_121_393
*2694 FILLER_121_405
*2695 FILLER_121_417
*2696 FILLER_121_429
*2697 FILLER_121_441
*2698 FILLER_121_445
*2699 FILLER_121_447
*2700 FILLER_121_449
*2701 FILLER_121_461
*2702 FILLER_121_473
*2703 FILLER_121_485
*2704 FILLER_121_497
*2705 FILLER_121_501
*2706 FILLER_121_503
*2707 FILLER_121_505
*2708 FILLER_121_51
*2709 FILLER_121_517
*2710 FILLER_121_529
*2711 FILLER_121_541
*2712 FILLER_121_55
*2713 FILLER_121_553
*2714 FILLER_121_557
*2715 FILLER_121_559
*2716 FILLER_121_561
*2717 FILLER_121_57
*2718 FILLER_121_573
*2719 FILLER_121_585
*2720 FILLER_121_597
*2721 FILLER_121_609
*2722 FILLER_121_613
*2723 FILLER_121_615
*2724 FILLER_121_617
*2725 FILLER_121_629
*2726 FILLER_121_641
*2727 FILLER_121_653
*2728 FILLER_121_665
*2729 FILLER_121_669
*2730 FILLER_121_671
*2731 FILLER_121_673
*2732 FILLER_121_685
*2733 FILLER_121_69
*2734 FILLER_121_697
*2735 FILLER_121_709
*2736 FILLER_121_721
*2737 FILLER_121_725
*2738 FILLER_121_727
*2739 FILLER_121_729
*2740 FILLER_121_741
*2741 FILLER_121_753
*2742 FILLER_121_765
*2743 FILLER_121_777
*2744 FILLER_121_781
*2745 FILLER_121_783
*2746 FILLER_121_785
*2747 FILLER_121_797
*2748 FILLER_121_809
*2749 FILLER_121_81
*2750 FILLER_121_821
*2751 FILLER_121_833
*2752 FILLER_121_837
*2753 FILLER_121_839
*2754 FILLER_121_841
*2755 FILLER_121_93
*2756 FILLER_122_109
*2757 FILLER_122_121
*2758 FILLER_122_133
*2759 FILLER_122_137
*2760 FILLER_122_139
*2761 FILLER_122_141
*2762 FILLER_122_15
*2763 FILLER_122_153
*2764 FILLER_122_165
*2765 FILLER_122_177
*2766 FILLER_122_189
*2767 FILLER_122_193
*2768 FILLER_122_195
*2769 FILLER_122_197
*2770 FILLER_122_209
*2771 FILLER_122_221
*2772 FILLER_122_233
*2773 FILLER_122_245
*2774 FILLER_122_249
*2775 FILLER_122_251
*2776 FILLER_122_253
*2777 FILLER_122_265
*2778 FILLER_122_27
*2779 FILLER_122_277
*2780 FILLER_122_289
*2781 FILLER_122_29
*2782 FILLER_122_3
*2783 FILLER_122_301
*2784 FILLER_122_305
*2785 FILLER_122_307
*2786 FILLER_122_309
*2787 FILLER_122_321
*2788 FILLER_122_333
*2789 FILLER_122_345
*2790 FILLER_122_357
*2791 FILLER_122_361
*2792 FILLER_122_363
*2793 FILLER_122_365
*2794 FILLER_122_377
*2795 FILLER_122_389
*2796 FILLER_122_401
*2797 FILLER_122_41
*2798 FILLER_122_413
*2799 FILLER_122_417
*2800 FILLER_122_419
*2801 FILLER_122_421
*2802 FILLER_122_433
*2803 FILLER_122_445
*2804 FILLER_122_457
*2805 FILLER_122_469
*2806 FILLER_122_473
*2807 FILLER_122_475
*2808 FILLER_122_477
*2809 FILLER_122_489
*2810 FILLER_122_501
*2811 FILLER_122_513
*2812 FILLER_122_525
*2813 FILLER_122_529
*2814 FILLER_122_53
*2815 FILLER_122_531
*2816 FILLER_122_533
*2817 FILLER_122_545
*2818 FILLER_122_557
*2819 FILLER_122_569
*2820 FILLER_122_581
*2821 FILLER_122_585
*2822 FILLER_122_587
*2823 FILLER_122_589
*2824 FILLER_122_601
*2825 FILLER_122_613
*2826 FILLER_122_625
*2827 FILLER_122_637
*2828 FILLER_122_641
*2829 FILLER_122_643
*2830 FILLER_122_645
*2831 FILLER_122_65
*2832 FILLER_122_657
*2833 FILLER_122_669
*2834 FILLER_122_681
*2835 FILLER_122_693
*2836 FILLER_122_697
*2837 FILLER_122_699
*2838 FILLER_122_701
*2839 FILLER_122_713
*2840 FILLER_122_725
*2841 FILLER_122_737
*2842 FILLER_122_749
*2843 FILLER_122_753
*2844 FILLER_122_755
*2845 FILLER_122_757
*2846 FILLER_122_769
*2847 FILLER_122_77
*2848 FILLER_122_781
*2849 FILLER_122_793
*2850 FILLER_122_805
*2851 FILLER_122_809
*2852 FILLER_122_81
*2853 FILLER_122_811
*2854 FILLER_122_813
*2855 FILLER_122_825
*2856 FILLER_122_83
*2857 FILLER_122_837
*2858 FILLER_122_841
*2859 FILLER_122_85
*2860 FILLER_122_97
*2861 FILLER_123_105
*2862 FILLER_123_109
*2863 FILLER_123_111
*2864 FILLER_123_113
*2865 FILLER_123_125
*2866 FILLER_123_137
*2867 FILLER_123_149
*2868 FILLER_123_15
*2869 FILLER_123_161
*2870 FILLER_123_165
*2871 FILLER_123_167
*2872 FILLER_123_169
*2873 FILLER_123_181
*2874 FILLER_123_193
*2875 FILLER_123_205
*2876 FILLER_123_217
*2877 FILLER_123_221
*2878 FILLER_123_223
*2879 FILLER_123_225
*2880 FILLER_123_237
*2881 FILLER_123_249
*2882 FILLER_123_261
*2883 FILLER_123_27
*2884 FILLER_123_273
*2885 FILLER_123_277
*2886 FILLER_123_279
*2887 FILLER_123_281
*2888 FILLER_123_293
*2889 FILLER_123_3
*2890 FILLER_123_305
*2891 FILLER_123_317
*2892 FILLER_123_329
*2893 FILLER_123_333
*2894 FILLER_123_335
*2895 FILLER_123_337
*2896 FILLER_123_349
*2897 FILLER_123_361
*2898 FILLER_123_373
*2899 FILLER_123_385
*2900 FILLER_123_389
*2901 FILLER_123_39
*2902 FILLER_123_391
*2903 FILLER_123_393
*2904 FILLER_123_405
*2905 FILLER_123_417
*2906 FILLER_123_429
*2907 FILLER_123_441
*2908 FILLER_123_445
*2909 FILLER_123_447
*2910 FILLER_123_449
*2911 FILLER_123_461
*2912 FILLER_123_473
*2913 FILLER_123_485
*2914 FILLER_123_497
*2915 FILLER_123_501
*2916 FILLER_123_503
*2917 FILLER_123_505
*2918 FILLER_123_51
*2919 FILLER_123_517
*2920 FILLER_123_529
*2921 FILLER_123_541
*2922 FILLER_123_55
*2923 FILLER_123_553
*2924 FILLER_123_557
*2925 FILLER_123_559
*2926 FILLER_123_561
*2927 FILLER_123_57
*2928 FILLER_123_573
*2929 FILLER_123_585
*2930 FILLER_123_597
*2931 FILLER_123_609
*2932 FILLER_123_613
*2933 FILLER_123_615
*2934 FILLER_123_617
*2935 FILLER_123_629
*2936 FILLER_123_641
*2937 FILLER_123_653
*2938 FILLER_123_665
*2939 FILLER_123_669
*2940 FILLER_123_671
*2941 FILLER_123_673
*2942 FILLER_123_685
*2943 FILLER_123_69
*2944 FILLER_123_697
*2945 FILLER_123_709
*2946 FILLER_123_721
*2947 FILLER_123_725
*2948 FILLER_123_727
*2949 FILLER_123_729
*2950 FILLER_123_741
*2951 FILLER_123_753
*2952 FILLER_123_765
*2953 FILLER_123_777
*2954 FILLER_123_781
*2955 FILLER_123_783
*2956 FILLER_123_785
*2957 FILLER_123_797
*2958 FILLER_123_809
*2959 FILLER_123_81
*2960 FILLER_123_821
*2961 FILLER_123_833
*2962 FILLER_123_837
*2963 FILLER_123_839
*2964 FILLER_123_841
*2965 FILLER_123_93
*2966 FILLER_124_109
*2967 FILLER_124_121
*2968 FILLER_124_133
*2969 FILLER_124_137
*2970 FILLER_124_139
*2971 FILLER_124_141
*2972 FILLER_124_15
*2973 FILLER_124_153
*2974 FILLER_124_165
*2975 FILLER_124_177
*2976 FILLER_124_189
*2977 FILLER_124_193
*2978 FILLER_124_195
*2979 FILLER_124_197
*2980 FILLER_124_209
*2981 FILLER_124_221
*2982 FILLER_124_233
*2983 FILLER_124_245
*2984 FILLER_124_249
*2985 FILLER_124_251
*2986 FILLER_124_253
*2987 FILLER_124_265
*2988 FILLER_124_27
*2989 FILLER_124_277
*2990 FILLER_124_289
*2991 FILLER_124_29
*2992 FILLER_124_3
*2993 FILLER_124_301
*2994 FILLER_124_305
*2995 FILLER_124_307
*2996 FILLER_124_309
*2997 FILLER_124_321
*2998 FILLER_124_333
*2999 FILLER_124_345
*3000 FILLER_124_357
*3001 FILLER_124_361
*3002 FILLER_124_363
*3003 FILLER_124_365
*3004 FILLER_124_377
*3005 FILLER_124_389
*3006 FILLER_124_401
*3007 FILLER_124_41
*3008 FILLER_124_413
*3009 FILLER_124_417
*3010 FILLER_124_419
*3011 FILLER_124_421
*3012 FILLER_124_433
*3013 FILLER_124_445
*3014 FILLER_124_457
*3015 FILLER_124_469
*3016 FILLER_124_473
*3017 FILLER_124_475
*3018 FILLER_124_477
*3019 FILLER_124_489
*3020 FILLER_124_501
*3021 FILLER_124_513
*3022 FILLER_124_525
*3023 FILLER_124_529
*3024 FILLER_124_53
*3025 FILLER_124_531
*3026 FILLER_124_533
*3027 FILLER_124_545
*3028 FILLER_124_557
*3029 FILLER_124_569
*3030 FILLER_124_581
*3031 FILLER_124_585
*3032 FILLER_124_587
*3033 FILLER_124_589
*3034 FILLER_124_601
*3035 FILLER_124_613
*3036 FILLER_124_625
*3037 FILLER_124_637
*3038 FILLER_124_641
*3039 FILLER_124_643
*3040 FILLER_124_645
*3041 FILLER_124_65
*3042 FILLER_124_657
*3043 FILLER_124_669
*3044 FILLER_124_681
*3045 FILLER_124_693
*3046 FILLER_124_697
*3047 FILLER_124_699
*3048 FILLER_124_701
*3049 FILLER_124_713
*3050 FILLER_124_725
*3051 FILLER_124_737
*3052 FILLER_124_749
*3053 FILLER_124_753
*3054 FILLER_124_755
*3055 FILLER_124_757
*3056 FILLER_124_769
*3057 FILLER_124_77
*3058 FILLER_124_781
*3059 FILLER_124_793
*3060 FILLER_124_805
*3061 FILLER_124_809
*3062 FILLER_124_81
*3063 FILLER_124_811
*3064 FILLER_124_813
*3065 FILLER_124_825
*3066 FILLER_124_83
*3067 FILLER_124_837
*3068 FILLER_124_841
*3069 FILLER_124_85
*3070 FILLER_124_97
*3071 FILLER_125_105
*3072 FILLER_125_109
*3073 FILLER_125_111
*3074 FILLER_125_113
*3075 FILLER_125_125
*3076 FILLER_125_137
*3077 FILLER_125_149
*3078 FILLER_125_15
*3079 FILLER_125_161
*3080 FILLER_125_165
*3081 FILLER_125_167
*3082 FILLER_125_169
*3083 FILLER_125_181
*3084 FILLER_125_193
*3085 FILLER_125_205
*3086 FILLER_125_217
*3087 FILLER_125_221
*3088 FILLER_125_223
*3089 FILLER_125_225
*3090 FILLER_125_237
*3091 FILLER_125_249
*3092 FILLER_125_261
*3093 FILLER_125_27
*3094 FILLER_125_273
*3095 FILLER_125_277
*3096 FILLER_125_279
*3097 FILLER_125_281
*3098 FILLER_125_293
*3099 FILLER_125_3
*3100 FILLER_125_305
*3101 FILLER_125_317
*3102 FILLER_125_329
*3103 FILLER_125_333
*3104 FILLER_125_335
*3105 FILLER_125_337
*3106 FILLER_125_349
*3107 FILLER_125_361
*3108 FILLER_125_373
*3109 FILLER_125_385
*3110 FILLER_125_389
*3111 FILLER_125_39
*3112 FILLER_125_391
*3113 FILLER_125_393
*3114 FILLER_125_405
*3115 FILLER_125_417
*3116 FILLER_125_429
*3117 FILLER_125_441
*3118 FILLER_125_445
*3119 FILLER_125_447
*3120 FILLER_125_449
*3121 FILLER_125_461
*3122 FILLER_125_473
*3123 FILLER_125_485
*3124 FILLER_125_497
*3125 FILLER_125_501
*3126 FILLER_125_503
*3127 FILLER_125_505
*3128 FILLER_125_51
*3129 FILLER_125_517
*3130 FILLER_125_529
*3131 FILLER_125_541
*3132 FILLER_125_55
*3133 FILLER_125_553
*3134 FILLER_125_557
*3135 FILLER_125_559
*3136 FILLER_125_561
*3137 FILLER_125_57
*3138 FILLER_125_573
*3139 FILLER_125_585
*3140 FILLER_125_597
*3141 FILLER_125_609
*3142 FILLER_125_613
*3143 FILLER_125_615
*3144 FILLER_125_617
*3145 FILLER_125_629
*3146 FILLER_125_641
*3147 FILLER_125_653
*3148 FILLER_125_665
*3149 FILLER_125_669
*3150 FILLER_125_671
*3151 FILLER_125_673
*3152 FILLER_125_685
*3153 FILLER_125_69
*3154 FILLER_125_697
*3155 FILLER_125_709
*3156 FILLER_125_721
*3157 FILLER_125_725
*3158 FILLER_125_727
*3159 FILLER_125_729
*3160 FILLER_125_741
*3161 FILLER_125_753
*3162 FILLER_125_765
*3163 FILLER_125_777
*3164 FILLER_125_781
*3165 FILLER_125_783
*3166 FILLER_125_785
*3167 FILLER_125_797
*3168 FILLER_125_809
*3169 FILLER_125_81
*3170 FILLER_125_821
*3171 FILLER_125_833
*3172 FILLER_125_837
*3173 FILLER_125_839
*3174 FILLER_125_841
*3175 FILLER_125_93
*3176 FILLER_126_109
*3177 FILLER_126_121
*3178 FILLER_126_133
*3179 FILLER_126_137
*3180 FILLER_126_139
*3181 FILLER_126_141
*3182 FILLER_126_15
*3183 FILLER_126_153
*3184 FILLER_126_165
*3185 FILLER_126_177
*3186 FILLER_126_189
*3187 FILLER_126_193
*3188 FILLER_126_195
*3189 FILLER_126_197
*3190 FILLER_126_209
*3191 FILLER_126_221
*3192 FILLER_126_233
*3193 FILLER_126_245
*3194 FILLER_126_249
*3195 FILLER_126_251
*3196 FILLER_126_253
*3197 FILLER_126_265
*3198 FILLER_126_27
*3199 FILLER_126_277
*3200 FILLER_126_289
*3201 FILLER_126_29
*3202 FILLER_126_3
*3203 FILLER_126_301
*3204 FILLER_126_305
*3205 FILLER_126_307
*3206 FILLER_126_309
*3207 FILLER_126_321
*3208 FILLER_126_333
*3209 FILLER_126_345
*3210 FILLER_126_357
*3211 FILLER_126_361
*3212 FILLER_126_363
*3213 FILLER_126_365
*3214 FILLER_126_377
*3215 FILLER_126_389
*3216 FILLER_126_401
*3217 FILLER_126_41
*3218 FILLER_126_413
*3219 FILLER_126_417
*3220 FILLER_126_419
*3221 FILLER_126_421
*3222 FILLER_126_433
*3223 FILLER_126_445
*3224 FILLER_126_457
*3225 FILLER_126_469
*3226 FILLER_126_473
*3227 FILLER_126_475
*3228 FILLER_126_477
*3229 FILLER_126_489
*3230 FILLER_126_501
*3231 FILLER_126_513
*3232 FILLER_126_525
*3233 FILLER_126_529
*3234 FILLER_126_53
*3235 FILLER_126_531
*3236 FILLER_126_533
*3237 FILLER_126_545
*3238 FILLER_126_557
*3239 FILLER_126_569
*3240 FILLER_126_581
*3241 FILLER_126_585
*3242 FILLER_126_587
*3243 FILLER_126_589
*3244 FILLER_126_601
*3245 FILLER_126_613
*3246 FILLER_126_625
*3247 FILLER_126_637
*3248 FILLER_126_641
*3249 FILLER_126_643
*3250 FILLER_126_645
*3251 FILLER_126_65
*3252 FILLER_126_657
*3253 FILLER_126_669
*3254 FILLER_126_681
*3255 FILLER_126_693
*3256 FILLER_126_697
*3257 FILLER_126_699
*3258 FILLER_126_701
*3259 FILLER_126_713
*3260 FILLER_126_725
*3261 FILLER_126_737
*3262 FILLER_126_749
*3263 FILLER_126_753
*3264 FILLER_126_755
*3265 FILLER_126_757
*3266 FILLER_126_769
*3267 FILLER_126_77
*3268 FILLER_126_781
*3269 FILLER_126_793
*3270 FILLER_126_805
*3271 FILLER_126_809
*3272 FILLER_126_81
*3273 FILLER_126_811
*3274 FILLER_126_813
*3275 FILLER_126_825
*3276 FILLER_126_83
*3277 FILLER_126_837
*3278 FILLER_126_841
*3279 FILLER_126_85
*3280 FILLER_126_97
*3281 FILLER_127_105
*3282 FILLER_127_109
*3283 FILLER_127_111
*3284 FILLER_127_113
*3285 FILLER_127_125
*3286 FILLER_127_137
*3287 FILLER_127_149
*3288 FILLER_127_15
*3289 FILLER_127_161
*3290 FILLER_127_165
*3291 FILLER_127_167
*3292 FILLER_127_169
*3293 FILLER_127_181
*3294 FILLER_127_193
*3295 FILLER_127_205
*3296 FILLER_127_217
*3297 FILLER_127_221
*3298 FILLER_127_223
*3299 FILLER_127_225
*3300 FILLER_127_237
*3301 FILLER_127_249
*3302 FILLER_127_261
*3303 FILLER_127_27
*3304 FILLER_127_273
*3305 FILLER_127_277
*3306 FILLER_127_279
*3307 FILLER_127_281
*3308 FILLER_127_293
*3309 FILLER_127_3
*3310 FILLER_127_305
*3311 FILLER_127_317
*3312 FILLER_127_329
*3313 FILLER_127_333
*3314 FILLER_127_335
*3315 FILLER_127_337
*3316 FILLER_127_349
*3317 FILLER_127_361
*3318 FILLER_127_373
*3319 FILLER_127_385
*3320 FILLER_127_389
*3321 FILLER_127_39
*3322 FILLER_127_391
*3323 FILLER_127_393
*3324 FILLER_127_405
*3325 FILLER_127_417
*3326 FILLER_127_429
*3327 FILLER_127_441
*3328 FILLER_127_445
*3329 FILLER_127_447
*3330 FILLER_127_449
*3331 FILLER_127_461
*3332 FILLER_127_473
*3333 FILLER_127_485
*3334 FILLER_127_497
*3335 FILLER_127_501
*3336 FILLER_127_503
*3337 FILLER_127_505
*3338 FILLER_127_51
*3339 FILLER_127_517
*3340 FILLER_127_529
*3341 FILLER_127_541
*3342 FILLER_127_55
*3343 FILLER_127_553
*3344 FILLER_127_557
*3345 FILLER_127_559
*3346 FILLER_127_561
*3347 FILLER_127_57
*3348 FILLER_127_573
*3349 FILLER_127_585
*3350 FILLER_127_597
*3351 FILLER_127_609
*3352 FILLER_127_613
*3353 FILLER_127_615
*3354 FILLER_127_617
*3355 FILLER_127_629
*3356 FILLER_127_641
*3357 FILLER_127_653
*3358 FILLER_127_665
*3359 FILLER_127_669
*3360 FILLER_127_671
*3361 FILLER_127_673
*3362 FILLER_127_685
*3363 FILLER_127_69
*3364 FILLER_127_697
*3365 FILLER_127_709
*3366 FILLER_127_721
*3367 FILLER_127_725
*3368 FILLER_127_727
*3369 FILLER_127_729
*3370 FILLER_127_741
*3371 FILLER_127_753
*3372 FILLER_127_765
*3373 FILLER_127_777
*3374 FILLER_127_781
*3375 FILLER_127_783
*3376 FILLER_127_785
*3377 FILLER_127_797
*3378 FILLER_127_809
*3379 FILLER_127_81
*3380 FILLER_127_821
*3381 FILLER_127_833
*3382 FILLER_127_837
*3383 FILLER_127_839
*3384 FILLER_127_841
*3385 FILLER_127_93
*3386 FILLER_128_109
*3387 FILLER_128_121
*3388 FILLER_128_133
*3389 FILLER_128_137
*3390 FILLER_128_139
*3391 FILLER_128_141
*3392 FILLER_128_15
*3393 FILLER_128_153
*3394 FILLER_128_165
*3395 FILLER_128_177
*3396 FILLER_128_189
*3397 FILLER_128_193
*3398 FILLER_128_195
*3399 FILLER_128_197
*3400 FILLER_128_209
*3401 FILLER_128_221
*3402 FILLER_128_233
*3403 FILLER_128_245
*3404 FILLER_128_249
*3405 FILLER_128_251
*3406 FILLER_128_253
*3407 FILLER_128_265
*3408 FILLER_128_27
*3409 FILLER_128_277
*3410 FILLER_128_289
*3411 FILLER_128_29
*3412 FILLER_128_3
*3413 FILLER_128_301
*3414 FILLER_128_305
*3415 FILLER_128_307
*3416 FILLER_128_309
*3417 FILLER_128_321
*3418 FILLER_128_333
*3419 FILLER_128_345
*3420 FILLER_128_357
*3421 FILLER_128_361
*3422 FILLER_128_363
*3423 FILLER_128_365
*3424 FILLER_128_377
*3425 FILLER_128_389
*3426 FILLER_128_401
*3427 FILLER_128_41
*3428 FILLER_128_413
*3429 FILLER_128_417
*3430 FILLER_128_419
*3431 FILLER_128_421
*3432 FILLER_128_433
*3433 FILLER_128_445
*3434 FILLER_128_457
*3435 FILLER_128_469
*3436 FILLER_128_473
*3437 FILLER_128_475
*3438 FILLER_128_477
*3439 FILLER_128_489
*3440 FILLER_128_501
*3441 FILLER_128_513
*3442 FILLER_128_525
*3443 FILLER_128_529
*3444 FILLER_128_53
*3445 FILLER_128_531
*3446 FILLER_128_533
*3447 FILLER_128_545
*3448 FILLER_128_557
*3449 FILLER_128_569
*3450 FILLER_128_581
*3451 FILLER_128_585
*3452 FILLER_128_587
*3453 FILLER_128_589
*3454 FILLER_128_601
*3455 FILLER_128_613
*3456 FILLER_128_625
*3457 FILLER_128_637
*3458 FILLER_128_641
*3459 FILLER_128_643
*3460 FILLER_128_645
*3461 FILLER_128_65
*3462 FILLER_128_657
*3463 FILLER_128_669
*3464 FILLER_128_681
*3465 FILLER_128_693
*3466 FILLER_128_697
*3467 FILLER_128_699
*3468 FILLER_128_701
*3469 FILLER_128_713
*3470 FILLER_128_725
*3471 FILLER_128_737
*3472 FILLER_128_749
*3473 FILLER_128_753
*3474 FILLER_128_755
*3475 FILLER_128_757
*3476 FILLER_128_769
*3477 FILLER_128_77
*3478 FILLER_128_781
*3479 FILLER_128_793
*3480 FILLER_128_805
*3481 FILLER_128_809
*3482 FILLER_128_81
*3483 FILLER_128_811
*3484 FILLER_128_813
*3485 FILLER_128_825
*3486 FILLER_128_83
*3487 FILLER_128_837
*3488 FILLER_128_841
*3489 FILLER_128_85
*3490 FILLER_128_97
*3491 FILLER_129_105
*3492 FILLER_129_109
*3493 FILLER_129_111
*3494 FILLER_129_113
*3495 FILLER_129_125
*3496 FILLER_129_137
*3497 FILLER_129_149
*3498 FILLER_129_15
*3499 FILLER_129_161
*3500 FILLER_129_165
*3501 FILLER_129_167
*3502 FILLER_129_169
*3503 FILLER_129_181
*3504 FILLER_129_193
*3505 FILLER_129_205
*3506 FILLER_129_217
*3507 FILLER_129_221
*3508 FILLER_129_223
*3509 FILLER_129_225
*3510 FILLER_129_237
*3511 FILLER_129_249
*3512 FILLER_129_261
*3513 FILLER_129_27
*3514 FILLER_129_273
*3515 FILLER_129_277
*3516 FILLER_129_279
*3517 FILLER_129_281
*3518 FILLER_129_293
*3519 FILLER_129_3
*3520 FILLER_129_305
*3521 FILLER_129_317
*3522 FILLER_129_329
*3523 FILLER_129_333
*3524 FILLER_129_335
*3525 FILLER_129_337
*3526 FILLER_129_349
*3527 FILLER_129_361
*3528 FILLER_129_373
*3529 FILLER_129_385
*3530 FILLER_129_389
*3531 FILLER_129_39
*3532 FILLER_129_391
*3533 FILLER_129_393
*3534 FILLER_129_405
*3535 FILLER_129_417
*3536 FILLER_129_429
*3537 FILLER_129_441
*3538 FILLER_129_445
*3539 FILLER_129_447
*3540 FILLER_129_449
*3541 FILLER_129_461
*3542 FILLER_129_473
*3543 FILLER_129_485
*3544 FILLER_129_497
*3545 FILLER_129_501
*3546 FILLER_129_503
*3547 FILLER_129_505
*3548 FILLER_129_51
*3549 FILLER_129_517
*3550 FILLER_129_529
*3551 FILLER_129_541
*3552 FILLER_129_55
*3553 FILLER_129_553
*3554 FILLER_129_557
*3555 FILLER_129_559
*3556 FILLER_129_561
*3557 FILLER_129_57
*3558 FILLER_129_573
*3559 FILLER_129_585
*3560 FILLER_129_597
*3561 FILLER_129_609
*3562 FILLER_129_613
*3563 FILLER_129_615
*3564 FILLER_129_617
*3565 FILLER_129_629
*3566 FILLER_129_641
*3567 FILLER_129_653
*3568 FILLER_129_665
*3569 FILLER_129_669
*3570 FILLER_129_671
*3571 FILLER_129_673
*3572 FILLER_129_685
*3573 FILLER_129_69
*3574 FILLER_129_697
*3575 FILLER_129_709
*3576 FILLER_129_721
*3577 FILLER_129_725
*3578 FILLER_129_727
*3579 FILLER_129_729
*3580 FILLER_129_741
*3581 FILLER_129_753
*3582 FILLER_129_765
*3583 FILLER_129_777
*3584 FILLER_129_781
*3585 FILLER_129_783
*3586 FILLER_129_785
*3587 FILLER_129_797
*3588 FILLER_129_809
*3589 FILLER_129_81
*3590 FILLER_129_821
*3591 FILLER_129_833
*3592 FILLER_129_837
*3593 FILLER_129_839
*3594 FILLER_129_841
*3595 FILLER_129_93
*3596 FILLER_12_109
*3597 FILLER_12_121
*3598 FILLER_12_133
*3599 FILLER_12_137
*3600 FILLER_12_139
*3601 FILLER_12_141
*3602 FILLER_12_15
*3603 FILLER_12_153
*3604 FILLER_12_165
*3605 FILLER_12_177
*3606 FILLER_12_189
*3607 FILLER_12_193
*3608 FILLER_12_195
*3609 FILLER_12_197
*3610 FILLER_12_209
*3611 FILLER_12_221
*3612 FILLER_12_233
*3613 FILLER_12_245
*3614 FILLER_12_249
*3615 FILLER_12_251
*3616 FILLER_12_253
*3617 FILLER_12_265
*3618 FILLER_12_27
*3619 FILLER_12_277
*3620 FILLER_12_289
*3621 FILLER_12_29
*3622 FILLER_12_3
*3623 FILLER_12_301
*3624 FILLER_12_305
*3625 FILLER_12_307
*3626 FILLER_12_309
*3627 FILLER_12_321
*3628 FILLER_12_333
*3629 FILLER_12_345
*3630 FILLER_12_357
*3631 FILLER_12_361
*3632 FILLER_12_363
*3633 FILLER_12_365
*3634 FILLER_12_377
*3635 FILLER_12_389
*3636 FILLER_12_401
*3637 FILLER_12_41
*3638 FILLER_12_413
*3639 FILLER_12_417
*3640 FILLER_12_419
*3641 FILLER_12_421
*3642 FILLER_12_433
*3643 FILLER_12_445
*3644 FILLER_12_457
*3645 FILLER_12_469
*3646 FILLER_12_473
*3647 FILLER_12_475
*3648 FILLER_12_477
*3649 FILLER_12_489
*3650 FILLER_12_501
*3651 FILLER_12_513
*3652 FILLER_12_525
*3653 FILLER_12_529
*3654 FILLER_12_53
*3655 FILLER_12_531
*3656 FILLER_12_533
*3657 FILLER_12_545
*3658 FILLER_12_557
*3659 FILLER_12_569
*3660 FILLER_12_581
*3661 FILLER_12_585
*3662 FILLER_12_587
*3663 FILLER_12_589
*3664 FILLER_12_601
*3665 FILLER_12_613
*3666 FILLER_12_625
*3667 FILLER_12_637
*3668 FILLER_12_641
*3669 FILLER_12_643
*3670 FILLER_12_645
*3671 FILLER_12_65
*3672 FILLER_12_657
*3673 FILLER_12_669
*3674 FILLER_12_681
*3675 FILLER_12_693
*3676 FILLER_12_697
*3677 FILLER_12_699
*3678 FILLER_12_701
*3679 FILLER_12_713
*3680 FILLER_12_725
*3681 FILLER_12_737
*3682 FILLER_12_749
*3683 FILLER_12_753
*3684 FILLER_12_755
*3685 FILLER_12_757
*3686 FILLER_12_769
*3687 FILLER_12_77
*3688 FILLER_12_781
*3689 FILLER_12_793
*3690 FILLER_12_805
*3691 FILLER_12_809
*3692 FILLER_12_81
*3693 FILLER_12_811
*3694 FILLER_12_813
*3695 FILLER_12_825
*3696 FILLER_12_83
*3697 FILLER_12_837
*3698 FILLER_12_841
*3699 FILLER_12_85
*3700 FILLER_12_97
*3701 FILLER_130_109
*3702 FILLER_130_121
*3703 FILLER_130_133
*3704 FILLER_130_137
*3705 FILLER_130_139
*3706 FILLER_130_141
*3707 FILLER_130_15
*3708 FILLER_130_153
*3709 FILLER_130_165
*3710 FILLER_130_177
*3711 FILLER_130_189
*3712 FILLER_130_193
*3713 FILLER_130_195
*3714 FILLER_130_197
*3715 FILLER_130_209
*3716 FILLER_130_221
*3717 FILLER_130_233
*3718 FILLER_130_245
*3719 FILLER_130_249
*3720 FILLER_130_251
*3721 FILLER_130_253
*3722 FILLER_130_265
*3723 FILLER_130_27
*3724 FILLER_130_277
*3725 FILLER_130_289
*3726 FILLER_130_29
*3727 FILLER_130_3
*3728 FILLER_130_301
*3729 FILLER_130_305
*3730 FILLER_130_307
*3731 FILLER_130_309
*3732 FILLER_130_321
*3733 FILLER_130_333
*3734 FILLER_130_345
*3735 FILLER_130_357
*3736 FILLER_130_361
*3737 FILLER_130_363
*3738 FILLER_130_365
*3739 FILLER_130_377
*3740 FILLER_130_389
*3741 FILLER_130_401
*3742 FILLER_130_41
*3743 FILLER_130_413
*3744 FILLER_130_417
*3745 FILLER_130_419
*3746 FILLER_130_421
*3747 FILLER_130_433
*3748 FILLER_130_445
*3749 FILLER_130_457
*3750 FILLER_130_469
*3751 FILLER_130_473
*3752 FILLER_130_475
*3753 FILLER_130_477
*3754 FILLER_130_489
*3755 FILLER_130_501
*3756 FILLER_130_513
*3757 FILLER_130_525
*3758 FILLER_130_529
*3759 FILLER_130_53
*3760 FILLER_130_531
*3761 FILLER_130_533
*3762 FILLER_130_545
*3763 FILLER_130_557
*3764 FILLER_130_569
*3765 FILLER_130_581
*3766 FILLER_130_585
*3767 FILLER_130_587
*3768 FILLER_130_589
*3769 FILLER_130_601
*3770 FILLER_130_613
*3771 FILLER_130_625
*3772 FILLER_130_637
*3773 FILLER_130_641
*3774 FILLER_130_643
*3775 FILLER_130_645
*3776 FILLER_130_65
*3777 FILLER_130_657
*3778 FILLER_130_669
*3779 FILLER_130_681
*3780 FILLER_130_693
*3781 FILLER_130_697
*3782 FILLER_130_699
*3783 FILLER_130_701
*3784 FILLER_130_713
*3785 FILLER_130_725
*3786 FILLER_130_737
*3787 FILLER_130_749
*3788 FILLER_130_753
*3789 FILLER_130_755
*3790 FILLER_130_757
*3791 FILLER_130_769
*3792 FILLER_130_77
*3793 FILLER_130_781
*3794 FILLER_130_793
*3795 FILLER_130_805
*3796 FILLER_130_809
*3797 FILLER_130_81
*3798 FILLER_130_811
*3799 FILLER_130_813
*3800 FILLER_130_825
*3801 FILLER_130_83
*3802 FILLER_130_837
*3803 FILLER_130_841
*3804 FILLER_130_85
*3805 FILLER_130_97
*3806 FILLER_131_105
*3807 FILLER_131_109
*3808 FILLER_131_111
*3809 FILLER_131_113
*3810 FILLER_131_125
*3811 FILLER_131_137
*3812 FILLER_131_149
*3813 FILLER_131_15
*3814 FILLER_131_161
*3815 FILLER_131_165
*3816 FILLER_131_167
*3817 FILLER_131_169
*3818 FILLER_131_181
*3819 FILLER_131_193
*3820 FILLER_131_205
*3821 FILLER_131_217
*3822 FILLER_131_221
*3823 FILLER_131_223
*3824 FILLER_131_225
*3825 FILLER_131_237
*3826 FILLER_131_249
*3827 FILLER_131_261
*3828 FILLER_131_27
*3829 FILLER_131_273
*3830 FILLER_131_277
*3831 FILLER_131_279
*3832 FILLER_131_281
*3833 FILLER_131_293
*3834 FILLER_131_3
*3835 FILLER_131_305
*3836 FILLER_131_317
*3837 FILLER_131_329
*3838 FILLER_131_333
*3839 FILLER_131_335
*3840 FILLER_131_337
*3841 FILLER_131_349
*3842 FILLER_131_361
*3843 FILLER_131_373
*3844 FILLER_131_385
*3845 FILLER_131_389
*3846 FILLER_131_39
*3847 FILLER_131_391
*3848 FILLER_131_393
*3849 FILLER_131_405
*3850 FILLER_131_417
*3851 FILLER_131_429
*3852 FILLER_131_441
*3853 FILLER_131_445
*3854 FILLER_131_447
*3855 FILLER_131_449
*3856 FILLER_131_461
*3857 FILLER_131_473
*3858 FILLER_131_485
*3859 FILLER_131_497
*3860 FILLER_131_501
*3861 FILLER_131_503
*3862 FILLER_131_505
*3863 FILLER_131_51
*3864 FILLER_131_517
*3865 FILLER_131_529
*3866 FILLER_131_541
*3867 FILLER_131_55
*3868 FILLER_131_553
*3869 FILLER_131_557
*3870 FILLER_131_559
*3871 FILLER_131_561
*3872 FILLER_131_57
*3873 FILLER_131_573
*3874 FILLER_131_585
*3875 FILLER_131_597
*3876 FILLER_131_609
*3877 FILLER_131_613
*3878 FILLER_131_615
*3879 FILLER_131_617
*3880 FILLER_131_629
*3881 FILLER_131_641
*3882 FILLER_131_653
*3883 FILLER_131_665
*3884 FILLER_131_669
*3885 FILLER_131_671
*3886 FILLER_131_673
*3887 FILLER_131_685
*3888 FILLER_131_69
*3889 FILLER_131_697
*3890 FILLER_131_709
*3891 FILLER_131_721
*3892 FILLER_131_725
*3893 FILLER_131_727
*3894 FILLER_131_729
*3895 FILLER_131_741
*3896 FILLER_131_753
*3897 FILLER_131_765
*3898 FILLER_131_777
*3899 FILLER_131_781
*3900 FILLER_131_783
*3901 FILLER_131_785
*3902 FILLER_131_797
*3903 FILLER_131_809
*3904 FILLER_131_81
*3905 FILLER_131_821
*3906 FILLER_131_833
*3907 FILLER_131_837
*3908 FILLER_131_839
*3909 FILLER_131_841
*3910 FILLER_131_93
*3911 FILLER_132_109
*3912 FILLER_132_121
*3913 FILLER_132_133
*3914 FILLER_132_137
*3915 FILLER_132_139
*3916 FILLER_132_141
*3917 FILLER_132_15
*3918 FILLER_132_153
*3919 FILLER_132_165
*3920 FILLER_132_177
*3921 FILLER_132_189
*3922 FILLER_132_193
*3923 FILLER_132_195
*3924 FILLER_132_197
*3925 FILLER_132_209
*3926 FILLER_132_221
*3927 FILLER_132_233
*3928 FILLER_132_245
*3929 FILLER_132_249
*3930 FILLER_132_251
*3931 FILLER_132_253
*3932 FILLER_132_265
*3933 FILLER_132_27
*3934 FILLER_132_277
*3935 FILLER_132_289
*3936 FILLER_132_29
*3937 FILLER_132_3
*3938 FILLER_132_301
*3939 FILLER_132_305
*3940 FILLER_132_307
*3941 FILLER_132_309
*3942 FILLER_132_321
*3943 FILLER_132_333
*3944 FILLER_132_345
*3945 FILLER_132_357
*3946 FILLER_132_361
*3947 FILLER_132_363
*3948 FILLER_132_365
*3949 FILLER_132_377
*3950 FILLER_132_389
*3951 FILLER_132_401
*3952 FILLER_132_41
*3953 FILLER_132_413
*3954 FILLER_132_417
*3955 FILLER_132_419
*3956 FILLER_132_421
*3957 FILLER_132_433
*3958 FILLER_132_445
*3959 FILLER_132_457
*3960 FILLER_132_469
*3961 FILLER_132_473
*3962 FILLER_132_475
*3963 FILLER_132_477
*3964 FILLER_132_489
*3965 FILLER_132_501
*3966 FILLER_132_513
*3967 FILLER_132_525
*3968 FILLER_132_529
*3969 FILLER_132_53
*3970 FILLER_132_531
*3971 FILLER_132_533
*3972 FILLER_132_545
*3973 FILLER_132_557
*3974 FILLER_132_569
*3975 FILLER_132_581
*3976 FILLER_132_585
*3977 FILLER_132_587
*3978 FILLER_132_589
*3979 FILLER_132_601
*3980 FILLER_132_613
*3981 FILLER_132_625
*3982 FILLER_132_637
*3983 FILLER_132_641
*3984 FILLER_132_643
*3985 FILLER_132_645
*3986 FILLER_132_65
*3987 FILLER_132_657
*3988 FILLER_132_669
*3989 FILLER_132_681
*3990 FILLER_132_693
*3991 FILLER_132_697
*3992 FILLER_132_699
*3993 FILLER_132_701
*3994 FILLER_132_713
*3995 FILLER_132_725
*3996 FILLER_132_737
*3997 FILLER_132_749
*3998 FILLER_132_753
*3999 FILLER_132_755
*4000 FILLER_132_757
*4001 FILLER_132_769
*4002 FILLER_132_77
*4003 FILLER_132_781
*4004 FILLER_132_793
*4005 FILLER_132_805
*4006 FILLER_132_809
*4007 FILLER_132_81
*4008 FILLER_132_811
*4009 FILLER_132_813
*4010 FILLER_132_825
*4011 FILLER_132_83
*4012 FILLER_132_837
*4013 FILLER_132_841
*4014 FILLER_132_85
*4015 FILLER_132_97
*4016 FILLER_133_105
*4017 FILLER_133_109
*4018 FILLER_133_111
*4019 FILLER_133_113
*4020 FILLER_133_125
*4021 FILLER_133_137
*4022 FILLER_133_149
*4023 FILLER_133_15
*4024 FILLER_133_161
*4025 FILLER_133_165
*4026 FILLER_133_167
*4027 FILLER_133_169
*4028 FILLER_133_181
*4029 FILLER_133_193
*4030 FILLER_133_205
*4031 FILLER_133_217
*4032 FILLER_133_221
*4033 FILLER_133_223
*4034 FILLER_133_225
*4035 FILLER_133_237
*4036 FILLER_133_249
*4037 FILLER_133_261
*4038 FILLER_133_27
*4039 FILLER_133_273
*4040 FILLER_133_277
*4041 FILLER_133_279
*4042 FILLER_133_281
*4043 FILLER_133_293
*4044 FILLER_133_3
*4045 FILLER_133_311
*4046 FILLER_133_319
*4047 FILLER_133_327
*4048 FILLER_133_335
*4049 FILLER_133_353
*4050 FILLER_133_365
*4051 FILLER_133_377
*4052 FILLER_133_389
*4053 FILLER_133_39
*4054 FILLER_133_391
*4055 FILLER_133_393
*4056 FILLER_133_405
*4057 FILLER_133_417
*4058 FILLER_133_429
*4059 FILLER_133_441
*4060 FILLER_133_445
*4061 FILLER_133_447
*4062 FILLER_133_449
*4063 FILLER_133_461
*4064 FILLER_133_473
*4065 FILLER_133_485
*4066 FILLER_133_497
*4067 FILLER_133_501
*4068 FILLER_133_503
*4069 FILLER_133_505
*4070 FILLER_133_51
*4071 FILLER_133_517
*4072 FILLER_133_529
*4073 FILLER_133_541
*4074 FILLER_133_55
*4075 FILLER_133_553
*4076 FILLER_133_557
*4077 FILLER_133_559
*4078 FILLER_133_561
*4079 FILLER_133_57
*4080 FILLER_133_573
*4081 FILLER_133_585
*4082 FILLER_133_597
*4083 FILLER_133_609
*4084 FILLER_133_613
*4085 FILLER_133_615
*4086 FILLER_133_617
*4087 FILLER_133_629
*4088 FILLER_133_641
*4089 FILLER_133_653
*4090 FILLER_133_665
*4091 FILLER_133_669
*4092 FILLER_133_671
*4093 FILLER_133_673
*4094 FILLER_133_685
*4095 FILLER_133_69
*4096 FILLER_133_697
*4097 FILLER_133_709
*4098 FILLER_133_721
*4099 FILLER_133_725
*4100 FILLER_133_727
*4101 FILLER_133_729
*4102 FILLER_133_741
*4103 FILLER_133_753
*4104 FILLER_133_765
*4105 FILLER_133_777
*4106 FILLER_133_781
*4107 FILLER_133_783
*4108 FILLER_133_785
*4109 FILLER_133_797
*4110 FILLER_133_809
*4111 FILLER_133_81
*4112 FILLER_133_821
*4113 FILLER_133_833
*4114 FILLER_133_837
*4115 FILLER_133_839
*4116 FILLER_133_841
*4117 FILLER_133_93
*4118 FILLER_134_109
*4119 FILLER_134_121
*4120 FILLER_134_133
*4121 FILLER_134_137
*4122 FILLER_134_139
*4123 FILLER_134_141
*4124 FILLER_134_15
*4125 FILLER_134_153
*4126 FILLER_134_165
*4127 FILLER_134_177
*4128 FILLER_134_189
*4129 FILLER_134_193
*4130 FILLER_134_195
*4131 FILLER_134_197
*4132 FILLER_134_209
*4133 FILLER_134_221
*4134 FILLER_134_233
*4135 FILLER_134_235
*4136 FILLER_134_253
*4137 FILLER_134_265
*4138 FILLER_134_27
*4139 FILLER_134_277
*4140 FILLER_134_289
*4141 FILLER_134_29
*4142 FILLER_134_297
*4143 FILLER_134_3
*4144 FILLER_134_305
*4145 FILLER_134_307
*4146 FILLER_134_317
*4147 FILLER_134_334
*4148 FILLER_134_346
*4149 FILLER_134_358
*4150 FILLER_134_362
*4151 FILLER_134_365
*4152 FILLER_134_377
*4153 FILLER_134_389
*4154 FILLER_134_401
*4155 FILLER_134_41
*4156 FILLER_134_413
*4157 FILLER_134_417
*4158 FILLER_134_419
*4159 FILLER_134_421
*4160 FILLER_134_433
*4161 FILLER_134_445
*4162 FILLER_134_457
*4163 FILLER_134_469
*4164 FILLER_134_473
*4165 FILLER_134_475
*4166 FILLER_134_477
*4167 FILLER_134_489
*4168 FILLER_134_501
*4169 FILLER_134_513
*4170 FILLER_134_525
*4171 FILLER_134_529
*4172 FILLER_134_53
*4173 FILLER_134_531
*4174 FILLER_134_533
*4175 FILLER_134_545
*4176 FILLER_134_557
*4177 FILLER_134_569
*4178 FILLER_134_581
*4179 FILLER_134_585
*4180 FILLER_134_587
*4181 FILLER_134_589
*4182 FILLER_134_601
*4183 FILLER_134_61
*4184 FILLER_134_613
*4185 FILLER_134_625
*4186 FILLER_134_63
*4187 FILLER_134_637
*4188 FILLER_134_641
*4189 FILLER_134_643
*4190 FILLER_134_645
*4191 FILLER_134_657
*4192 FILLER_134_669
*4193 FILLER_134_681
*4194 FILLER_134_693
*4195 FILLER_134_697
*4196 FILLER_134_699
*4197 FILLER_134_701
*4198 FILLER_134_713
*4199 FILLER_134_725
*4200 FILLER_134_737
*4201 FILLER_134_749
*4202 FILLER_134_753
*4203 FILLER_134_755
*4204 FILLER_134_757
*4205 FILLER_134_769
*4206 FILLER_134_781
*4207 FILLER_134_793
*4208 FILLER_134_805
*4209 FILLER_134_809
*4210 FILLER_134_81
*4211 FILLER_134_811
*4212 FILLER_134_813
*4213 FILLER_134_825
*4214 FILLER_134_83
*4215 FILLER_134_837
*4216 FILLER_134_841
*4217 FILLER_134_85
*4218 FILLER_134_97
*4219 FILLER_135_108
*4220 FILLER_135_119
*4221 FILLER_135_147
*4222 FILLER_135_15
*4223 FILLER_135_153
*4224 FILLER_135_159
*4225 FILLER_135_167
*4226 FILLER_135_185
*4227 FILLER_135_194
*4228 FILLER_135_206
*4229 FILLER_135_222
*4230 FILLER_135_233
*4231 FILLER_135_244
*4232 FILLER_135_254
*4233 FILLER_135_266
*4234 FILLER_135_27
*4235 FILLER_135_278
*4236 FILLER_135_281
*4237 FILLER_135_293
*4238 FILLER_135_3
*4239 FILLER_135_301
*4240 FILLER_135_309
*4241 FILLER_135_321
*4242 FILLER_135_333
*4243 FILLER_135_335
*4244 FILLER_135_337
*4245 FILLER_135_349
*4246 FILLER_135_35
*4247 FILLER_135_358
*4248 FILLER_135_370
*4249 FILLER_135_382
*4250 FILLER_135_390
*4251 FILLER_135_393
*4252 FILLER_135_40
*4253 FILLER_135_405
*4254 FILLER_135_417
*4255 FILLER_135_429
*4256 FILLER_135_441
*4257 FILLER_135_445
*4258 FILLER_135_447
*4259 FILLER_135_449
*4260 FILLER_135_461
*4261 FILLER_135_473
*4262 FILLER_135_485
*4263 FILLER_135_497
*4264 FILLER_135_501
*4265 FILLER_135_503
*4266 FILLER_135_505
*4267 FILLER_135_517
*4268 FILLER_135_52
*4269 FILLER_135_529
*4270 FILLER_135_541
*4271 FILLER_135_553
*4272 FILLER_135_557
*4273 FILLER_135_559
*4274 FILLER_135_561
*4275 FILLER_135_573
*4276 FILLER_135_585
*4277 FILLER_135_597
*4278 FILLER_135_609
*4279 FILLER_135_613
*4280 FILLER_135_615
*4281 FILLER_135_617
*4282 FILLER_135_629
*4283 FILLER_135_641
*4284 FILLER_135_653
*4285 FILLER_135_665
*4286 FILLER_135_669
*4287 FILLER_135_671
*4288 FILLER_135_673
*4289 FILLER_135_685
*4290 FILLER_135_697
*4291 FILLER_135_709
*4292 FILLER_135_721
*4293 FILLER_135_725
*4294 FILLER_135_727
*4295 FILLER_135_729
*4296 FILLER_135_741
*4297 FILLER_135_753
*4298 FILLER_135_765
*4299 FILLER_135_777
*4300 FILLER_135_781
*4301 FILLER_135_783
*4302 FILLER_135_785
*4303 FILLER_135_797
*4304 FILLER_135_809
*4305 FILLER_135_821
*4306 FILLER_135_833
*4307 FILLER_135_837
*4308 FILLER_135_839
*4309 FILLER_135_84
*4310 FILLER_135_841
*4311 FILLER_135_96
*4312 FILLER_136_104
*4313 FILLER_136_132
*4314 FILLER_136_15
*4315 FILLER_136_173
*4316 FILLER_136_179
*4317 FILLER_136_238
*4318 FILLER_136_246
*4319 FILLER_136_253
*4320 FILLER_136_27
*4321 FILLER_136_278
*4322 FILLER_136_29
*4323 FILLER_136_296
*4324 FILLER_136_3
*4325 FILLER_136_309
*4326 FILLER_136_317
*4327 FILLER_136_323
*4328 FILLER_136_331
*4329 FILLER_136_340
*4330 FILLER_136_344
*4331 FILLER_136_346
*4332 FILLER_136_363
*4333 FILLER_136_365
*4334 FILLER_136_377
*4335 FILLER_136_389
*4336 FILLER_136_401
*4337 FILLER_136_413
*4338 FILLER_136_417
*4339 FILLER_136_419
*4340 FILLER_136_421
*4341 FILLER_136_433
*4342 FILLER_136_445
*4343 FILLER_136_457
*4344 FILLER_136_469
*4345 FILLER_136_47
*4346 FILLER_136_473
*4347 FILLER_136_475
*4348 FILLER_136_477
*4349 FILLER_136_489
*4350 FILLER_136_501
*4351 FILLER_136_513
*4352 FILLER_136_525
*4353 FILLER_136_529
*4354 FILLER_136_531
*4355 FILLER_136_533
*4356 FILLER_136_545
*4357 FILLER_136_557
*4358 FILLER_136_569
*4359 FILLER_136_58
*4360 FILLER_136_581
*4361 FILLER_136_585
*4362 FILLER_136_587
*4363 FILLER_136_589
*4364 FILLER_136_601
*4365 FILLER_136_613
*4366 FILLER_136_625
*4367 FILLER_136_637
*4368 FILLER_136_641
*4369 FILLER_136_643
*4370 FILLER_136_645
*4371 FILLER_136_657
*4372 FILLER_136_669
*4373 FILLER_136_681
*4374 FILLER_136_69
*4375 FILLER_136_693
*4376 FILLER_136_697
*4377 FILLER_136_699
*4378 FILLER_136_701
*4379 FILLER_136_713
*4380 FILLER_136_725
*4381 FILLER_136_73
*4382 FILLER_136_737
*4383 FILLER_136_749
*4384 FILLER_136_753
*4385 FILLER_136_755
*4386 FILLER_136_757
*4387 FILLER_136_769
*4388 FILLER_136_781
*4389 FILLER_136_793
*4390 FILLER_136_805
*4391 FILLER_136_809
*4392 FILLER_136_811
*4393 FILLER_136_813
*4394 FILLER_136_82
*4395 FILLER_136_825
*4396 FILLER_136_837
*4397 FILLER_136_841
*4398 FILLER_136_92
*4399 FILLER_137_102
*4400 FILLER_137_110
*4401 FILLER_137_117
*4402 FILLER_137_129
*4403 FILLER_137_15
*4404 FILLER_137_152
*4405 FILLER_137_164
*4406 FILLER_137_176
*4407 FILLER_137_183
*4408 FILLER_137_195
*4409 FILLER_137_207
*4410 FILLER_137_215
*4411 FILLER_137_222
*4412 FILLER_137_225
*4413 FILLER_137_237
*4414 FILLER_137_239
*4415 FILLER_137_253
*4416 FILLER_137_255
*4417 FILLER_137_275
*4418 FILLER_137_279
*4419 FILLER_137_281
*4420 FILLER_137_3
*4421 FILLER_137_312
*4422 FILLER_137_329
*4423 FILLER_137_331
*4424 FILLER_137_340
*4425 FILLER_137_344
*4426 FILLER_137_361
*4427 FILLER_137_373
*4428 FILLER_137_385
*4429 FILLER_137_389
*4430 FILLER_137_391
*4431 FILLER_137_393
*4432 FILLER_137_405
*4433 FILLER_137_417
*4434 FILLER_137_429
*4435 FILLER_137_441
*4436 FILLER_137_445
*4437 FILLER_137_447
*4438 FILLER_137_449
*4439 FILLER_137_461
*4440 FILLER_137_47
*4441 FILLER_137_473
*4442 FILLER_137_485
*4443 FILLER_137_497
*4444 FILLER_137_501
*4445 FILLER_137_503
*4446 FILLER_137_505
*4447 FILLER_137_51
*4448 FILLER_137_517
*4449 FILLER_137_529
*4450 FILLER_137_541
*4451 FILLER_137_553
*4452 FILLER_137_557
*4453 FILLER_137_559
*4454 FILLER_137_561
*4455 FILLER_137_57
*4456 FILLER_137_573
*4457 FILLER_137_585
*4458 FILLER_137_597
*4459 FILLER_137_609
*4460 FILLER_137_613
*4461 FILLER_137_615
*4462 FILLER_137_617
*4463 FILLER_137_629
*4464 FILLER_137_641
*4465 FILLER_137_653
*4466 FILLER_137_665
*4467 FILLER_137_669
*4468 FILLER_137_671
*4469 FILLER_137_673
*4470 FILLER_137_685
*4471 FILLER_137_697
*4472 FILLER_137_709
*4473 FILLER_137_721
*4474 FILLER_137_725
*4475 FILLER_137_727
*4476 FILLER_137_729
*4477 FILLER_137_74
*4478 FILLER_137_741
*4479 FILLER_137_753
*4480 FILLER_137_765
*4481 FILLER_137_777
*4482 FILLER_137_781
*4483 FILLER_137_783
*4484 FILLER_137_785
*4485 FILLER_137_797
*4486 FILLER_137_809
*4487 FILLER_137_821
*4488 FILLER_137_833
*4489 FILLER_137_837
*4490 FILLER_137_839
*4491 FILLER_137_84
*4492 FILLER_137_841
*4493 FILLER_138_100
*4494 FILLER_138_116
*4495 FILLER_138_128
*4496 FILLER_138_144
*4497 FILLER_138_156
*4498 FILLER_138_172
*4499 FILLER_138_184
*4500 FILLER_138_19
*4501 FILLER_138_192
*4502 FILLER_138_197
*4503 FILLER_138_209
*4504 FILLER_138_217
*4505 FILLER_138_219
*4506 FILLER_138_223
*4507 FILLER_138_225
*4508 FILLER_138_237
*4509 FILLER_138_245
*4510 FILLER_138_250
*4511 FILLER_138_253
*4512 FILLER_138_261
*4513 FILLER_138_27
*4514 FILLER_138_270
*4515 FILLER_138_277
*4516 FILLER_138_279
*4517 FILLER_138_281
*4518 FILLER_138_29
*4519 FILLER_138_293
*4520 FILLER_138_3
*4521 FILLER_138_304
*4522 FILLER_138_309
*4523 FILLER_138_321
*4524 FILLER_138_325
*4525 FILLER_138_327
*4526 FILLER_138_331
*4527 FILLER_138_335
*4528 FILLER_138_337
*4529 FILLER_138_34
*4530 FILLER_138_349
*4531 FILLER_138_361
*4532 FILLER_138_363
*4533 FILLER_138_365
*4534 FILLER_138_377
*4535 FILLER_138_381
*4536 FILLER_138_385
*4537 FILLER_138_389
*4538 FILLER_138_391
*4539 FILLER_138_393
*4540 FILLER_138_405
*4541 FILLER_138_412
*4542 FILLER_138_421
*4543 FILLER_138_433
*4544 FILLER_138_435
*4545 FILLER_138_439
*4546 FILLER_138_447
*4547 FILLER_138_449
*4548 FILLER_138_46
*4549 FILLER_138_461
*4550 FILLER_138_466
*4551 FILLER_138_474
*4552 FILLER_138_477
*4553 FILLER_138_489
*4554 FILLER_138_493
*4555 FILLER_138_501
*4556 FILLER_138_503
*4557 FILLER_138_505
*4558 FILLER_138_520
*4559 FILLER_138_533
*4560 FILLER_138_54
*4561 FILLER_138_541
*4562 FILLER_138_543
*4563 FILLER_138_547
*4564 FILLER_138_559
*4565 FILLER_138_561
*4566 FILLER_138_569
*4567 FILLER_138_57
*4568 FILLER_138_574
*4569 FILLER_138_586
*4570 FILLER_138_589
*4571 FILLER_138_597
*4572 FILLER_138_601
*4573 FILLER_138_61
*4574 FILLER_138_613
*4575 FILLER_138_615
*4576 FILLER_138_617
*4577 FILLER_138_628
*4578 FILLER_138_640
*4579 FILLER_138_645
*4580 FILLER_138_649
*4581 FILLER_138_651
*4582 FILLER_138_655
*4583 FILLER_138_667
*4584 FILLER_138_671
*4585 FILLER_138_673
*4586 FILLER_138_677
*4587 FILLER_138_682
*4588 FILLER_138_694
*4589 FILLER_138_698
*4590 FILLER_138_7
*4591 FILLER_138_701
*4592 FILLER_138_705
*4593 FILLER_138_709
*4594 FILLER_138_721
*4595 FILLER_138_725
*4596 FILLER_138_727
*4597 FILLER_138_729
*4598 FILLER_138_73
*4599 FILLER_138_736
*4600 FILLER_138_748
*4601 FILLER_138_757
*4602 FILLER_138_759
*4603 FILLER_138_763
*4604 FILLER_138_775
*4605 FILLER_138_783
*4606 FILLER_138_785
*4607 FILLER_138_790
*4608 FILLER_138_802
*4609 FILLER_138_81
*4610 FILLER_138_810
*4611 FILLER_138_813
*4612 FILLER_138_817
*4613 FILLER_138_829
*4614 FILLER_138_83
*4615 FILLER_138_841
*4616 FILLER_138_88
*4617 FILLER_13_105
*4618 FILLER_13_109
*4619 FILLER_13_111
*4620 FILLER_13_113
*4621 FILLER_13_125
*4622 FILLER_13_137
*4623 FILLER_13_149
*4624 FILLER_13_15
*4625 FILLER_13_161
*4626 FILLER_13_165
*4627 FILLER_13_167
*4628 FILLER_13_169
*4629 FILLER_13_181
*4630 FILLER_13_193
*4631 FILLER_13_205
*4632 FILLER_13_217
*4633 FILLER_13_221
*4634 FILLER_13_223
*4635 FILLER_13_225
*4636 FILLER_13_237
*4637 FILLER_13_249
*4638 FILLER_13_261
*4639 FILLER_13_27
*4640 FILLER_13_273
*4641 FILLER_13_277
*4642 FILLER_13_279
*4643 FILLER_13_281
*4644 FILLER_13_293
*4645 FILLER_13_3
*4646 FILLER_13_305
*4647 FILLER_13_317
*4648 FILLER_13_329
*4649 FILLER_13_333
*4650 FILLER_13_335
*4651 FILLER_13_337
*4652 FILLER_13_349
*4653 FILLER_13_361
*4654 FILLER_13_373
*4655 FILLER_13_385
*4656 FILLER_13_389
*4657 FILLER_13_39
*4658 FILLER_13_391
*4659 FILLER_13_393
*4660 FILLER_13_405
*4661 FILLER_13_417
*4662 FILLER_13_429
*4663 FILLER_13_441
*4664 FILLER_13_445
*4665 FILLER_13_447
*4666 FILLER_13_449
*4667 FILLER_13_461
*4668 FILLER_13_473
*4669 FILLER_13_485
*4670 FILLER_13_497
*4671 FILLER_13_501
*4672 FILLER_13_503
*4673 FILLER_13_505
*4674 FILLER_13_51
*4675 FILLER_13_517
*4676 FILLER_13_529
*4677 FILLER_13_541
*4678 FILLER_13_55
*4679 FILLER_13_553
*4680 FILLER_13_557
*4681 FILLER_13_559
*4682 FILLER_13_561
*4683 FILLER_13_57
*4684 FILLER_13_573
*4685 FILLER_13_585
*4686 FILLER_13_597
*4687 FILLER_13_609
*4688 FILLER_13_613
*4689 FILLER_13_615
*4690 FILLER_13_617
*4691 FILLER_13_629
*4692 FILLER_13_641
*4693 FILLER_13_653
*4694 FILLER_13_665
*4695 FILLER_13_669
*4696 FILLER_13_671
*4697 FILLER_13_673
*4698 FILLER_13_685
*4699 FILLER_13_69
*4700 FILLER_13_697
*4701 FILLER_13_709
*4702 FILLER_13_721
*4703 FILLER_13_725
*4704 FILLER_13_727
*4705 FILLER_13_729
*4706 FILLER_13_741
*4707 FILLER_13_753
*4708 FILLER_13_765
*4709 FILLER_13_777
*4710 FILLER_13_781
*4711 FILLER_13_783
*4712 FILLER_13_785
*4713 FILLER_13_797
*4714 FILLER_13_809
*4715 FILLER_13_81
*4716 FILLER_13_821
*4717 FILLER_13_833
*4718 FILLER_13_837
*4719 FILLER_13_839
*4720 FILLER_13_841
*4721 FILLER_13_93
*4722 FILLER_14_109
*4723 FILLER_14_121
*4724 FILLER_14_133
*4725 FILLER_14_137
*4726 FILLER_14_139
*4727 FILLER_14_141
*4728 FILLER_14_15
*4729 FILLER_14_153
*4730 FILLER_14_165
*4731 FILLER_14_177
*4732 FILLER_14_189
*4733 FILLER_14_193
*4734 FILLER_14_195
*4735 FILLER_14_197
*4736 FILLER_14_209
*4737 FILLER_14_221
*4738 FILLER_14_233
*4739 FILLER_14_245
*4740 FILLER_14_249
*4741 FILLER_14_251
*4742 FILLER_14_253
*4743 FILLER_14_265
*4744 FILLER_14_27
*4745 FILLER_14_277
*4746 FILLER_14_289
*4747 FILLER_14_29
*4748 FILLER_14_3
*4749 FILLER_14_301
*4750 FILLER_14_305
*4751 FILLER_14_307
*4752 FILLER_14_309
*4753 FILLER_14_321
*4754 FILLER_14_333
*4755 FILLER_14_345
*4756 FILLER_14_357
*4757 FILLER_14_361
*4758 FILLER_14_363
*4759 FILLER_14_365
*4760 FILLER_14_377
*4761 FILLER_14_389
*4762 FILLER_14_401
*4763 FILLER_14_41
*4764 FILLER_14_413
*4765 FILLER_14_417
*4766 FILLER_14_419
*4767 FILLER_14_421
*4768 FILLER_14_433
*4769 FILLER_14_445
*4770 FILLER_14_457
*4771 FILLER_14_469
*4772 FILLER_14_473
*4773 FILLER_14_475
*4774 FILLER_14_477
*4775 FILLER_14_489
*4776 FILLER_14_501
*4777 FILLER_14_513
*4778 FILLER_14_525
*4779 FILLER_14_529
*4780 FILLER_14_53
*4781 FILLER_14_531
*4782 FILLER_14_533
*4783 FILLER_14_545
*4784 FILLER_14_557
*4785 FILLER_14_569
*4786 FILLER_14_581
*4787 FILLER_14_585
*4788 FILLER_14_587
*4789 FILLER_14_589
*4790 FILLER_14_601
*4791 FILLER_14_613
*4792 FILLER_14_625
*4793 FILLER_14_637
*4794 FILLER_14_641
*4795 FILLER_14_643
*4796 FILLER_14_645
*4797 FILLER_14_65
*4798 FILLER_14_657
*4799 FILLER_14_669
*4800 FILLER_14_681
*4801 FILLER_14_693
*4802 FILLER_14_697
*4803 FILLER_14_699
*4804 FILLER_14_701
*4805 FILLER_14_713
*4806 FILLER_14_725
*4807 FILLER_14_737
*4808 FILLER_14_749
*4809 FILLER_14_753
*4810 FILLER_14_755
*4811 FILLER_14_757
*4812 FILLER_14_769
*4813 FILLER_14_77
*4814 FILLER_14_781
*4815 FILLER_14_793
*4816 FILLER_14_805
*4817 FILLER_14_809
*4818 FILLER_14_81
*4819 FILLER_14_811
*4820 FILLER_14_813
*4821 FILLER_14_825
*4822 FILLER_14_83
*4823 FILLER_14_837
*4824 FILLER_14_841
*4825 FILLER_14_85
*4826 FILLER_14_97
*4827 FILLER_15_105
*4828 FILLER_15_109
*4829 FILLER_15_111
*4830 FILLER_15_113
*4831 FILLER_15_125
*4832 FILLER_15_137
*4833 FILLER_15_149
*4834 FILLER_15_15
*4835 FILLER_15_161
*4836 FILLER_15_165
*4837 FILLER_15_167
*4838 FILLER_15_169
*4839 FILLER_15_181
*4840 FILLER_15_193
*4841 FILLER_15_205
*4842 FILLER_15_217
*4843 FILLER_15_221
*4844 FILLER_15_223
*4845 FILLER_15_225
*4846 FILLER_15_237
*4847 FILLER_15_249
*4848 FILLER_15_261
*4849 FILLER_15_27
*4850 FILLER_15_273
*4851 FILLER_15_277
*4852 FILLER_15_279
*4853 FILLER_15_281
*4854 FILLER_15_293
*4855 FILLER_15_3
*4856 FILLER_15_305
*4857 FILLER_15_317
*4858 FILLER_15_329
*4859 FILLER_15_333
*4860 FILLER_15_335
*4861 FILLER_15_337
*4862 FILLER_15_349
*4863 FILLER_15_361
*4864 FILLER_15_373
*4865 FILLER_15_385
*4866 FILLER_15_389
*4867 FILLER_15_39
*4868 FILLER_15_391
*4869 FILLER_15_393
*4870 FILLER_15_405
*4871 FILLER_15_417
*4872 FILLER_15_429
*4873 FILLER_15_441
*4874 FILLER_15_445
*4875 FILLER_15_447
*4876 FILLER_15_449
*4877 FILLER_15_461
*4878 FILLER_15_473
*4879 FILLER_15_485
*4880 FILLER_15_497
*4881 FILLER_15_501
*4882 FILLER_15_503
*4883 FILLER_15_505
*4884 FILLER_15_51
*4885 FILLER_15_517
*4886 FILLER_15_529
*4887 FILLER_15_541
*4888 FILLER_15_55
*4889 FILLER_15_553
*4890 FILLER_15_557
*4891 FILLER_15_559
*4892 FILLER_15_561
*4893 FILLER_15_57
*4894 FILLER_15_573
*4895 FILLER_15_585
*4896 FILLER_15_597
*4897 FILLER_15_609
*4898 FILLER_15_613
*4899 FILLER_15_615
*4900 FILLER_15_617
*4901 FILLER_15_629
*4902 FILLER_15_641
*4903 FILLER_15_653
*4904 FILLER_15_665
*4905 FILLER_15_669
*4906 FILLER_15_671
*4907 FILLER_15_673
*4908 FILLER_15_685
*4909 FILLER_15_69
*4910 FILLER_15_697
*4911 FILLER_15_709
*4912 FILLER_15_721
*4913 FILLER_15_725
*4914 FILLER_15_727
*4915 FILLER_15_729
*4916 FILLER_15_741
*4917 FILLER_15_753
*4918 FILLER_15_765
*4919 FILLER_15_777
*4920 FILLER_15_781
*4921 FILLER_15_783
*4922 FILLER_15_785
*4923 FILLER_15_797
*4924 FILLER_15_809
*4925 FILLER_15_81
*4926 FILLER_15_821
*4927 FILLER_15_833
*4928 FILLER_15_837
*4929 FILLER_15_839
*4930 FILLER_15_841
*4931 FILLER_15_93
*4932 FILLER_16_109
*4933 FILLER_16_121
*4934 FILLER_16_133
*4935 FILLER_16_137
*4936 FILLER_16_139
*4937 FILLER_16_141
*4938 FILLER_16_15
*4939 FILLER_16_153
*4940 FILLER_16_165
*4941 FILLER_16_177
*4942 FILLER_16_189
*4943 FILLER_16_193
*4944 FILLER_16_195
*4945 FILLER_16_197
*4946 FILLER_16_209
*4947 FILLER_16_221
*4948 FILLER_16_233
*4949 FILLER_16_245
*4950 FILLER_16_249
*4951 FILLER_16_251
*4952 FILLER_16_253
*4953 FILLER_16_265
*4954 FILLER_16_27
*4955 FILLER_16_277
*4956 FILLER_16_289
*4957 FILLER_16_29
*4958 FILLER_16_3
*4959 FILLER_16_301
*4960 FILLER_16_305
*4961 FILLER_16_307
*4962 FILLER_16_309
*4963 FILLER_16_321
*4964 FILLER_16_333
*4965 FILLER_16_345
*4966 FILLER_16_357
*4967 FILLER_16_361
*4968 FILLER_16_363
*4969 FILLER_16_365
*4970 FILLER_16_377
*4971 FILLER_16_389
*4972 FILLER_16_401
*4973 FILLER_16_41
*4974 FILLER_16_413
*4975 FILLER_16_417
*4976 FILLER_16_419
*4977 FILLER_16_421
*4978 FILLER_16_433
*4979 FILLER_16_445
*4980 FILLER_16_457
*4981 FILLER_16_469
*4982 FILLER_16_473
*4983 FILLER_16_475
*4984 FILLER_16_477
*4985 FILLER_16_489
*4986 FILLER_16_501
*4987 FILLER_16_513
*4988 FILLER_16_525
*4989 FILLER_16_529
*4990 FILLER_16_53
*4991 FILLER_16_531
*4992 FILLER_16_533
*4993 FILLER_16_545
*4994 FILLER_16_557
*4995 FILLER_16_569
*4996 FILLER_16_581
*4997 FILLER_16_585
*4998 FILLER_16_587
*4999 FILLER_16_589
*5000 FILLER_16_601
*5001 FILLER_16_613
*5002 FILLER_16_625
*5003 FILLER_16_637
*5004 FILLER_16_641
*5005 FILLER_16_643
*5006 FILLER_16_645
*5007 FILLER_16_65
*5008 FILLER_16_657
*5009 FILLER_16_669
*5010 FILLER_16_681
*5011 FILLER_16_693
*5012 FILLER_16_697
*5013 FILLER_16_699
*5014 FILLER_16_701
*5015 FILLER_16_713
*5016 FILLER_16_725
*5017 FILLER_16_737
*5018 FILLER_16_749
*5019 FILLER_16_753
*5020 FILLER_16_755
*5021 FILLER_16_757
*5022 FILLER_16_769
*5023 FILLER_16_77
*5024 FILLER_16_781
*5025 FILLER_16_793
*5026 FILLER_16_805
*5027 FILLER_16_809
*5028 FILLER_16_81
*5029 FILLER_16_811
*5030 FILLER_16_813
*5031 FILLER_16_825
*5032 FILLER_16_83
*5033 FILLER_16_837
*5034 FILLER_16_841
*5035 FILLER_16_85
*5036 FILLER_16_97
*5037 FILLER_17_105
*5038 FILLER_17_109
*5039 FILLER_17_111
*5040 FILLER_17_113
*5041 FILLER_17_125
*5042 FILLER_17_137
*5043 FILLER_17_149
*5044 FILLER_17_15
*5045 FILLER_17_161
*5046 FILLER_17_165
*5047 FILLER_17_167
*5048 FILLER_17_169
*5049 FILLER_17_181
*5050 FILLER_17_193
*5051 FILLER_17_205
*5052 FILLER_17_217
*5053 FILLER_17_221
*5054 FILLER_17_223
*5055 FILLER_17_225
*5056 FILLER_17_237
*5057 FILLER_17_249
*5058 FILLER_17_261
*5059 FILLER_17_27
*5060 FILLER_17_273
*5061 FILLER_17_277
*5062 FILLER_17_279
*5063 FILLER_17_281
*5064 FILLER_17_293
*5065 FILLER_17_3
*5066 FILLER_17_305
*5067 FILLER_17_317
*5068 FILLER_17_329
*5069 FILLER_17_333
*5070 FILLER_17_335
*5071 FILLER_17_337
*5072 FILLER_17_349
*5073 FILLER_17_361
*5074 FILLER_17_373
*5075 FILLER_17_385
*5076 FILLER_17_389
*5077 FILLER_17_39
*5078 FILLER_17_391
*5079 FILLER_17_393
*5080 FILLER_17_405
*5081 FILLER_17_417
*5082 FILLER_17_429
*5083 FILLER_17_441
*5084 FILLER_17_445
*5085 FILLER_17_447
*5086 FILLER_17_449
*5087 FILLER_17_461
*5088 FILLER_17_473
*5089 FILLER_17_485
*5090 FILLER_17_497
*5091 FILLER_17_501
*5092 FILLER_17_503
*5093 FILLER_17_505
*5094 FILLER_17_51
*5095 FILLER_17_517
*5096 FILLER_17_529
*5097 FILLER_17_541
*5098 FILLER_17_55
*5099 FILLER_17_553
*5100 FILLER_17_557
*5101 FILLER_17_559
*5102 FILLER_17_561
*5103 FILLER_17_57
*5104 FILLER_17_573
*5105 FILLER_17_585
*5106 FILLER_17_597
*5107 FILLER_17_609
*5108 FILLER_17_613
*5109 FILLER_17_615
*5110 FILLER_17_617
*5111 FILLER_17_629
*5112 FILLER_17_641
*5113 FILLER_17_653
*5114 FILLER_17_665
*5115 FILLER_17_669
*5116 FILLER_17_671
*5117 FILLER_17_673
*5118 FILLER_17_685
*5119 FILLER_17_69
*5120 FILLER_17_697
*5121 FILLER_17_709
*5122 FILLER_17_721
*5123 FILLER_17_725
*5124 FILLER_17_727
*5125 FILLER_17_729
*5126 FILLER_17_741
*5127 FILLER_17_753
*5128 FILLER_17_765
*5129 FILLER_17_777
*5130 FILLER_17_781
*5131 FILLER_17_783
*5132 FILLER_17_785
*5133 FILLER_17_797
*5134 FILLER_17_809
*5135 FILLER_17_81
*5136 FILLER_17_821
*5137 FILLER_17_833
*5138 FILLER_17_837
*5139 FILLER_17_839
*5140 FILLER_17_841
*5141 FILLER_17_93
*5142 FILLER_18_109
*5143 FILLER_18_121
*5144 FILLER_18_133
*5145 FILLER_18_137
*5146 FILLER_18_139
*5147 FILLER_18_141
*5148 FILLER_18_15
*5149 FILLER_18_153
*5150 FILLER_18_165
*5151 FILLER_18_177
*5152 FILLER_18_189
*5153 FILLER_18_193
*5154 FILLER_18_195
*5155 FILLER_18_197
*5156 FILLER_18_209
*5157 FILLER_18_221
*5158 FILLER_18_233
*5159 FILLER_18_245
*5160 FILLER_18_249
*5161 FILLER_18_251
*5162 FILLER_18_253
*5163 FILLER_18_265
*5164 FILLER_18_27
*5165 FILLER_18_277
*5166 FILLER_18_289
*5167 FILLER_18_29
*5168 FILLER_18_3
*5169 FILLER_18_301
*5170 FILLER_18_305
*5171 FILLER_18_307
*5172 FILLER_18_309
*5173 FILLER_18_321
*5174 FILLER_18_333
*5175 FILLER_18_345
*5176 FILLER_18_357
*5177 FILLER_18_361
*5178 FILLER_18_363
*5179 FILLER_18_365
*5180 FILLER_18_377
*5181 FILLER_18_389
*5182 FILLER_18_401
*5183 FILLER_18_41
*5184 FILLER_18_413
*5185 FILLER_18_417
*5186 FILLER_18_419
*5187 FILLER_18_421
*5188 FILLER_18_433
*5189 FILLER_18_445
*5190 FILLER_18_457
*5191 FILLER_18_469
*5192 FILLER_18_473
*5193 FILLER_18_475
*5194 FILLER_18_477
*5195 FILLER_18_489
*5196 FILLER_18_501
*5197 FILLER_18_513
*5198 FILLER_18_525
*5199 FILLER_18_529
*5200 FILLER_18_53
*5201 FILLER_18_531
*5202 FILLER_18_533
*5203 FILLER_18_545
*5204 FILLER_18_557
*5205 FILLER_18_569
*5206 FILLER_18_581
*5207 FILLER_18_585
*5208 FILLER_18_587
*5209 FILLER_18_589
*5210 FILLER_18_601
*5211 FILLER_18_613
*5212 FILLER_18_625
*5213 FILLER_18_637
*5214 FILLER_18_641
*5215 FILLER_18_643
*5216 FILLER_18_645
*5217 FILLER_18_65
*5218 FILLER_18_657
*5219 FILLER_18_669
*5220 FILLER_18_681
*5221 FILLER_18_693
*5222 FILLER_18_697
*5223 FILLER_18_699
*5224 FILLER_18_701
*5225 FILLER_18_713
*5226 FILLER_18_725
*5227 FILLER_18_737
*5228 FILLER_18_749
*5229 FILLER_18_753
*5230 FILLER_18_755
*5231 FILLER_18_757
*5232 FILLER_18_769
*5233 FILLER_18_77
*5234 FILLER_18_781
*5235 FILLER_18_793
*5236 FILLER_18_805
*5237 FILLER_18_809
*5238 FILLER_18_81
*5239 FILLER_18_811
*5240 FILLER_18_813
*5241 FILLER_18_825
*5242 FILLER_18_83
*5243 FILLER_18_837
*5244 FILLER_18_841
*5245 FILLER_18_85
*5246 FILLER_18_97
*5247 FILLER_19_105
*5248 FILLER_19_109
*5249 FILLER_19_111
*5250 FILLER_19_113
*5251 FILLER_19_125
*5252 FILLER_19_137
*5253 FILLER_19_149
*5254 FILLER_19_15
*5255 FILLER_19_161
*5256 FILLER_19_165
*5257 FILLER_19_167
*5258 FILLER_19_169
*5259 FILLER_19_181
*5260 FILLER_19_193
*5261 FILLER_19_205
*5262 FILLER_19_217
*5263 FILLER_19_221
*5264 FILLER_19_223
*5265 FILLER_19_225
*5266 FILLER_19_237
*5267 FILLER_19_249
*5268 FILLER_19_261
*5269 FILLER_19_27
*5270 FILLER_19_273
*5271 FILLER_19_277
*5272 FILLER_19_279
*5273 FILLER_19_281
*5274 FILLER_19_293
*5275 FILLER_19_3
*5276 FILLER_19_305
*5277 FILLER_19_317
*5278 FILLER_19_329
*5279 FILLER_19_333
*5280 FILLER_19_335
*5281 FILLER_19_337
*5282 FILLER_19_349
*5283 FILLER_19_361
*5284 FILLER_19_373
*5285 FILLER_19_385
*5286 FILLER_19_389
*5287 FILLER_19_39
*5288 FILLER_19_391
*5289 FILLER_19_393
*5290 FILLER_19_405
*5291 FILLER_19_417
*5292 FILLER_19_429
*5293 FILLER_19_441
*5294 FILLER_19_445
*5295 FILLER_19_447
*5296 FILLER_19_449
*5297 FILLER_19_461
*5298 FILLER_19_473
*5299 FILLER_19_485
*5300 FILLER_19_497
*5301 FILLER_19_501
*5302 FILLER_19_503
*5303 FILLER_19_505
*5304 FILLER_19_51
*5305 FILLER_19_517
*5306 FILLER_19_529
*5307 FILLER_19_541
*5308 FILLER_19_55
*5309 FILLER_19_553
*5310 FILLER_19_557
*5311 FILLER_19_559
*5312 FILLER_19_561
*5313 FILLER_19_57
*5314 FILLER_19_573
*5315 FILLER_19_585
*5316 FILLER_19_597
*5317 FILLER_19_609
*5318 FILLER_19_613
*5319 FILLER_19_615
*5320 FILLER_19_617
*5321 FILLER_19_629
*5322 FILLER_19_641
*5323 FILLER_19_653
*5324 FILLER_19_665
*5325 FILLER_19_669
*5326 FILLER_19_671
*5327 FILLER_19_673
*5328 FILLER_19_685
*5329 FILLER_19_69
*5330 FILLER_19_697
*5331 FILLER_19_709
*5332 FILLER_19_721
*5333 FILLER_19_725
*5334 FILLER_19_727
*5335 FILLER_19_729
*5336 FILLER_19_741
*5337 FILLER_19_753
*5338 FILLER_19_765
*5339 FILLER_19_777
*5340 FILLER_19_781
*5341 FILLER_19_783
*5342 FILLER_19_785
*5343 FILLER_19_797
*5344 FILLER_19_809
*5345 FILLER_19_81
*5346 FILLER_19_821
*5347 FILLER_19_833
*5348 FILLER_19_837
*5349 FILLER_19_839
*5350 FILLER_19_841
*5351 FILLER_19_93
*5352 FILLER_1_105
*5353 FILLER_1_109
*5354 FILLER_1_111
*5355 FILLER_1_113
*5356 FILLER_1_125
*5357 FILLER_1_137
*5358 FILLER_1_149
*5359 FILLER_1_15
*5360 FILLER_1_161
*5361 FILLER_1_165
*5362 FILLER_1_167
*5363 FILLER_1_169
*5364 FILLER_1_181
*5365 FILLER_1_193
*5366 FILLER_1_205
*5367 FILLER_1_217
*5368 FILLER_1_221
*5369 FILLER_1_223
*5370 FILLER_1_225
*5371 FILLER_1_237
*5372 FILLER_1_249
*5373 FILLER_1_261
*5374 FILLER_1_27
*5375 FILLER_1_273
*5376 FILLER_1_277
*5377 FILLER_1_279
*5378 FILLER_1_281
*5379 FILLER_1_293
*5380 FILLER_1_3
*5381 FILLER_1_305
*5382 FILLER_1_317
*5383 FILLER_1_329
*5384 FILLER_1_333
*5385 FILLER_1_335
*5386 FILLER_1_337
*5387 FILLER_1_349
*5388 FILLER_1_361
*5389 FILLER_1_373
*5390 FILLER_1_385
*5391 FILLER_1_389
*5392 FILLER_1_39
*5393 FILLER_1_391
*5394 FILLER_1_393
*5395 FILLER_1_405
*5396 FILLER_1_417
*5397 FILLER_1_429
*5398 FILLER_1_441
*5399 FILLER_1_445
*5400 FILLER_1_447
*5401 FILLER_1_449
*5402 FILLER_1_461
*5403 FILLER_1_473
*5404 FILLER_1_485
*5405 FILLER_1_497
*5406 FILLER_1_501
*5407 FILLER_1_503
*5408 FILLER_1_505
*5409 FILLER_1_51
*5410 FILLER_1_517
*5411 FILLER_1_529
*5412 FILLER_1_541
*5413 FILLER_1_55
*5414 FILLER_1_553
*5415 FILLER_1_557
*5416 FILLER_1_559
*5417 FILLER_1_561
*5418 FILLER_1_57
*5419 FILLER_1_573
*5420 FILLER_1_585
*5421 FILLER_1_597
*5422 FILLER_1_609
*5423 FILLER_1_613
*5424 FILLER_1_615
*5425 FILLER_1_617
*5426 FILLER_1_629
*5427 FILLER_1_641
*5428 FILLER_1_653
*5429 FILLER_1_665
*5430 FILLER_1_669
*5431 FILLER_1_671
*5432 FILLER_1_673
*5433 FILLER_1_685
*5434 FILLER_1_69
*5435 FILLER_1_697
*5436 FILLER_1_709
*5437 FILLER_1_721
*5438 FILLER_1_725
*5439 FILLER_1_727
*5440 FILLER_1_729
*5441 FILLER_1_741
*5442 FILLER_1_753
*5443 FILLER_1_765
*5444 FILLER_1_777
*5445 FILLER_1_781
*5446 FILLER_1_783
*5447 FILLER_1_785
*5448 FILLER_1_797
*5449 FILLER_1_809
*5450 FILLER_1_81
*5451 FILLER_1_821
*5452 FILLER_1_833
*5453 FILLER_1_837
*5454 FILLER_1_839
*5455 FILLER_1_841
*5456 FILLER_1_93
*5457 FILLER_20_109
*5458 FILLER_20_121
*5459 FILLER_20_133
*5460 FILLER_20_137
*5461 FILLER_20_139
*5462 FILLER_20_141
*5463 FILLER_20_15
*5464 FILLER_20_153
*5465 FILLER_20_165
*5466 FILLER_20_177
*5467 FILLER_20_189
*5468 FILLER_20_193
*5469 FILLER_20_195
*5470 FILLER_20_197
*5471 FILLER_20_209
*5472 FILLER_20_221
*5473 FILLER_20_233
*5474 FILLER_20_245
*5475 FILLER_20_249
*5476 FILLER_20_251
*5477 FILLER_20_253
*5478 FILLER_20_265
*5479 FILLER_20_27
*5480 FILLER_20_277
*5481 FILLER_20_289
*5482 FILLER_20_29
*5483 FILLER_20_3
*5484 FILLER_20_301
*5485 FILLER_20_305
*5486 FILLER_20_307
*5487 FILLER_20_309
*5488 FILLER_20_321
*5489 FILLER_20_333
*5490 FILLER_20_345
*5491 FILLER_20_357
*5492 FILLER_20_361
*5493 FILLER_20_363
*5494 FILLER_20_365
*5495 FILLER_20_377
*5496 FILLER_20_389
*5497 FILLER_20_401
*5498 FILLER_20_41
*5499 FILLER_20_413
*5500 FILLER_20_417
*5501 FILLER_20_419
*5502 FILLER_20_421
*5503 FILLER_20_433
*5504 FILLER_20_445
*5505 FILLER_20_457
*5506 FILLER_20_469
*5507 FILLER_20_473
*5508 FILLER_20_475
*5509 FILLER_20_477
*5510 FILLER_20_489
*5511 FILLER_20_501
*5512 FILLER_20_513
*5513 FILLER_20_525
*5514 FILLER_20_529
*5515 FILLER_20_53
*5516 FILLER_20_531
*5517 FILLER_20_533
*5518 FILLER_20_545
*5519 FILLER_20_557
*5520 FILLER_20_569
*5521 FILLER_20_581
*5522 FILLER_20_585
*5523 FILLER_20_587
*5524 FILLER_20_589
*5525 FILLER_20_601
*5526 FILLER_20_613
*5527 FILLER_20_625
*5528 FILLER_20_637
*5529 FILLER_20_641
*5530 FILLER_20_643
*5531 FILLER_20_645
*5532 FILLER_20_65
*5533 FILLER_20_657
*5534 FILLER_20_669
*5535 FILLER_20_681
*5536 FILLER_20_693
*5537 FILLER_20_697
*5538 FILLER_20_699
*5539 FILLER_20_701
*5540 FILLER_20_713
*5541 FILLER_20_725
*5542 FILLER_20_737
*5543 FILLER_20_749
*5544 FILLER_20_753
*5545 FILLER_20_755
*5546 FILLER_20_757
*5547 FILLER_20_769
*5548 FILLER_20_77
*5549 FILLER_20_781
*5550 FILLER_20_793
*5551 FILLER_20_805
*5552 FILLER_20_809
*5553 FILLER_20_81
*5554 FILLER_20_811
*5555 FILLER_20_813
*5556 FILLER_20_825
*5557 FILLER_20_83
*5558 FILLER_20_837
*5559 FILLER_20_841
*5560 FILLER_20_85
*5561 FILLER_20_97
*5562 FILLER_21_105
*5563 FILLER_21_109
*5564 FILLER_21_111
*5565 FILLER_21_113
*5566 FILLER_21_125
*5567 FILLER_21_137
*5568 FILLER_21_149
*5569 FILLER_21_15
*5570 FILLER_21_161
*5571 FILLER_21_165
*5572 FILLER_21_167
*5573 FILLER_21_169
*5574 FILLER_21_181
*5575 FILLER_21_193
*5576 FILLER_21_205
*5577 FILLER_21_217
*5578 FILLER_21_221
*5579 FILLER_21_223
*5580 FILLER_21_225
*5581 FILLER_21_237
*5582 FILLER_21_249
*5583 FILLER_21_261
*5584 FILLER_21_27
*5585 FILLER_21_273
*5586 FILLER_21_277
*5587 FILLER_21_279
*5588 FILLER_21_281
*5589 FILLER_21_293
*5590 FILLER_21_3
*5591 FILLER_21_305
*5592 FILLER_21_317
*5593 FILLER_21_329
*5594 FILLER_21_333
*5595 FILLER_21_335
*5596 FILLER_21_337
*5597 FILLER_21_349
*5598 FILLER_21_361
*5599 FILLER_21_373
*5600 FILLER_21_385
*5601 FILLER_21_389
*5602 FILLER_21_39
*5603 FILLER_21_391
*5604 FILLER_21_393
*5605 FILLER_21_405
*5606 FILLER_21_417
*5607 FILLER_21_429
*5608 FILLER_21_441
*5609 FILLER_21_445
*5610 FILLER_21_447
*5611 FILLER_21_449
*5612 FILLER_21_461
*5613 FILLER_21_473
*5614 FILLER_21_485
*5615 FILLER_21_497
*5616 FILLER_21_501
*5617 FILLER_21_503
*5618 FILLER_21_505
*5619 FILLER_21_51
*5620 FILLER_21_517
*5621 FILLER_21_529
*5622 FILLER_21_541
*5623 FILLER_21_55
*5624 FILLER_21_553
*5625 FILLER_21_557
*5626 FILLER_21_559
*5627 FILLER_21_561
*5628 FILLER_21_57
*5629 FILLER_21_573
*5630 FILLER_21_585
*5631 FILLER_21_597
*5632 FILLER_21_609
*5633 FILLER_21_613
*5634 FILLER_21_615
*5635 FILLER_21_617
*5636 FILLER_21_629
*5637 FILLER_21_641
*5638 FILLER_21_653
*5639 FILLER_21_665
*5640 FILLER_21_669
*5641 FILLER_21_671
*5642 FILLER_21_673
*5643 FILLER_21_685
*5644 FILLER_21_69
*5645 FILLER_21_697
*5646 FILLER_21_709
*5647 FILLER_21_721
*5648 FILLER_21_725
*5649 FILLER_21_727
*5650 FILLER_21_729
*5651 FILLER_21_741
*5652 FILLER_21_753
*5653 FILLER_21_765
*5654 FILLER_21_777
*5655 FILLER_21_781
*5656 FILLER_21_783
*5657 FILLER_21_785
*5658 FILLER_21_797
*5659 FILLER_21_809
*5660 FILLER_21_81
*5661 FILLER_21_821
*5662 FILLER_21_833
*5663 FILLER_21_837
*5664 FILLER_21_839
*5665 FILLER_21_841
*5666 FILLER_21_93
*5667 FILLER_22_109
*5668 FILLER_22_121
*5669 FILLER_22_133
*5670 FILLER_22_137
*5671 FILLER_22_139
*5672 FILLER_22_141
*5673 FILLER_22_15
*5674 FILLER_22_153
*5675 FILLER_22_165
*5676 FILLER_22_177
*5677 FILLER_22_189
*5678 FILLER_22_193
*5679 FILLER_22_195
*5680 FILLER_22_197
*5681 FILLER_22_209
*5682 FILLER_22_221
*5683 FILLER_22_233
*5684 FILLER_22_245
*5685 FILLER_22_249
*5686 FILLER_22_251
*5687 FILLER_22_253
*5688 FILLER_22_265
*5689 FILLER_22_27
*5690 FILLER_22_277
*5691 FILLER_22_289
*5692 FILLER_22_29
*5693 FILLER_22_3
*5694 FILLER_22_301
*5695 FILLER_22_305
*5696 FILLER_22_307
*5697 FILLER_22_309
*5698 FILLER_22_321
*5699 FILLER_22_333
*5700 FILLER_22_345
*5701 FILLER_22_357
*5702 FILLER_22_361
*5703 FILLER_22_363
*5704 FILLER_22_365
*5705 FILLER_22_377
*5706 FILLER_22_389
*5707 FILLER_22_401
*5708 FILLER_22_41
*5709 FILLER_22_413
*5710 FILLER_22_417
*5711 FILLER_22_419
*5712 FILLER_22_421
*5713 FILLER_22_433
*5714 FILLER_22_445
*5715 FILLER_22_457
*5716 FILLER_22_469
*5717 FILLER_22_473
*5718 FILLER_22_475
*5719 FILLER_22_477
*5720 FILLER_22_489
*5721 FILLER_22_501
*5722 FILLER_22_513
*5723 FILLER_22_525
*5724 FILLER_22_529
*5725 FILLER_22_53
*5726 FILLER_22_531
*5727 FILLER_22_533
*5728 FILLER_22_545
*5729 FILLER_22_557
*5730 FILLER_22_569
*5731 FILLER_22_581
*5732 FILLER_22_585
*5733 FILLER_22_587
*5734 FILLER_22_589
*5735 FILLER_22_601
*5736 FILLER_22_613
*5737 FILLER_22_625
*5738 FILLER_22_637
*5739 FILLER_22_641
*5740 FILLER_22_643
*5741 FILLER_22_645
*5742 FILLER_22_65
*5743 FILLER_22_657
*5744 FILLER_22_669
*5745 FILLER_22_681
*5746 FILLER_22_693
*5747 FILLER_22_697
*5748 FILLER_22_699
*5749 FILLER_22_701
*5750 FILLER_22_713
*5751 FILLER_22_725
*5752 FILLER_22_737
*5753 FILLER_22_749
*5754 FILLER_22_753
*5755 FILLER_22_755
*5756 FILLER_22_757
*5757 FILLER_22_769
*5758 FILLER_22_77
*5759 FILLER_22_781
*5760 FILLER_22_793
*5761 FILLER_22_805
*5762 FILLER_22_809
*5763 FILLER_22_81
*5764 FILLER_22_811
*5765 FILLER_22_813
*5766 FILLER_22_825
*5767 FILLER_22_83
*5768 FILLER_22_837
*5769 FILLER_22_841
*5770 FILLER_22_85
*5771 FILLER_22_97
*5772 FILLER_23_105
*5773 FILLER_23_109
*5774 FILLER_23_111
*5775 FILLER_23_113
*5776 FILLER_23_125
*5777 FILLER_23_137
*5778 FILLER_23_149
*5779 FILLER_23_15
*5780 FILLER_23_161
*5781 FILLER_23_165
*5782 FILLER_23_167
*5783 FILLER_23_169
*5784 FILLER_23_181
*5785 FILLER_23_193
*5786 FILLER_23_205
*5787 FILLER_23_217
*5788 FILLER_23_221
*5789 FILLER_23_223
*5790 FILLER_23_225
*5791 FILLER_23_237
*5792 FILLER_23_249
*5793 FILLER_23_261
*5794 FILLER_23_27
*5795 FILLER_23_273
*5796 FILLER_23_277
*5797 FILLER_23_279
*5798 FILLER_23_281
*5799 FILLER_23_293
*5800 FILLER_23_3
*5801 FILLER_23_305
*5802 FILLER_23_317
*5803 FILLER_23_329
*5804 FILLER_23_333
*5805 FILLER_23_335
*5806 FILLER_23_337
*5807 FILLER_23_349
*5808 FILLER_23_361
*5809 FILLER_23_373
*5810 FILLER_23_385
*5811 FILLER_23_389
*5812 FILLER_23_39
*5813 FILLER_23_391
*5814 FILLER_23_393
*5815 FILLER_23_405
*5816 FILLER_23_417
*5817 FILLER_23_429
*5818 FILLER_23_441
*5819 FILLER_23_445
*5820 FILLER_23_447
*5821 FILLER_23_449
*5822 FILLER_23_461
*5823 FILLER_23_473
*5824 FILLER_23_485
*5825 FILLER_23_497
*5826 FILLER_23_501
*5827 FILLER_23_503
*5828 FILLER_23_505
*5829 FILLER_23_51
*5830 FILLER_23_517
*5831 FILLER_23_529
*5832 FILLER_23_541
*5833 FILLER_23_55
*5834 FILLER_23_553
*5835 FILLER_23_557
*5836 FILLER_23_559
*5837 FILLER_23_561
*5838 FILLER_23_57
*5839 FILLER_23_573
*5840 FILLER_23_585
*5841 FILLER_23_597
*5842 FILLER_23_609
*5843 FILLER_23_613
*5844 FILLER_23_615
*5845 FILLER_23_617
*5846 FILLER_23_629
*5847 FILLER_23_641
*5848 FILLER_23_653
*5849 FILLER_23_665
*5850 FILLER_23_669
*5851 FILLER_23_671
*5852 FILLER_23_673
*5853 FILLER_23_685
*5854 FILLER_23_69
*5855 FILLER_23_697
*5856 FILLER_23_709
*5857 FILLER_23_721
*5858 FILLER_23_725
*5859 FILLER_23_727
*5860 FILLER_23_729
*5861 FILLER_23_741
*5862 FILLER_23_753
*5863 FILLER_23_765
*5864 FILLER_23_777
*5865 FILLER_23_781
*5866 FILLER_23_783
*5867 FILLER_23_785
*5868 FILLER_23_797
*5869 FILLER_23_809
*5870 FILLER_23_81
*5871 FILLER_23_821
*5872 FILLER_23_833
*5873 FILLER_23_837
*5874 FILLER_23_839
*5875 FILLER_23_841
*5876 FILLER_23_93
*5877 FILLER_24_109
*5878 FILLER_24_121
*5879 FILLER_24_133
*5880 FILLER_24_137
*5881 FILLER_24_139
*5882 FILLER_24_141
*5883 FILLER_24_15
*5884 FILLER_24_153
*5885 FILLER_24_165
*5886 FILLER_24_177
*5887 FILLER_24_189
*5888 FILLER_24_193
*5889 FILLER_24_195
*5890 FILLER_24_197
*5891 FILLER_24_209
*5892 FILLER_24_221
*5893 FILLER_24_233
*5894 FILLER_24_245
*5895 FILLER_24_249
*5896 FILLER_24_251
*5897 FILLER_24_253
*5898 FILLER_24_265
*5899 FILLER_24_27
*5900 FILLER_24_277
*5901 FILLER_24_289
*5902 FILLER_24_29
*5903 FILLER_24_3
*5904 FILLER_24_301
*5905 FILLER_24_305
*5906 FILLER_24_307
*5907 FILLER_24_309
*5908 FILLER_24_321
*5909 FILLER_24_333
*5910 FILLER_24_345
*5911 FILLER_24_357
*5912 FILLER_24_361
*5913 FILLER_24_363
*5914 FILLER_24_365
*5915 FILLER_24_377
*5916 FILLER_24_389
*5917 FILLER_24_401
*5918 FILLER_24_41
*5919 FILLER_24_413
*5920 FILLER_24_417
*5921 FILLER_24_419
*5922 FILLER_24_421
*5923 FILLER_24_433
*5924 FILLER_24_445
*5925 FILLER_24_457
*5926 FILLER_24_469
*5927 FILLER_24_473
*5928 FILLER_24_475
*5929 FILLER_24_477
*5930 FILLER_24_489
*5931 FILLER_24_501
*5932 FILLER_24_513
*5933 FILLER_24_525
*5934 FILLER_24_529
*5935 FILLER_24_53
*5936 FILLER_24_531
*5937 FILLER_24_533
*5938 FILLER_24_545
*5939 FILLER_24_557
*5940 FILLER_24_569
*5941 FILLER_24_581
*5942 FILLER_24_585
*5943 FILLER_24_587
*5944 FILLER_24_589
*5945 FILLER_24_601
*5946 FILLER_24_613
*5947 FILLER_24_625
*5948 FILLER_24_637
*5949 FILLER_24_641
*5950 FILLER_24_643
*5951 FILLER_24_645
*5952 FILLER_24_65
*5953 FILLER_24_657
*5954 FILLER_24_669
*5955 FILLER_24_681
*5956 FILLER_24_693
*5957 FILLER_24_697
*5958 FILLER_24_699
*5959 FILLER_24_701
*5960 FILLER_24_713
*5961 FILLER_24_725
*5962 FILLER_24_737
*5963 FILLER_24_749
*5964 FILLER_24_753
*5965 FILLER_24_755
*5966 FILLER_24_757
*5967 FILLER_24_769
*5968 FILLER_24_77
*5969 FILLER_24_781
*5970 FILLER_24_793
*5971 FILLER_24_805
*5972 FILLER_24_809
*5973 FILLER_24_81
*5974 FILLER_24_811
*5975 FILLER_24_813
*5976 FILLER_24_825
*5977 FILLER_24_83
*5978 FILLER_24_837
*5979 FILLER_24_841
*5980 FILLER_24_85
*5981 FILLER_24_97
*5982 FILLER_25_105
*5983 FILLER_25_109
*5984 FILLER_25_111
*5985 FILLER_25_113
*5986 FILLER_25_125
*5987 FILLER_25_137
*5988 FILLER_25_149
*5989 FILLER_25_15
*5990 FILLER_25_161
*5991 FILLER_25_165
*5992 FILLER_25_167
*5993 FILLER_25_169
*5994 FILLER_25_181
*5995 FILLER_25_193
*5996 FILLER_25_205
*5997 FILLER_25_217
*5998 FILLER_25_221
*5999 FILLER_25_223
*6000 FILLER_25_225
*6001 FILLER_25_237
*6002 FILLER_25_249
*6003 FILLER_25_261
*6004 FILLER_25_27
*6005 FILLER_25_273
*6006 FILLER_25_277
*6007 FILLER_25_279
*6008 FILLER_25_281
*6009 FILLER_25_293
*6010 FILLER_25_3
*6011 FILLER_25_305
*6012 FILLER_25_317
*6013 FILLER_25_329
*6014 FILLER_25_333
*6015 FILLER_25_335
*6016 FILLER_25_337
*6017 FILLER_25_349
*6018 FILLER_25_361
*6019 FILLER_25_373
*6020 FILLER_25_385
*6021 FILLER_25_389
*6022 FILLER_25_39
*6023 FILLER_25_391
*6024 FILLER_25_393
*6025 FILLER_25_405
*6026 FILLER_25_417
*6027 FILLER_25_429
*6028 FILLER_25_441
*6029 FILLER_25_445
*6030 FILLER_25_447
*6031 FILLER_25_449
*6032 FILLER_25_461
*6033 FILLER_25_473
*6034 FILLER_25_485
*6035 FILLER_25_497
*6036 FILLER_25_501
*6037 FILLER_25_503
*6038 FILLER_25_505
*6039 FILLER_25_51
*6040 FILLER_25_517
*6041 FILLER_25_529
*6042 FILLER_25_541
*6043 FILLER_25_55
*6044 FILLER_25_553
*6045 FILLER_25_557
*6046 FILLER_25_559
*6047 FILLER_25_561
*6048 FILLER_25_57
*6049 FILLER_25_573
*6050 FILLER_25_585
*6051 FILLER_25_597
*6052 FILLER_25_609
*6053 FILLER_25_613
*6054 FILLER_25_615
*6055 FILLER_25_617
*6056 FILLER_25_629
*6057 FILLER_25_641
*6058 FILLER_25_653
*6059 FILLER_25_665
*6060 FILLER_25_669
*6061 FILLER_25_671
*6062 FILLER_25_673
*6063 FILLER_25_685
*6064 FILLER_25_69
*6065 FILLER_25_697
*6066 FILLER_25_709
*6067 FILLER_25_721
*6068 FILLER_25_725
*6069 FILLER_25_727
*6070 FILLER_25_729
*6071 FILLER_25_741
*6072 FILLER_25_753
*6073 FILLER_25_765
*6074 FILLER_25_777
*6075 FILLER_25_781
*6076 FILLER_25_783
*6077 FILLER_25_785
*6078 FILLER_25_797
*6079 FILLER_25_809
*6080 FILLER_25_81
*6081 FILLER_25_821
*6082 FILLER_25_833
*6083 FILLER_25_837
*6084 FILLER_25_839
*6085 FILLER_25_841
*6086 FILLER_25_93
*6087 FILLER_26_109
*6088 FILLER_26_121
*6089 FILLER_26_133
*6090 FILLER_26_137
*6091 FILLER_26_139
*6092 FILLER_26_141
*6093 FILLER_26_15
*6094 FILLER_26_153
*6095 FILLER_26_165
*6096 FILLER_26_177
*6097 FILLER_26_189
*6098 FILLER_26_193
*6099 FILLER_26_195
*6100 FILLER_26_197
*6101 FILLER_26_209
*6102 FILLER_26_221
*6103 FILLER_26_233
*6104 FILLER_26_245
*6105 FILLER_26_249
*6106 FILLER_26_251
*6107 FILLER_26_253
*6108 FILLER_26_265
*6109 FILLER_26_27
*6110 FILLER_26_277
*6111 FILLER_26_289
*6112 FILLER_26_29
*6113 FILLER_26_3
*6114 FILLER_26_301
*6115 FILLER_26_305
*6116 FILLER_26_307
*6117 FILLER_26_309
*6118 FILLER_26_321
*6119 FILLER_26_333
*6120 FILLER_26_345
*6121 FILLER_26_357
*6122 FILLER_26_361
*6123 FILLER_26_363
*6124 FILLER_26_365
*6125 FILLER_26_377
*6126 FILLER_26_389
*6127 FILLER_26_401
*6128 FILLER_26_41
*6129 FILLER_26_413
*6130 FILLER_26_417
*6131 FILLER_26_419
*6132 FILLER_26_421
*6133 FILLER_26_433
*6134 FILLER_26_445
*6135 FILLER_26_457
*6136 FILLER_26_469
*6137 FILLER_26_473
*6138 FILLER_26_475
*6139 FILLER_26_477
*6140 FILLER_26_489
*6141 FILLER_26_501
*6142 FILLER_26_513
*6143 FILLER_26_525
*6144 FILLER_26_529
*6145 FILLER_26_53
*6146 FILLER_26_531
*6147 FILLER_26_533
*6148 FILLER_26_545
*6149 FILLER_26_557
*6150 FILLER_26_569
*6151 FILLER_26_581
*6152 FILLER_26_585
*6153 FILLER_26_587
*6154 FILLER_26_589
*6155 FILLER_26_601
*6156 FILLER_26_613
*6157 FILLER_26_625
*6158 FILLER_26_637
*6159 FILLER_26_641
*6160 FILLER_26_643
*6161 FILLER_26_645
*6162 FILLER_26_65
*6163 FILLER_26_657
*6164 FILLER_26_669
*6165 FILLER_26_681
*6166 FILLER_26_693
*6167 FILLER_26_697
*6168 FILLER_26_699
*6169 FILLER_26_701
*6170 FILLER_26_713
*6171 FILLER_26_725
*6172 FILLER_26_737
*6173 FILLER_26_749
*6174 FILLER_26_753
*6175 FILLER_26_755
*6176 FILLER_26_757
*6177 FILLER_26_769
*6178 FILLER_26_77
*6179 FILLER_26_781
*6180 FILLER_26_793
*6181 FILLER_26_805
*6182 FILLER_26_809
*6183 FILLER_26_81
*6184 FILLER_26_811
*6185 FILLER_26_813
*6186 FILLER_26_825
*6187 FILLER_26_83
*6188 FILLER_26_837
*6189 FILLER_26_841
*6190 FILLER_26_85
*6191 FILLER_26_97
*6192 FILLER_27_105
*6193 FILLER_27_109
*6194 FILLER_27_111
*6195 FILLER_27_113
*6196 FILLER_27_125
*6197 FILLER_27_137
*6198 FILLER_27_149
*6199 FILLER_27_15
*6200 FILLER_27_161
*6201 FILLER_27_165
*6202 FILLER_27_167
*6203 FILLER_27_169
*6204 FILLER_27_181
*6205 FILLER_27_193
*6206 FILLER_27_205
*6207 FILLER_27_217
*6208 FILLER_27_221
*6209 FILLER_27_223
*6210 FILLER_27_225
*6211 FILLER_27_237
*6212 FILLER_27_249
*6213 FILLER_27_261
*6214 FILLER_27_27
*6215 FILLER_27_273
*6216 FILLER_27_277
*6217 FILLER_27_279
*6218 FILLER_27_281
*6219 FILLER_27_293
*6220 FILLER_27_3
*6221 FILLER_27_305
*6222 FILLER_27_317
*6223 FILLER_27_329
*6224 FILLER_27_333
*6225 FILLER_27_335
*6226 FILLER_27_337
*6227 FILLER_27_349
*6228 FILLER_27_361
*6229 FILLER_27_373
*6230 FILLER_27_385
*6231 FILLER_27_389
*6232 FILLER_27_39
*6233 FILLER_27_391
*6234 FILLER_27_393
*6235 FILLER_27_405
*6236 FILLER_27_417
*6237 FILLER_27_429
*6238 FILLER_27_441
*6239 FILLER_27_445
*6240 FILLER_27_447
*6241 FILLER_27_449
*6242 FILLER_27_461
*6243 FILLER_27_473
*6244 FILLER_27_485
*6245 FILLER_27_497
*6246 FILLER_27_501
*6247 FILLER_27_503
*6248 FILLER_27_505
*6249 FILLER_27_51
*6250 FILLER_27_517
*6251 FILLER_27_529
*6252 FILLER_27_541
*6253 FILLER_27_55
*6254 FILLER_27_553
*6255 FILLER_27_557
*6256 FILLER_27_559
*6257 FILLER_27_561
*6258 FILLER_27_57
*6259 FILLER_27_573
*6260 FILLER_27_585
*6261 FILLER_27_597
*6262 FILLER_27_609
*6263 FILLER_27_613
*6264 FILLER_27_615
*6265 FILLER_27_617
*6266 FILLER_27_629
*6267 FILLER_27_641
*6268 FILLER_27_653
*6269 FILLER_27_665
*6270 FILLER_27_669
*6271 FILLER_27_671
*6272 FILLER_27_673
*6273 FILLER_27_685
*6274 FILLER_27_69
*6275 FILLER_27_697
*6276 FILLER_27_709
*6277 FILLER_27_721
*6278 FILLER_27_725
*6279 FILLER_27_727
*6280 FILLER_27_729
*6281 FILLER_27_741
*6282 FILLER_27_753
*6283 FILLER_27_765
*6284 FILLER_27_777
*6285 FILLER_27_781
*6286 FILLER_27_783
*6287 FILLER_27_785
*6288 FILLER_27_797
*6289 FILLER_27_809
*6290 FILLER_27_81
*6291 FILLER_27_821
*6292 FILLER_27_833
*6293 FILLER_27_837
*6294 FILLER_27_839
*6295 FILLER_27_841
*6296 FILLER_27_93
*6297 FILLER_28_109
*6298 FILLER_28_121
*6299 FILLER_28_133
*6300 FILLER_28_137
*6301 FILLER_28_139
*6302 FILLER_28_141
*6303 FILLER_28_15
*6304 FILLER_28_153
*6305 FILLER_28_165
*6306 FILLER_28_177
*6307 FILLER_28_189
*6308 FILLER_28_193
*6309 FILLER_28_195
*6310 FILLER_28_197
*6311 FILLER_28_209
*6312 FILLER_28_221
*6313 FILLER_28_233
*6314 FILLER_28_245
*6315 FILLER_28_249
*6316 FILLER_28_251
*6317 FILLER_28_253
*6318 FILLER_28_265
*6319 FILLER_28_27
*6320 FILLER_28_277
*6321 FILLER_28_289
*6322 FILLER_28_29
*6323 FILLER_28_3
*6324 FILLER_28_301
*6325 FILLER_28_305
*6326 FILLER_28_307
*6327 FILLER_28_309
*6328 FILLER_28_321
*6329 FILLER_28_333
*6330 FILLER_28_345
*6331 FILLER_28_357
*6332 FILLER_28_361
*6333 FILLER_28_363
*6334 FILLER_28_365
*6335 FILLER_28_377
*6336 FILLER_28_389
*6337 FILLER_28_401
*6338 FILLER_28_41
*6339 FILLER_28_413
*6340 FILLER_28_417
*6341 FILLER_28_419
*6342 FILLER_28_421
*6343 FILLER_28_433
*6344 FILLER_28_445
*6345 FILLER_28_457
*6346 FILLER_28_469
*6347 FILLER_28_473
*6348 FILLER_28_475
*6349 FILLER_28_477
*6350 FILLER_28_489
*6351 FILLER_28_501
*6352 FILLER_28_513
*6353 FILLER_28_525
*6354 FILLER_28_529
*6355 FILLER_28_53
*6356 FILLER_28_531
*6357 FILLER_28_533
*6358 FILLER_28_545
*6359 FILLER_28_557
*6360 FILLER_28_569
*6361 FILLER_28_581
*6362 FILLER_28_585
*6363 FILLER_28_587
*6364 FILLER_28_589
*6365 FILLER_28_601
*6366 FILLER_28_613
*6367 FILLER_28_625
*6368 FILLER_28_637
*6369 FILLER_28_641
*6370 FILLER_28_643
*6371 FILLER_28_645
*6372 FILLER_28_65
*6373 FILLER_28_657
*6374 FILLER_28_669
*6375 FILLER_28_681
*6376 FILLER_28_693
*6377 FILLER_28_697
*6378 FILLER_28_699
*6379 FILLER_28_701
*6380 FILLER_28_713
*6381 FILLER_28_725
*6382 FILLER_28_737
*6383 FILLER_28_749
*6384 FILLER_28_753
*6385 FILLER_28_755
*6386 FILLER_28_757
*6387 FILLER_28_769
*6388 FILLER_28_77
*6389 FILLER_28_781
*6390 FILLER_28_793
*6391 FILLER_28_805
*6392 FILLER_28_809
*6393 FILLER_28_81
*6394 FILLER_28_811
*6395 FILLER_28_813
*6396 FILLER_28_825
*6397 FILLER_28_83
*6398 FILLER_28_837
*6399 FILLER_28_841
*6400 FILLER_28_85
*6401 FILLER_28_97
*6402 FILLER_29_105
*6403 FILLER_29_109
*6404 FILLER_29_111
*6405 FILLER_29_113
*6406 FILLER_29_125
*6407 FILLER_29_137
*6408 FILLER_29_149
*6409 FILLER_29_15
*6410 FILLER_29_161
*6411 FILLER_29_165
*6412 FILLER_29_167
*6413 FILLER_29_169
*6414 FILLER_29_181
*6415 FILLER_29_193
*6416 FILLER_29_205
*6417 FILLER_29_217
*6418 FILLER_29_221
*6419 FILLER_29_223
*6420 FILLER_29_225
*6421 FILLER_29_237
*6422 FILLER_29_249
*6423 FILLER_29_261
*6424 FILLER_29_27
*6425 FILLER_29_273
*6426 FILLER_29_277
*6427 FILLER_29_279
*6428 FILLER_29_281
*6429 FILLER_29_293
*6430 FILLER_29_3
*6431 FILLER_29_305
*6432 FILLER_29_317
*6433 FILLER_29_329
*6434 FILLER_29_333
*6435 FILLER_29_335
*6436 FILLER_29_337
*6437 FILLER_29_349
*6438 FILLER_29_361
*6439 FILLER_29_373
*6440 FILLER_29_385
*6441 FILLER_29_389
*6442 FILLER_29_39
*6443 FILLER_29_391
*6444 FILLER_29_393
*6445 FILLER_29_405
*6446 FILLER_29_417
*6447 FILLER_29_429
*6448 FILLER_29_441
*6449 FILLER_29_445
*6450 FILLER_29_447
*6451 FILLER_29_449
*6452 FILLER_29_461
*6453 FILLER_29_473
*6454 FILLER_29_485
*6455 FILLER_29_497
*6456 FILLER_29_501
*6457 FILLER_29_503
*6458 FILLER_29_505
*6459 FILLER_29_51
*6460 FILLER_29_517
*6461 FILLER_29_529
*6462 FILLER_29_541
*6463 FILLER_29_55
*6464 FILLER_29_553
*6465 FILLER_29_557
*6466 FILLER_29_559
*6467 FILLER_29_561
*6468 FILLER_29_57
*6469 FILLER_29_573
*6470 FILLER_29_585
*6471 FILLER_29_597
*6472 FILLER_29_609
*6473 FILLER_29_613
*6474 FILLER_29_615
*6475 FILLER_29_617
*6476 FILLER_29_629
*6477 FILLER_29_641
*6478 FILLER_29_653
*6479 FILLER_29_665
*6480 FILLER_29_669
*6481 FILLER_29_671
*6482 FILLER_29_673
*6483 FILLER_29_685
*6484 FILLER_29_69
*6485 FILLER_29_697
*6486 FILLER_29_709
*6487 FILLER_29_721
*6488 FILLER_29_725
*6489 FILLER_29_727
*6490 FILLER_29_729
*6491 FILLER_29_741
*6492 FILLER_29_753
*6493 FILLER_29_765
*6494 FILLER_29_777
*6495 FILLER_29_781
*6496 FILLER_29_783
*6497 FILLER_29_785
*6498 FILLER_29_797
*6499 FILLER_29_809
*6500 FILLER_29_81
*6501 FILLER_29_821
*6502 FILLER_29_833
*6503 FILLER_29_837
*6504 FILLER_29_839
*6505 FILLER_29_841
*6506 FILLER_29_93
*6507 FILLER_2_109
*6508 FILLER_2_121
*6509 FILLER_2_133
*6510 FILLER_2_137
*6511 FILLER_2_139
*6512 FILLER_2_141
*6513 FILLER_2_15
*6514 FILLER_2_153
*6515 FILLER_2_165
*6516 FILLER_2_177
*6517 FILLER_2_189
*6518 FILLER_2_193
*6519 FILLER_2_195
*6520 FILLER_2_197
*6521 FILLER_2_209
*6522 FILLER_2_221
*6523 FILLER_2_233
*6524 FILLER_2_245
*6525 FILLER_2_249
*6526 FILLER_2_251
*6527 FILLER_2_253
*6528 FILLER_2_265
*6529 FILLER_2_27
*6530 FILLER_2_277
*6531 FILLER_2_289
*6532 FILLER_2_29
*6533 FILLER_2_3
*6534 FILLER_2_301
*6535 FILLER_2_305
*6536 FILLER_2_307
*6537 FILLER_2_309
*6538 FILLER_2_321
*6539 FILLER_2_333
*6540 FILLER_2_345
*6541 FILLER_2_357
*6542 FILLER_2_361
*6543 FILLER_2_363
*6544 FILLER_2_365
*6545 FILLER_2_377
*6546 FILLER_2_389
*6547 FILLER_2_401
*6548 FILLER_2_41
*6549 FILLER_2_413
*6550 FILLER_2_417
*6551 FILLER_2_419
*6552 FILLER_2_421
*6553 FILLER_2_433
*6554 FILLER_2_445
*6555 FILLER_2_457
*6556 FILLER_2_469
*6557 FILLER_2_473
*6558 FILLER_2_475
*6559 FILLER_2_477
*6560 FILLER_2_489
*6561 FILLER_2_501
*6562 FILLER_2_513
*6563 FILLER_2_525
*6564 FILLER_2_529
*6565 FILLER_2_53
*6566 FILLER_2_531
*6567 FILLER_2_533
*6568 FILLER_2_545
*6569 FILLER_2_557
*6570 FILLER_2_569
*6571 FILLER_2_581
*6572 FILLER_2_585
*6573 FILLER_2_587
*6574 FILLER_2_589
*6575 FILLER_2_601
*6576 FILLER_2_613
*6577 FILLER_2_625
*6578 FILLER_2_637
*6579 FILLER_2_641
*6580 FILLER_2_643
*6581 FILLER_2_645
*6582 FILLER_2_65
*6583 FILLER_2_657
*6584 FILLER_2_669
*6585 FILLER_2_681
*6586 FILLER_2_693
*6587 FILLER_2_697
*6588 FILLER_2_699
*6589 FILLER_2_701
*6590 FILLER_2_713
*6591 FILLER_2_725
*6592 FILLER_2_737
*6593 FILLER_2_749
*6594 FILLER_2_753
*6595 FILLER_2_755
*6596 FILLER_2_757
*6597 FILLER_2_769
*6598 FILLER_2_77
*6599 FILLER_2_781
*6600 FILLER_2_793
*6601 FILLER_2_805
*6602 FILLER_2_809
*6603 FILLER_2_81
*6604 FILLER_2_811
*6605 FILLER_2_813
*6606 FILLER_2_825
*6607 FILLER_2_83
*6608 FILLER_2_837
*6609 FILLER_2_841
*6610 FILLER_2_85
*6611 FILLER_2_97
*6612 FILLER_30_109
*6613 FILLER_30_121
*6614 FILLER_30_133
*6615 FILLER_30_137
*6616 FILLER_30_139
*6617 FILLER_30_141
*6618 FILLER_30_15
*6619 FILLER_30_153
*6620 FILLER_30_165
*6621 FILLER_30_177
*6622 FILLER_30_189
*6623 FILLER_30_193
*6624 FILLER_30_195
*6625 FILLER_30_197
*6626 FILLER_30_209
*6627 FILLER_30_221
*6628 FILLER_30_233
*6629 FILLER_30_245
*6630 FILLER_30_249
*6631 FILLER_30_251
*6632 FILLER_30_253
*6633 FILLER_30_265
*6634 FILLER_30_27
*6635 FILLER_30_277
*6636 FILLER_30_289
*6637 FILLER_30_29
*6638 FILLER_30_3
*6639 FILLER_30_301
*6640 FILLER_30_305
*6641 FILLER_30_307
*6642 FILLER_30_309
*6643 FILLER_30_321
*6644 FILLER_30_333
*6645 FILLER_30_345
*6646 FILLER_30_357
*6647 FILLER_30_361
*6648 FILLER_30_363
*6649 FILLER_30_365
*6650 FILLER_30_377
*6651 FILLER_30_389
*6652 FILLER_30_401
*6653 FILLER_30_41
*6654 FILLER_30_413
*6655 FILLER_30_417
*6656 FILLER_30_419
*6657 FILLER_30_421
*6658 FILLER_30_433
*6659 FILLER_30_445
*6660 FILLER_30_457
*6661 FILLER_30_469
*6662 FILLER_30_473
*6663 FILLER_30_475
*6664 FILLER_30_477
*6665 FILLER_30_489
*6666 FILLER_30_501
*6667 FILLER_30_513
*6668 FILLER_30_525
*6669 FILLER_30_529
*6670 FILLER_30_53
*6671 FILLER_30_531
*6672 FILLER_30_533
*6673 FILLER_30_545
*6674 FILLER_30_557
*6675 FILLER_30_569
*6676 FILLER_30_581
*6677 FILLER_30_585
*6678 FILLER_30_587
*6679 FILLER_30_589
*6680 FILLER_30_601
*6681 FILLER_30_613
*6682 FILLER_30_625
*6683 FILLER_30_637
*6684 FILLER_30_641
*6685 FILLER_30_643
*6686 FILLER_30_645
*6687 FILLER_30_65
*6688 FILLER_30_657
*6689 FILLER_30_669
*6690 FILLER_30_681
*6691 FILLER_30_693
*6692 FILLER_30_697
*6693 FILLER_30_699
*6694 FILLER_30_701
*6695 FILLER_30_713
*6696 FILLER_30_725
*6697 FILLER_30_737
*6698 FILLER_30_749
*6699 FILLER_30_753
*6700 FILLER_30_755
*6701 FILLER_30_757
*6702 FILLER_30_769
*6703 FILLER_30_77
*6704 FILLER_30_781
*6705 FILLER_30_793
*6706 FILLER_30_805
*6707 FILLER_30_809
*6708 FILLER_30_81
*6709 FILLER_30_811
*6710 FILLER_30_813
*6711 FILLER_30_825
*6712 FILLER_30_83
*6713 FILLER_30_837
*6714 FILLER_30_841
*6715 FILLER_30_85
*6716 FILLER_30_97
*6717 FILLER_31_105
*6718 FILLER_31_109
*6719 FILLER_31_111
*6720 FILLER_31_113
*6721 FILLER_31_125
*6722 FILLER_31_137
*6723 FILLER_31_149
*6724 FILLER_31_15
*6725 FILLER_31_161
*6726 FILLER_31_165
*6727 FILLER_31_167
*6728 FILLER_31_169
*6729 FILLER_31_181
*6730 FILLER_31_193
*6731 FILLER_31_205
*6732 FILLER_31_217
*6733 FILLER_31_221
*6734 FILLER_31_223
*6735 FILLER_31_225
*6736 FILLER_31_237
*6737 FILLER_31_249
*6738 FILLER_31_261
*6739 FILLER_31_27
*6740 FILLER_31_273
*6741 FILLER_31_277
*6742 FILLER_31_279
*6743 FILLER_31_281
*6744 FILLER_31_293
*6745 FILLER_31_3
*6746 FILLER_31_305
*6747 FILLER_31_317
*6748 FILLER_31_329
*6749 FILLER_31_333
*6750 FILLER_31_335
*6751 FILLER_31_337
*6752 FILLER_31_349
*6753 FILLER_31_361
*6754 FILLER_31_373
*6755 FILLER_31_385
*6756 FILLER_31_389
*6757 FILLER_31_39
*6758 FILLER_31_391
*6759 FILLER_31_393
*6760 FILLER_31_405
*6761 FILLER_31_417
*6762 FILLER_31_429
*6763 FILLER_31_441
*6764 FILLER_31_445
*6765 FILLER_31_447
*6766 FILLER_31_449
*6767 FILLER_31_461
*6768 FILLER_31_473
*6769 FILLER_31_485
*6770 FILLER_31_497
*6771 FILLER_31_501
*6772 FILLER_31_503
*6773 FILLER_31_505
*6774 FILLER_31_51
*6775 FILLER_31_517
*6776 FILLER_31_529
*6777 FILLER_31_541
*6778 FILLER_31_55
*6779 FILLER_31_553
*6780 FILLER_31_557
*6781 FILLER_31_559
*6782 FILLER_31_561
*6783 FILLER_31_57
*6784 FILLER_31_573
*6785 FILLER_31_585
*6786 FILLER_31_597
*6787 FILLER_31_609
*6788 FILLER_31_613
*6789 FILLER_31_615
*6790 FILLER_31_617
*6791 FILLER_31_629
*6792 FILLER_31_641
*6793 FILLER_31_653
*6794 FILLER_31_665
*6795 FILLER_31_669
*6796 FILLER_31_671
*6797 FILLER_31_673
*6798 FILLER_31_685
*6799 FILLER_31_69
*6800 FILLER_31_697
*6801 FILLER_31_709
*6802 FILLER_31_721
*6803 FILLER_31_725
*6804 FILLER_31_727
*6805 FILLER_31_729
*6806 FILLER_31_741
*6807 FILLER_31_753
*6808 FILLER_31_765
*6809 FILLER_31_777
*6810 FILLER_31_781
*6811 FILLER_31_783
*6812 FILLER_31_785
*6813 FILLER_31_797
*6814 FILLER_31_809
*6815 FILLER_31_81
*6816 FILLER_31_821
*6817 FILLER_31_833
*6818 FILLER_31_837
*6819 FILLER_31_839
*6820 FILLER_31_841
*6821 FILLER_31_93
*6822 FILLER_32_109
*6823 FILLER_32_121
*6824 FILLER_32_133
*6825 FILLER_32_137
*6826 FILLER_32_139
*6827 FILLER_32_141
*6828 FILLER_32_15
*6829 FILLER_32_153
*6830 FILLER_32_165
*6831 FILLER_32_177
*6832 FILLER_32_189
*6833 FILLER_32_193
*6834 FILLER_32_195
*6835 FILLER_32_197
*6836 FILLER_32_209
*6837 FILLER_32_221
*6838 FILLER_32_233
*6839 FILLER_32_245
*6840 FILLER_32_249
*6841 FILLER_32_251
*6842 FILLER_32_253
*6843 FILLER_32_265
*6844 FILLER_32_27
*6845 FILLER_32_277
*6846 FILLER_32_289
*6847 FILLER_32_29
*6848 FILLER_32_3
*6849 FILLER_32_301
*6850 FILLER_32_305
*6851 FILLER_32_307
*6852 FILLER_32_309
*6853 FILLER_32_321
*6854 FILLER_32_333
*6855 FILLER_32_345
*6856 FILLER_32_357
*6857 FILLER_32_361
*6858 FILLER_32_363
*6859 FILLER_32_365
*6860 FILLER_32_377
*6861 FILLER_32_389
*6862 FILLER_32_401
*6863 FILLER_32_41
*6864 FILLER_32_413
*6865 FILLER_32_417
*6866 FILLER_32_419
*6867 FILLER_32_421
*6868 FILLER_32_433
*6869 FILLER_32_445
*6870 FILLER_32_457
*6871 FILLER_32_469
*6872 FILLER_32_473
*6873 FILLER_32_475
*6874 FILLER_32_477
*6875 FILLER_32_489
*6876 FILLER_32_501
*6877 FILLER_32_513
*6878 FILLER_32_525
*6879 FILLER_32_529
*6880 FILLER_32_53
*6881 FILLER_32_531
*6882 FILLER_32_533
*6883 FILLER_32_545
*6884 FILLER_32_557
*6885 FILLER_32_569
*6886 FILLER_32_581
*6887 FILLER_32_585
*6888 FILLER_32_587
*6889 FILLER_32_589
*6890 FILLER_32_601
*6891 FILLER_32_613
*6892 FILLER_32_625
*6893 FILLER_32_637
*6894 FILLER_32_641
*6895 FILLER_32_643
*6896 FILLER_32_645
*6897 FILLER_32_65
*6898 FILLER_32_657
*6899 FILLER_32_669
*6900 FILLER_32_681
*6901 FILLER_32_693
*6902 FILLER_32_697
*6903 FILLER_32_699
*6904 FILLER_32_701
*6905 FILLER_32_713
*6906 FILLER_32_725
*6907 FILLER_32_737
*6908 FILLER_32_749
*6909 FILLER_32_753
*6910 FILLER_32_755
*6911 FILLER_32_757
*6912 FILLER_32_769
*6913 FILLER_32_77
*6914 FILLER_32_781
*6915 FILLER_32_793
*6916 FILLER_32_805
*6917 FILLER_32_809
*6918 FILLER_32_81
*6919 FILLER_32_811
*6920 FILLER_32_813
*6921 FILLER_32_825
*6922 FILLER_32_83
*6923 FILLER_32_837
*6924 FILLER_32_841
*6925 FILLER_32_85
*6926 FILLER_32_97
*6927 FILLER_33_105
*6928 FILLER_33_109
*6929 FILLER_33_111
*6930 FILLER_33_113
*6931 FILLER_33_125
*6932 FILLER_33_137
*6933 FILLER_33_149
*6934 FILLER_33_15
*6935 FILLER_33_161
*6936 FILLER_33_165
*6937 FILLER_33_167
*6938 FILLER_33_169
*6939 FILLER_33_181
*6940 FILLER_33_193
*6941 FILLER_33_205
*6942 FILLER_33_217
*6943 FILLER_33_221
*6944 FILLER_33_223
*6945 FILLER_33_225
*6946 FILLER_33_237
*6947 FILLER_33_249
*6948 FILLER_33_261
*6949 FILLER_33_27
*6950 FILLER_33_273
*6951 FILLER_33_277
*6952 FILLER_33_279
*6953 FILLER_33_281
*6954 FILLER_33_293
*6955 FILLER_33_3
*6956 FILLER_33_305
*6957 FILLER_33_317
*6958 FILLER_33_329
*6959 FILLER_33_333
*6960 FILLER_33_335
*6961 FILLER_33_337
*6962 FILLER_33_349
*6963 FILLER_33_361
*6964 FILLER_33_373
*6965 FILLER_33_385
*6966 FILLER_33_389
*6967 FILLER_33_39
*6968 FILLER_33_391
*6969 FILLER_33_393
*6970 FILLER_33_405
*6971 FILLER_33_417
*6972 FILLER_33_429
*6973 FILLER_33_441
*6974 FILLER_33_445
*6975 FILLER_33_447
*6976 FILLER_33_449
*6977 FILLER_33_461
*6978 FILLER_33_473
*6979 FILLER_33_485
*6980 FILLER_33_497
*6981 FILLER_33_501
*6982 FILLER_33_503
*6983 FILLER_33_505
*6984 FILLER_33_51
*6985 FILLER_33_517
*6986 FILLER_33_529
*6987 FILLER_33_541
*6988 FILLER_33_55
*6989 FILLER_33_553
*6990 FILLER_33_557
*6991 FILLER_33_559
*6992 FILLER_33_561
*6993 FILLER_33_57
*6994 FILLER_33_573
*6995 FILLER_33_585
*6996 FILLER_33_597
*6997 FILLER_33_609
*6998 FILLER_33_613
*6999 FILLER_33_615
*7000 FILLER_33_617
*7001 FILLER_33_629
*7002 FILLER_33_641
*7003 FILLER_33_653
*7004 FILLER_33_665
*7005 FILLER_33_669
*7006 FILLER_33_671
*7007 FILLER_33_673
*7008 FILLER_33_685
*7009 FILLER_33_69
*7010 FILLER_33_697
*7011 FILLER_33_709
*7012 FILLER_33_721
*7013 FILLER_33_725
*7014 FILLER_33_727
*7015 FILLER_33_729
*7016 FILLER_33_741
*7017 FILLER_33_753
*7018 FILLER_33_765
*7019 FILLER_33_777
*7020 FILLER_33_781
*7021 FILLER_33_783
*7022 FILLER_33_785
*7023 FILLER_33_797
*7024 FILLER_33_809
*7025 FILLER_33_81
*7026 FILLER_33_821
*7027 FILLER_33_833
*7028 FILLER_33_837
*7029 FILLER_33_839
*7030 FILLER_33_841
*7031 FILLER_33_93
*7032 FILLER_34_109
*7033 FILLER_34_121
*7034 FILLER_34_133
*7035 FILLER_34_137
*7036 FILLER_34_139
*7037 FILLER_34_141
*7038 FILLER_34_15
*7039 FILLER_34_153
*7040 FILLER_34_165
*7041 FILLER_34_177
*7042 FILLER_34_189
*7043 FILLER_34_193
*7044 FILLER_34_195
*7045 FILLER_34_197
*7046 FILLER_34_209
*7047 FILLER_34_221
*7048 FILLER_34_233
*7049 FILLER_34_245
*7050 FILLER_34_249
*7051 FILLER_34_251
*7052 FILLER_34_253
*7053 FILLER_34_265
*7054 FILLER_34_27
*7055 FILLER_34_277
*7056 FILLER_34_289
*7057 FILLER_34_29
*7058 FILLER_34_3
*7059 FILLER_34_301
*7060 FILLER_34_305
*7061 FILLER_34_307
*7062 FILLER_34_309
*7063 FILLER_34_321
*7064 FILLER_34_333
*7065 FILLER_34_345
*7066 FILLER_34_357
*7067 FILLER_34_361
*7068 FILLER_34_363
*7069 FILLER_34_365
*7070 FILLER_34_377
*7071 FILLER_34_389
*7072 FILLER_34_401
*7073 FILLER_34_41
*7074 FILLER_34_413
*7075 FILLER_34_417
*7076 FILLER_34_419
*7077 FILLER_34_421
*7078 FILLER_34_433
*7079 FILLER_34_445
*7080 FILLER_34_457
*7081 FILLER_34_469
*7082 FILLER_34_473
*7083 FILLER_34_475
*7084 FILLER_34_477
*7085 FILLER_34_489
*7086 FILLER_34_501
*7087 FILLER_34_513
*7088 FILLER_34_525
*7089 FILLER_34_529
*7090 FILLER_34_53
*7091 FILLER_34_531
*7092 FILLER_34_533
*7093 FILLER_34_545
*7094 FILLER_34_557
*7095 FILLER_34_569
*7096 FILLER_34_581
*7097 FILLER_34_585
*7098 FILLER_34_587
*7099 FILLER_34_589
*7100 FILLER_34_601
*7101 FILLER_34_613
*7102 FILLER_34_625
*7103 FILLER_34_637
*7104 FILLER_34_641
*7105 FILLER_34_643
*7106 FILLER_34_645
*7107 FILLER_34_65
*7108 FILLER_34_657
*7109 FILLER_34_669
*7110 FILLER_34_681
*7111 FILLER_34_693
*7112 FILLER_34_697
*7113 FILLER_34_699
*7114 FILLER_34_701
*7115 FILLER_34_713
*7116 FILLER_34_725
*7117 FILLER_34_737
*7118 FILLER_34_749
*7119 FILLER_34_753
*7120 FILLER_34_755
*7121 FILLER_34_757
*7122 FILLER_34_769
*7123 FILLER_34_77
*7124 FILLER_34_781
*7125 FILLER_34_793
*7126 FILLER_34_805
*7127 FILLER_34_809
*7128 FILLER_34_81
*7129 FILLER_34_811
*7130 FILLER_34_813
*7131 FILLER_34_825
*7132 FILLER_34_83
*7133 FILLER_34_837
*7134 FILLER_34_841
*7135 FILLER_34_85
*7136 FILLER_34_97
*7137 FILLER_35_105
*7138 FILLER_35_109
*7139 FILLER_35_111
*7140 FILLER_35_113
*7141 FILLER_35_125
*7142 FILLER_35_137
*7143 FILLER_35_149
*7144 FILLER_35_15
*7145 FILLER_35_161
*7146 FILLER_35_165
*7147 FILLER_35_167
*7148 FILLER_35_169
*7149 FILLER_35_181
*7150 FILLER_35_193
*7151 FILLER_35_205
*7152 FILLER_35_217
*7153 FILLER_35_221
*7154 FILLER_35_223
*7155 FILLER_35_225
*7156 FILLER_35_237
*7157 FILLER_35_249
*7158 FILLER_35_261
*7159 FILLER_35_27
*7160 FILLER_35_273
*7161 FILLER_35_277
*7162 FILLER_35_279
*7163 FILLER_35_281
*7164 FILLER_35_293
*7165 FILLER_35_3
*7166 FILLER_35_305
*7167 FILLER_35_317
*7168 FILLER_35_329
*7169 FILLER_35_333
*7170 FILLER_35_335
*7171 FILLER_35_337
*7172 FILLER_35_349
*7173 FILLER_35_361
*7174 FILLER_35_373
*7175 FILLER_35_385
*7176 FILLER_35_389
*7177 FILLER_35_39
*7178 FILLER_35_391
*7179 FILLER_35_393
*7180 FILLER_35_405
*7181 FILLER_35_417
*7182 FILLER_35_429
*7183 FILLER_35_441
*7184 FILLER_35_445
*7185 FILLER_35_447
*7186 FILLER_35_449
*7187 FILLER_35_461
*7188 FILLER_35_473
*7189 FILLER_35_485
*7190 FILLER_35_497
*7191 FILLER_35_501
*7192 FILLER_35_503
*7193 FILLER_35_505
*7194 FILLER_35_51
*7195 FILLER_35_517
*7196 FILLER_35_529
*7197 FILLER_35_541
*7198 FILLER_35_55
*7199 FILLER_35_553
*7200 FILLER_35_557
*7201 FILLER_35_559
*7202 FILLER_35_561
*7203 FILLER_35_57
*7204 FILLER_35_573
*7205 FILLER_35_585
*7206 FILLER_35_597
*7207 FILLER_35_609
*7208 FILLER_35_613
*7209 FILLER_35_615
*7210 FILLER_35_617
*7211 FILLER_35_629
*7212 FILLER_35_641
*7213 FILLER_35_653
*7214 FILLER_35_665
*7215 FILLER_35_669
*7216 FILLER_35_671
*7217 FILLER_35_673
*7218 FILLER_35_685
*7219 FILLER_35_69
*7220 FILLER_35_697
*7221 FILLER_35_709
*7222 FILLER_35_721
*7223 FILLER_35_725
*7224 FILLER_35_727
*7225 FILLER_35_729
*7226 FILLER_35_741
*7227 FILLER_35_753
*7228 FILLER_35_765
*7229 FILLER_35_777
*7230 FILLER_35_781
*7231 FILLER_35_783
*7232 FILLER_35_785
*7233 FILLER_35_797
*7234 FILLER_35_809
*7235 FILLER_35_81
*7236 FILLER_35_821
*7237 FILLER_35_833
*7238 FILLER_35_837
*7239 FILLER_35_839
*7240 FILLER_35_841
*7241 FILLER_35_93
*7242 FILLER_36_109
*7243 FILLER_36_121
*7244 FILLER_36_133
*7245 FILLER_36_137
*7246 FILLER_36_139
*7247 FILLER_36_141
*7248 FILLER_36_15
*7249 FILLER_36_153
*7250 FILLER_36_165
*7251 FILLER_36_177
*7252 FILLER_36_189
*7253 FILLER_36_193
*7254 FILLER_36_195
*7255 FILLER_36_197
*7256 FILLER_36_209
*7257 FILLER_36_221
*7258 FILLER_36_233
*7259 FILLER_36_245
*7260 FILLER_36_249
*7261 FILLER_36_251
*7262 FILLER_36_253
*7263 FILLER_36_265
*7264 FILLER_36_27
*7265 FILLER_36_277
*7266 FILLER_36_289
*7267 FILLER_36_29
*7268 FILLER_36_3
*7269 FILLER_36_301
*7270 FILLER_36_305
*7271 FILLER_36_307
*7272 FILLER_36_309
*7273 FILLER_36_321
*7274 FILLER_36_333
*7275 FILLER_36_345
*7276 FILLER_36_357
*7277 FILLER_36_361
*7278 FILLER_36_363
*7279 FILLER_36_365
*7280 FILLER_36_377
*7281 FILLER_36_389
*7282 FILLER_36_401
*7283 FILLER_36_41
*7284 FILLER_36_413
*7285 FILLER_36_417
*7286 FILLER_36_419
*7287 FILLER_36_421
*7288 FILLER_36_433
*7289 FILLER_36_445
*7290 FILLER_36_457
*7291 FILLER_36_469
*7292 FILLER_36_473
*7293 FILLER_36_475
*7294 FILLER_36_477
*7295 FILLER_36_489
*7296 FILLER_36_501
*7297 FILLER_36_513
*7298 FILLER_36_525
*7299 FILLER_36_529
*7300 FILLER_36_53
*7301 FILLER_36_531
*7302 FILLER_36_533
*7303 FILLER_36_545
*7304 FILLER_36_557
*7305 FILLER_36_569
*7306 FILLER_36_581
*7307 FILLER_36_585
*7308 FILLER_36_587
*7309 FILLER_36_589
*7310 FILLER_36_601
*7311 FILLER_36_613
*7312 FILLER_36_625
*7313 FILLER_36_637
*7314 FILLER_36_641
*7315 FILLER_36_643
*7316 FILLER_36_645
*7317 FILLER_36_65
*7318 FILLER_36_657
*7319 FILLER_36_669
*7320 FILLER_36_681
*7321 FILLER_36_693
*7322 FILLER_36_697
*7323 FILLER_36_699
*7324 FILLER_36_701
*7325 FILLER_36_713
*7326 FILLER_36_725
*7327 FILLER_36_737
*7328 FILLER_36_749
*7329 FILLER_36_753
*7330 FILLER_36_755
*7331 FILLER_36_757
*7332 FILLER_36_769
*7333 FILLER_36_77
*7334 FILLER_36_781
*7335 FILLER_36_793
*7336 FILLER_36_805
*7337 FILLER_36_809
*7338 FILLER_36_81
*7339 FILLER_36_811
*7340 FILLER_36_813
*7341 FILLER_36_825
*7342 FILLER_36_83
*7343 FILLER_36_837
*7344 FILLER_36_841
*7345 FILLER_36_85
*7346 FILLER_36_97
*7347 FILLER_37_105
*7348 FILLER_37_109
*7349 FILLER_37_111
*7350 FILLER_37_113
*7351 FILLER_37_125
*7352 FILLER_37_137
*7353 FILLER_37_149
*7354 FILLER_37_15
*7355 FILLER_37_161
*7356 FILLER_37_165
*7357 FILLER_37_167
*7358 FILLER_37_169
*7359 FILLER_37_181
*7360 FILLER_37_193
*7361 FILLER_37_205
*7362 FILLER_37_217
*7363 FILLER_37_221
*7364 FILLER_37_223
*7365 FILLER_37_225
*7366 FILLER_37_237
*7367 FILLER_37_249
*7368 FILLER_37_261
*7369 FILLER_37_27
*7370 FILLER_37_273
*7371 FILLER_37_277
*7372 FILLER_37_279
*7373 FILLER_37_281
*7374 FILLER_37_293
*7375 FILLER_37_3
*7376 FILLER_37_305
*7377 FILLER_37_317
*7378 FILLER_37_329
*7379 FILLER_37_333
*7380 FILLER_37_335
*7381 FILLER_37_337
*7382 FILLER_37_349
*7383 FILLER_37_361
*7384 FILLER_37_373
*7385 FILLER_37_385
*7386 FILLER_37_389
*7387 FILLER_37_39
*7388 FILLER_37_391
*7389 FILLER_37_393
*7390 FILLER_37_405
*7391 FILLER_37_417
*7392 FILLER_37_429
*7393 FILLER_37_441
*7394 FILLER_37_445
*7395 FILLER_37_447
*7396 FILLER_37_449
*7397 FILLER_37_461
*7398 FILLER_37_473
*7399 FILLER_37_485
*7400 FILLER_37_497
*7401 FILLER_37_501
*7402 FILLER_37_503
*7403 FILLER_37_505
*7404 FILLER_37_51
*7405 FILLER_37_517
*7406 FILLER_37_529
*7407 FILLER_37_541
*7408 FILLER_37_55
*7409 FILLER_37_553
*7410 FILLER_37_557
*7411 FILLER_37_559
*7412 FILLER_37_561
*7413 FILLER_37_57
*7414 FILLER_37_573
*7415 FILLER_37_585
*7416 FILLER_37_597
*7417 FILLER_37_609
*7418 FILLER_37_613
*7419 FILLER_37_615
*7420 FILLER_37_617
*7421 FILLER_37_629
*7422 FILLER_37_641
*7423 FILLER_37_653
*7424 FILLER_37_665
*7425 FILLER_37_669
*7426 FILLER_37_671
*7427 FILLER_37_673
*7428 FILLER_37_685
*7429 FILLER_37_69
*7430 FILLER_37_697
*7431 FILLER_37_709
*7432 FILLER_37_721
*7433 FILLER_37_725
*7434 FILLER_37_727
*7435 FILLER_37_729
*7436 FILLER_37_741
*7437 FILLER_37_753
*7438 FILLER_37_765
*7439 FILLER_37_777
*7440 FILLER_37_781
*7441 FILLER_37_783
*7442 FILLER_37_785
*7443 FILLER_37_797
*7444 FILLER_37_809
*7445 FILLER_37_81
*7446 FILLER_37_821
*7447 FILLER_37_833
*7448 FILLER_37_837
*7449 FILLER_37_839
*7450 FILLER_37_841
*7451 FILLER_37_93
*7452 FILLER_38_109
*7453 FILLER_38_121
*7454 FILLER_38_133
*7455 FILLER_38_137
*7456 FILLER_38_139
*7457 FILLER_38_141
*7458 FILLER_38_15
*7459 FILLER_38_153
*7460 FILLER_38_165
*7461 FILLER_38_177
*7462 FILLER_38_189
*7463 FILLER_38_193
*7464 FILLER_38_195
*7465 FILLER_38_197
*7466 FILLER_38_209
*7467 FILLER_38_221
*7468 FILLER_38_233
*7469 FILLER_38_245
*7470 FILLER_38_249
*7471 FILLER_38_251
*7472 FILLER_38_253
*7473 FILLER_38_265
*7474 FILLER_38_27
*7475 FILLER_38_277
*7476 FILLER_38_289
*7477 FILLER_38_29
*7478 FILLER_38_3
*7479 FILLER_38_301
*7480 FILLER_38_305
*7481 FILLER_38_307
*7482 FILLER_38_309
*7483 FILLER_38_321
*7484 FILLER_38_333
*7485 FILLER_38_345
*7486 FILLER_38_357
*7487 FILLER_38_361
*7488 FILLER_38_363
*7489 FILLER_38_365
*7490 FILLER_38_377
*7491 FILLER_38_389
*7492 FILLER_38_401
*7493 FILLER_38_41
*7494 FILLER_38_413
*7495 FILLER_38_417
*7496 FILLER_38_419
*7497 FILLER_38_421
*7498 FILLER_38_433
*7499 FILLER_38_445
*7500 FILLER_38_457
*7501 FILLER_38_469
*7502 FILLER_38_473
*7503 FILLER_38_475
*7504 FILLER_38_477
*7505 FILLER_38_489
*7506 FILLER_38_501
*7507 FILLER_38_513
*7508 FILLER_38_525
*7509 FILLER_38_529
*7510 FILLER_38_53
*7511 FILLER_38_531
*7512 FILLER_38_533
*7513 FILLER_38_545
*7514 FILLER_38_557
*7515 FILLER_38_569
*7516 FILLER_38_581
*7517 FILLER_38_585
*7518 FILLER_38_587
*7519 FILLER_38_589
*7520 FILLER_38_601
*7521 FILLER_38_613
*7522 FILLER_38_625
*7523 FILLER_38_637
*7524 FILLER_38_641
*7525 FILLER_38_643
*7526 FILLER_38_645
*7527 FILLER_38_65
*7528 FILLER_38_657
*7529 FILLER_38_669
*7530 FILLER_38_681
*7531 FILLER_38_693
*7532 FILLER_38_697
*7533 FILLER_38_699
*7534 FILLER_38_701
*7535 FILLER_38_713
*7536 FILLER_38_725
*7537 FILLER_38_737
*7538 FILLER_38_749
*7539 FILLER_38_753
*7540 FILLER_38_755
*7541 FILLER_38_757
*7542 FILLER_38_769
*7543 FILLER_38_77
*7544 FILLER_38_781
*7545 FILLER_38_793
*7546 FILLER_38_805
*7547 FILLER_38_809
*7548 FILLER_38_81
*7549 FILLER_38_811
*7550 FILLER_38_813
*7551 FILLER_38_825
*7552 FILLER_38_83
*7553 FILLER_38_837
*7554 FILLER_38_841
*7555 FILLER_38_85
*7556 FILLER_38_97
*7557 FILLER_39_105
*7558 FILLER_39_109
*7559 FILLER_39_111
*7560 FILLER_39_113
*7561 FILLER_39_125
*7562 FILLER_39_137
*7563 FILLER_39_149
*7564 FILLER_39_15
*7565 FILLER_39_161
*7566 FILLER_39_165
*7567 FILLER_39_167
*7568 FILLER_39_169
*7569 FILLER_39_181
*7570 FILLER_39_193
*7571 FILLER_39_205
*7572 FILLER_39_217
*7573 FILLER_39_221
*7574 FILLER_39_223
*7575 FILLER_39_225
*7576 FILLER_39_237
*7577 FILLER_39_249
*7578 FILLER_39_261
*7579 FILLER_39_27
*7580 FILLER_39_273
*7581 FILLER_39_277
*7582 FILLER_39_279
*7583 FILLER_39_281
*7584 FILLER_39_293
*7585 FILLER_39_3
*7586 FILLER_39_305
*7587 FILLER_39_317
*7588 FILLER_39_329
*7589 FILLER_39_333
*7590 FILLER_39_335
*7591 FILLER_39_337
*7592 FILLER_39_349
*7593 FILLER_39_361
*7594 FILLER_39_373
*7595 FILLER_39_385
*7596 FILLER_39_389
*7597 FILLER_39_39
*7598 FILLER_39_391
*7599 FILLER_39_393
*7600 FILLER_39_405
*7601 FILLER_39_417
*7602 FILLER_39_429
*7603 FILLER_39_441
*7604 FILLER_39_445
*7605 FILLER_39_447
*7606 FILLER_39_449
*7607 FILLER_39_461
*7608 FILLER_39_473
*7609 FILLER_39_485
*7610 FILLER_39_497
*7611 FILLER_39_501
*7612 FILLER_39_503
*7613 FILLER_39_505
*7614 FILLER_39_51
*7615 FILLER_39_517
*7616 FILLER_39_529
*7617 FILLER_39_541
*7618 FILLER_39_55
*7619 FILLER_39_553
*7620 FILLER_39_557
*7621 FILLER_39_559
*7622 FILLER_39_561
*7623 FILLER_39_57
*7624 FILLER_39_573
*7625 FILLER_39_585
*7626 FILLER_39_597
*7627 FILLER_39_609
*7628 FILLER_39_613
*7629 FILLER_39_615
*7630 FILLER_39_617
*7631 FILLER_39_629
*7632 FILLER_39_641
*7633 FILLER_39_653
*7634 FILLER_39_665
*7635 FILLER_39_669
*7636 FILLER_39_671
*7637 FILLER_39_673
*7638 FILLER_39_685
*7639 FILLER_39_69
*7640 FILLER_39_697
*7641 FILLER_39_709
*7642 FILLER_39_721
*7643 FILLER_39_725
*7644 FILLER_39_727
*7645 FILLER_39_729
*7646 FILLER_39_741
*7647 FILLER_39_753
*7648 FILLER_39_765
*7649 FILLER_39_777
*7650 FILLER_39_781
*7651 FILLER_39_783
*7652 FILLER_39_785
*7653 FILLER_39_797
*7654 FILLER_39_809
*7655 FILLER_39_81
*7656 FILLER_39_821
*7657 FILLER_39_833
*7658 FILLER_39_837
*7659 FILLER_39_839
*7660 FILLER_39_841
*7661 FILLER_39_93
*7662 FILLER_3_105
*7663 FILLER_3_109
*7664 FILLER_3_111
*7665 FILLER_3_113
*7666 FILLER_3_125
*7667 FILLER_3_137
*7668 FILLER_3_149
*7669 FILLER_3_15
*7670 FILLER_3_161
*7671 FILLER_3_165
*7672 FILLER_3_167
*7673 FILLER_3_169
*7674 FILLER_3_181
*7675 FILLER_3_193
*7676 FILLER_3_205
*7677 FILLER_3_217
*7678 FILLER_3_221
*7679 FILLER_3_223
*7680 FILLER_3_225
*7681 FILLER_3_237
*7682 FILLER_3_249
*7683 FILLER_3_261
*7684 FILLER_3_27
*7685 FILLER_3_273
*7686 FILLER_3_277
*7687 FILLER_3_279
*7688 FILLER_3_281
*7689 FILLER_3_293
*7690 FILLER_3_3
*7691 FILLER_3_305
*7692 FILLER_3_317
*7693 FILLER_3_329
*7694 FILLER_3_333
*7695 FILLER_3_335
*7696 FILLER_3_337
*7697 FILLER_3_349
*7698 FILLER_3_361
*7699 FILLER_3_373
*7700 FILLER_3_385
*7701 FILLER_3_389
*7702 FILLER_3_39
*7703 FILLER_3_391
*7704 FILLER_3_393
*7705 FILLER_3_405
*7706 FILLER_3_417
*7707 FILLER_3_429
*7708 FILLER_3_441
*7709 FILLER_3_445
*7710 FILLER_3_447
*7711 FILLER_3_449
*7712 FILLER_3_461
*7713 FILLER_3_473
*7714 FILLER_3_485
*7715 FILLER_3_497
*7716 FILLER_3_501
*7717 FILLER_3_503
*7718 FILLER_3_505
*7719 FILLER_3_51
*7720 FILLER_3_517
*7721 FILLER_3_529
*7722 FILLER_3_541
*7723 FILLER_3_55
*7724 FILLER_3_553
*7725 FILLER_3_557
*7726 FILLER_3_559
*7727 FILLER_3_561
*7728 FILLER_3_57
*7729 FILLER_3_573
*7730 FILLER_3_585
*7731 FILLER_3_597
*7732 FILLER_3_609
*7733 FILLER_3_613
*7734 FILLER_3_615
*7735 FILLER_3_617
*7736 FILLER_3_629
*7737 FILLER_3_641
*7738 FILLER_3_653
*7739 FILLER_3_665
*7740 FILLER_3_669
*7741 FILLER_3_671
*7742 FILLER_3_673
*7743 FILLER_3_685
*7744 FILLER_3_69
*7745 FILLER_3_697
*7746 FILLER_3_709
*7747 FILLER_3_721
*7748 FILLER_3_725
*7749 FILLER_3_727
*7750 FILLER_3_729
*7751 FILLER_3_741
*7752 FILLER_3_753
*7753 FILLER_3_765
*7754 FILLER_3_777
*7755 FILLER_3_781
*7756 FILLER_3_783
*7757 FILLER_3_785
*7758 FILLER_3_797
*7759 FILLER_3_809
*7760 FILLER_3_81
*7761 FILLER_3_821
*7762 FILLER_3_833
*7763 FILLER_3_837
*7764 FILLER_3_839
*7765 FILLER_3_841
*7766 FILLER_3_93
*7767 FILLER_40_109
*7768 FILLER_40_121
*7769 FILLER_40_133
*7770 FILLER_40_137
*7771 FILLER_40_139
*7772 FILLER_40_141
*7773 FILLER_40_15
*7774 FILLER_40_153
*7775 FILLER_40_165
*7776 FILLER_40_177
*7777 FILLER_40_189
*7778 FILLER_40_193
*7779 FILLER_40_195
*7780 FILLER_40_197
*7781 FILLER_40_209
*7782 FILLER_40_221
*7783 FILLER_40_233
*7784 FILLER_40_245
*7785 FILLER_40_249
*7786 FILLER_40_251
*7787 FILLER_40_253
*7788 FILLER_40_265
*7789 FILLER_40_27
*7790 FILLER_40_277
*7791 FILLER_40_289
*7792 FILLER_40_29
*7793 FILLER_40_3
*7794 FILLER_40_301
*7795 FILLER_40_305
*7796 FILLER_40_307
*7797 FILLER_40_309
*7798 FILLER_40_321
*7799 FILLER_40_333
*7800 FILLER_40_345
*7801 FILLER_40_357
*7802 FILLER_40_361
*7803 FILLER_40_363
*7804 FILLER_40_365
*7805 FILLER_40_377
*7806 FILLER_40_389
*7807 FILLER_40_401
*7808 FILLER_40_41
*7809 FILLER_40_413
*7810 FILLER_40_417
*7811 FILLER_40_419
*7812 FILLER_40_421
*7813 FILLER_40_433
*7814 FILLER_40_445
*7815 FILLER_40_457
*7816 FILLER_40_469
*7817 FILLER_40_473
*7818 FILLER_40_475
*7819 FILLER_40_477
*7820 FILLER_40_489
*7821 FILLER_40_501
*7822 FILLER_40_513
*7823 FILLER_40_525
*7824 FILLER_40_529
*7825 FILLER_40_53
*7826 FILLER_40_531
*7827 FILLER_40_533
*7828 FILLER_40_545
*7829 FILLER_40_557
*7830 FILLER_40_569
*7831 FILLER_40_581
*7832 FILLER_40_585
*7833 FILLER_40_587
*7834 FILLER_40_589
*7835 FILLER_40_601
*7836 FILLER_40_613
*7837 FILLER_40_625
*7838 FILLER_40_637
*7839 FILLER_40_641
*7840 FILLER_40_643
*7841 FILLER_40_645
*7842 FILLER_40_65
*7843 FILLER_40_657
*7844 FILLER_40_669
*7845 FILLER_40_681
*7846 FILLER_40_693
*7847 FILLER_40_697
*7848 FILLER_40_699
*7849 FILLER_40_701
*7850 FILLER_40_713
*7851 FILLER_40_725
*7852 FILLER_40_737
*7853 FILLER_40_749
*7854 FILLER_40_753
*7855 FILLER_40_755
*7856 FILLER_40_757
*7857 FILLER_40_769
*7858 FILLER_40_77
*7859 FILLER_40_781
*7860 FILLER_40_793
*7861 FILLER_40_805
*7862 FILLER_40_809
*7863 FILLER_40_81
*7864 FILLER_40_811
*7865 FILLER_40_813
*7866 FILLER_40_825
*7867 FILLER_40_83
*7868 FILLER_40_837
*7869 FILLER_40_841
*7870 FILLER_40_85
*7871 FILLER_40_97
*7872 FILLER_41_105
*7873 FILLER_41_109
*7874 FILLER_41_111
*7875 FILLER_41_113
*7876 FILLER_41_125
*7877 FILLER_41_137
*7878 FILLER_41_149
*7879 FILLER_41_15
*7880 FILLER_41_161
*7881 FILLER_41_165
*7882 FILLER_41_167
*7883 FILLER_41_169
*7884 FILLER_41_181
*7885 FILLER_41_193
*7886 FILLER_41_205
*7887 FILLER_41_217
*7888 FILLER_41_221
*7889 FILLER_41_223
*7890 FILLER_41_225
*7891 FILLER_41_237
*7892 FILLER_41_249
*7893 FILLER_41_261
*7894 FILLER_41_27
*7895 FILLER_41_273
*7896 FILLER_41_277
*7897 FILLER_41_279
*7898 FILLER_41_281
*7899 FILLER_41_293
*7900 FILLER_41_3
*7901 FILLER_41_305
*7902 FILLER_41_317
*7903 FILLER_41_329
*7904 FILLER_41_333
*7905 FILLER_41_335
*7906 FILLER_41_337
*7907 FILLER_41_349
*7908 FILLER_41_361
*7909 FILLER_41_373
*7910 FILLER_41_385
*7911 FILLER_41_389
*7912 FILLER_41_39
*7913 FILLER_41_391
*7914 FILLER_41_393
*7915 FILLER_41_405
*7916 FILLER_41_417
*7917 FILLER_41_429
*7918 FILLER_41_441
*7919 FILLER_41_445
*7920 FILLER_41_447
*7921 FILLER_41_449
*7922 FILLER_41_461
*7923 FILLER_41_473
*7924 FILLER_41_485
*7925 FILLER_41_497
*7926 FILLER_41_501
*7927 FILLER_41_503
*7928 FILLER_41_505
*7929 FILLER_41_51
*7930 FILLER_41_517
*7931 FILLER_41_529
*7932 FILLER_41_541
*7933 FILLER_41_55
*7934 FILLER_41_553
*7935 FILLER_41_557
*7936 FILLER_41_559
*7937 FILLER_41_561
*7938 FILLER_41_57
*7939 FILLER_41_573
*7940 FILLER_41_585
*7941 FILLER_41_597
*7942 FILLER_41_609
*7943 FILLER_41_613
*7944 FILLER_41_615
*7945 FILLER_41_617
*7946 FILLER_41_629
*7947 FILLER_41_641
*7948 FILLER_41_653
*7949 FILLER_41_665
*7950 FILLER_41_669
*7951 FILLER_41_671
*7952 FILLER_41_673
*7953 FILLER_41_685
*7954 FILLER_41_69
*7955 FILLER_41_697
*7956 FILLER_41_709
*7957 FILLER_41_721
*7958 FILLER_41_725
*7959 FILLER_41_727
*7960 FILLER_41_729
*7961 FILLER_41_741
*7962 FILLER_41_753
*7963 FILLER_41_765
*7964 FILLER_41_777
*7965 FILLER_41_781
*7966 FILLER_41_783
*7967 FILLER_41_785
*7968 FILLER_41_797
*7969 FILLER_41_809
*7970 FILLER_41_81
*7971 FILLER_41_821
*7972 FILLER_41_833
*7973 FILLER_41_837
*7974 FILLER_41_839
*7975 FILLER_41_841
*7976 FILLER_41_93
*7977 FILLER_42_109
*7978 FILLER_42_121
*7979 FILLER_42_133
*7980 FILLER_42_137
*7981 FILLER_42_139
*7982 FILLER_42_141
*7983 FILLER_42_15
*7984 FILLER_42_153
*7985 FILLER_42_165
*7986 FILLER_42_177
*7987 FILLER_42_189
*7988 FILLER_42_193
*7989 FILLER_42_195
*7990 FILLER_42_197
*7991 FILLER_42_209
*7992 FILLER_42_221
*7993 FILLER_42_233
*7994 FILLER_42_245
*7995 FILLER_42_249
*7996 FILLER_42_251
*7997 FILLER_42_253
*7998 FILLER_42_265
*7999 FILLER_42_27
*8000 FILLER_42_277
*8001 FILLER_42_289
*8002 FILLER_42_29
*8003 FILLER_42_3
*8004 FILLER_42_301
*8005 FILLER_42_305
*8006 FILLER_42_307
*8007 FILLER_42_309
*8008 FILLER_42_321
*8009 FILLER_42_333
*8010 FILLER_42_345
*8011 FILLER_42_357
*8012 FILLER_42_361
*8013 FILLER_42_363
*8014 FILLER_42_365
*8015 FILLER_42_377
*8016 FILLER_42_389
*8017 FILLER_42_401
*8018 FILLER_42_41
*8019 FILLER_42_413
*8020 FILLER_42_417
*8021 FILLER_42_419
*8022 FILLER_42_421
*8023 FILLER_42_433
*8024 FILLER_42_445
*8025 FILLER_42_457
*8026 FILLER_42_469
*8027 FILLER_42_473
*8028 FILLER_42_475
*8029 FILLER_42_477
*8030 FILLER_42_489
*8031 FILLER_42_501
*8032 FILLER_42_513
*8033 FILLER_42_525
*8034 FILLER_42_529
*8035 FILLER_42_53
*8036 FILLER_42_531
*8037 FILLER_42_533
*8038 FILLER_42_545
*8039 FILLER_42_557
*8040 FILLER_42_569
*8041 FILLER_42_581
*8042 FILLER_42_585
*8043 FILLER_42_587
*8044 FILLER_42_589
*8045 FILLER_42_601
*8046 FILLER_42_613
*8047 FILLER_42_625
*8048 FILLER_42_637
*8049 FILLER_42_641
*8050 FILLER_42_643
*8051 FILLER_42_645
*8052 FILLER_42_65
*8053 FILLER_42_657
*8054 FILLER_42_669
*8055 FILLER_42_681
*8056 FILLER_42_693
*8057 FILLER_42_697
*8058 FILLER_42_699
*8059 FILLER_42_701
*8060 FILLER_42_713
*8061 FILLER_42_725
*8062 FILLER_42_737
*8063 FILLER_42_749
*8064 FILLER_42_753
*8065 FILLER_42_755
*8066 FILLER_42_757
*8067 FILLER_42_769
*8068 FILLER_42_77
*8069 FILLER_42_781
*8070 FILLER_42_793
*8071 FILLER_42_805
*8072 FILLER_42_809
*8073 FILLER_42_81
*8074 FILLER_42_811
*8075 FILLER_42_813
*8076 FILLER_42_825
*8077 FILLER_42_83
*8078 FILLER_42_837
*8079 FILLER_42_841
*8080 FILLER_42_85
*8081 FILLER_42_97
*8082 FILLER_43_105
*8083 FILLER_43_109
*8084 FILLER_43_111
*8085 FILLER_43_113
*8086 FILLER_43_125
*8087 FILLER_43_137
*8088 FILLER_43_149
*8089 FILLER_43_15
*8090 FILLER_43_161
*8091 FILLER_43_165
*8092 FILLER_43_167
*8093 FILLER_43_169
*8094 FILLER_43_181
*8095 FILLER_43_193
*8096 FILLER_43_205
*8097 FILLER_43_217
*8098 FILLER_43_221
*8099 FILLER_43_223
*8100 FILLER_43_225
*8101 FILLER_43_237
*8102 FILLER_43_249
*8103 FILLER_43_261
*8104 FILLER_43_27
*8105 FILLER_43_273
*8106 FILLER_43_277
*8107 FILLER_43_279
*8108 FILLER_43_281
*8109 FILLER_43_293
*8110 FILLER_43_3
*8111 FILLER_43_305
*8112 FILLER_43_317
*8113 FILLER_43_329
*8114 FILLER_43_333
*8115 FILLER_43_335
*8116 FILLER_43_337
*8117 FILLER_43_349
*8118 FILLER_43_361
*8119 FILLER_43_373
*8120 FILLER_43_385
*8121 FILLER_43_389
*8122 FILLER_43_39
*8123 FILLER_43_391
*8124 FILLER_43_393
*8125 FILLER_43_405
*8126 FILLER_43_417
*8127 FILLER_43_429
*8128 FILLER_43_441
*8129 FILLER_43_445
*8130 FILLER_43_447
*8131 FILLER_43_449
*8132 FILLER_43_461
*8133 FILLER_43_473
*8134 FILLER_43_485
*8135 FILLER_43_497
*8136 FILLER_43_501
*8137 FILLER_43_503
*8138 FILLER_43_505
*8139 FILLER_43_51
*8140 FILLER_43_517
*8141 FILLER_43_529
*8142 FILLER_43_541
*8143 FILLER_43_55
*8144 FILLER_43_553
*8145 FILLER_43_557
*8146 FILLER_43_559
*8147 FILLER_43_561
*8148 FILLER_43_57
*8149 FILLER_43_573
*8150 FILLER_43_585
*8151 FILLER_43_597
*8152 FILLER_43_609
*8153 FILLER_43_613
*8154 FILLER_43_615
*8155 FILLER_43_617
*8156 FILLER_43_629
*8157 FILLER_43_641
*8158 FILLER_43_653
*8159 FILLER_43_665
*8160 FILLER_43_669
*8161 FILLER_43_671
*8162 FILLER_43_673
*8163 FILLER_43_685
*8164 FILLER_43_69
*8165 FILLER_43_697
*8166 FILLER_43_709
*8167 FILLER_43_721
*8168 FILLER_43_725
*8169 FILLER_43_727
*8170 FILLER_43_729
*8171 FILLER_43_741
*8172 FILLER_43_753
*8173 FILLER_43_765
*8174 FILLER_43_777
*8175 FILLER_43_781
*8176 FILLER_43_783
*8177 FILLER_43_785
*8178 FILLER_43_797
*8179 FILLER_43_809
*8180 FILLER_43_81
*8181 FILLER_43_821
*8182 FILLER_43_833
*8183 FILLER_43_837
*8184 FILLER_43_839
*8185 FILLER_43_841
*8186 FILLER_43_93
*8187 FILLER_44_109
*8188 FILLER_44_121
*8189 FILLER_44_133
*8190 FILLER_44_137
*8191 FILLER_44_139
*8192 FILLER_44_141
*8193 FILLER_44_15
*8194 FILLER_44_153
*8195 FILLER_44_165
*8196 FILLER_44_177
*8197 FILLER_44_189
*8198 FILLER_44_193
*8199 FILLER_44_195
*8200 FILLER_44_197
*8201 FILLER_44_209
*8202 FILLER_44_221
*8203 FILLER_44_233
*8204 FILLER_44_245
*8205 FILLER_44_249
*8206 FILLER_44_251
*8207 FILLER_44_253
*8208 FILLER_44_265
*8209 FILLER_44_27
*8210 FILLER_44_277
*8211 FILLER_44_289
*8212 FILLER_44_29
*8213 FILLER_44_3
*8214 FILLER_44_301
*8215 FILLER_44_305
*8216 FILLER_44_307
*8217 FILLER_44_309
*8218 FILLER_44_321
*8219 FILLER_44_333
*8220 FILLER_44_345
*8221 FILLER_44_357
*8222 FILLER_44_361
*8223 FILLER_44_363
*8224 FILLER_44_365
*8225 FILLER_44_377
*8226 FILLER_44_389
*8227 FILLER_44_401
*8228 FILLER_44_41
*8229 FILLER_44_413
*8230 FILLER_44_417
*8231 FILLER_44_419
*8232 FILLER_44_421
*8233 FILLER_44_433
*8234 FILLER_44_445
*8235 FILLER_44_457
*8236 FILLER_44_469
*8237 FILLER_44_473
*8238 FILLER_44_475
*8239 FILLER_44_477
*8240 FILLER_44_489
*8241 FILLER_44_501
*8242 FILLER_44_513
*8243 FILLER_44_525
*8244 FILLER_44_529
*8245 FILLER_44_53
*8246 FILLER_44_531
*8247 FILLER_44_533
*8248 FILLER_44_545
*8249 FILLER_44_557
*8250 FILLER_44_569
*8251 FILLER_44_581
*8252 FILLER_44_585
*8253 FILLER_44_587
*8254 FILLER_44_589
*8255 FILLER_44_601
*8256 FILLER_44_613
*8257 FILLER_44_625
*8258 FILLER_44_637
*8259 FILLER_44_641
*8260 FILLER_44_643
*8261 FILLER_44_645
*8262 FILLER_44_65
*8263 FILLER_44_657
*8264 FILLER_44_669
*8265 FILLER_44_681
*8266 FILLER_44_693
*8267 FILLER_44_697
*8268 FILLER_44_699
*8269 FILLER_44_701
*8270 FILLER_44_713
*8271 FILLER_44_725
*8272 FILLER_44_737
*8273 FILLER_44_749
*8274 FILLER_44_753
*8275 FILLER_44_755
*8276 FILLER_44_757
*8277 FILLER_44_769
*8278 FILLER_44_77
*8279 FILLER_44_781
*8280 FILLER_44_793
*8281 FILLER_44_805
*8282 FILLER_44_809
*8283 FILLER_44_81
*8284 FILLER_44_811
*8285 FILLER_44_813
*8286 FILLER_44_825
*8287 FILLER_44_83
*8288 FILLER_44_837
*8289 FILLER_44_841
*8290 FILLER_44_85
*8291 FILLER_44_97
*8292 FILLER_45_105
*8293 FILLER_45_109
*8294 FILLER_45_111
*8295 FILLER_45_113
*8296 FILLER_45_125
*8297 FILLER_45_137
*8298 FILLER_45_149
*8299 FILLER_45_15
*8300 FILLER_45_161
*8301 FILLER_45_165
*8302 FILLER_45_167
*8303 FILLER_45_169
*8304 FILLER_45_181
*8305 FILLER_45_193
*8306 FILLER_45_205
*8307 FILLER_45_217
*8308 FILLER_45_221
*8309 FILLER_45_223
*8310 FILLER_45_225
*8311 FILLER_45_237
*8312 FILLER_45_249
*8313 FILLER_45_261
*8314 FILLER_45_27
*8315 FILLER_45_273
*8316 FILLER_45_277
*8317 FILLER_45_279
*8318 FILLER_45_281
*8319 FILLER_45_293
*8320 FILLER_45_3
*8321 FILLER_45_305
*8322 FILLER_45_317
*8323 FILLER_45_329
*8324 FILLER_45_333
*8325 FILLER_45_335
*8326 FILLER_45_337
*8327 FILLER_45_349
*8328 FILLER_45_361
*8329 FILLER_45_373
*8330 FILLER_45_385
*8331 FILLER_45_389
*8332 FILLER_45_39
*8333 FILLER_45_391
*8334 FILLER_45_393
*8335 FILLER_45_405
*8336 FILLER_45_417
*8337 FILLER_45_429
*8338 FILLER_45_441
*8339 FILLER_45_445
*8340 FILLER_45_447
*8341 FILLER_45_449
*8342 FILLER_45_461
*8343 FILLER_45_473
*8344 FILLER_45_485
*8345 FILLER_45_497
*8346 FILLER_45_501
*8347 FILLER_45_503
*8348 FILLER_45_505
*8349 FILLER_45_51
*8350 FILLER_45_517
*8351 FILLER_45_529
*8352 FILLER_45_541
*8353 FILLER_45_55
*8354 FILLER_45_553
*8355 FILLER_45_557
*8356 FILLER_45_559
*8357 FILLER_45_561
*8358 FILLER_45_57
*8359 FILLER_45_573
*8360 FILLER_45_585
*8361 FILLER_45_597
*8362 FILLER_45_609
*8363 FILLER_45_613
*8364 FILLER_45_615
*8365 FILLER_45_617
*8366 FILLER_45_629
*8367 FILLER_45_641
*8368 FILLER_45_653
*8369 FILLER_45_665
*8370 FILLER_45_669
*8371 FILLER_45_671
*8372 FILLER_45_673
*8373 FILLER_45_685
*8374 FILLER_45_69
*8375 FILLER_45_697
*8376 FILLER_45_709
*8377 FILLER_45_721
*8378 FILLER_45_725
*8379 FILLER_45_727
*8380 FILLER_45_729
*8381 FILLER_45_741
*8382 FILLER_45_753
*8383 FILLER_45_765
*8384 FILLER_45_777
*8385 FILLER_45_781
*8386 FILLER_45_783
*8387 FILLER_45_785
*8388 FILLER_45_797
*8389 FILLER_45_809
*8390 FILLER_45_81
*8391 FILLER_45_821
*8392 FILLER_45_833
*8393 FILLER_45_837
*8394 FILLER_45_839
*8395 FILLER_45_841
*8396 FILLER_45_93
*8397 FILLER_46_109
*8398 FILLER_46_121
*8399 FILLER_46_133
*8400 FILLER_46_137
*8401 FILLER_46_139
*8402 FILLER_46_141
*8403 FILLER_46_15
*8404 FILLER_46_153
*8405 FILLER_46_165
*8406 FILLER_46_177
*8407 FILLER_46_189
*8408 FILLER_46_193
*8409 FILLER_46_195
*8410 FILLER_46_197
*8411 FILLER_46_209
*8412 FILLER_46_221
*8413 FILLER_46_233
*8414 FILLER_46_245
*8415 FILLER_46_249
*8416 FILLER_46_251
*8417 FILLER_46_253
*8418 FILLER_46_265
*8419 FILLER_46_27
*8420 FILLER_46_277
*8421 FILLER_46_289
*8422 FILLER_46_29
*8423 FILLER_46_3
*8424 FILLER_46_301
*8425 FILLER_46_305
*8426 FILLER_46_307
*8427 FILLER_46_309
*8428 FILLER_46_321
*8429 FILLER_46_333
*8430 FILLER_46_345
*8431 FILLER_46_357
*8432 FILLER_46_361
*8433 FILLER_46_363
*8434 FILLER_46_365
*8435 FILLER_46_377
*8436 FILLER_46_389
*8437 FILLER_46_401
*8438 FILLER_46_41
*8439 FILLER_46_413
*8440 FILLER_46_417
*8441 FILLER_46_419
*8442 FILLER_46_421
*8443 FILLER_46_433
*8444 FILLER_46_445
*8445 FILLER_46_457
*8446 FILLER_46_469
*8447 FILLER_46_473
*8448 FILLER_46_475
*8449 FILLER_46_477
*8450 FILLER_46_489
*8451 FILLER_46_501
*8452 FILLER_46_513
*8453 FILLER_46_525
*8454 FILLER_46_529
*8455 FILLER_46_53
*8456 FILLER_46_531
*8457 FILLER_46_533
*8458 FILLER_46_545
*8459 FILLER_46_557
*8460 FILLER_46_569
*8461 FILLER_46_581
*8462 FILLER_46_585
*8463 FILLER_46_587
*8464 FILLER_46_589
*8465 FILLER_46_601
*8466 FILLER_46_613
*8467 FILLER_46_625
*8468 FILLER_46_637
*8469 FILLER_46_641
*8470 FILLER_46_643
*8471 FILLER_46_645
*8472 FILLER_46_65
*8473 FILLER_46_657
*8474 FILLER_46_669
*8475 FILLER_46_681
*8476 FILLER_46_693
*8477 FILLER_46_697
*8478 FILLER_46_699
*8479 FILLER_46_701
*8480 FILLER_46_713
*8481 FILLER_46_725
*8482 FILLER_46_737
*8483 FILLER_46_749
*8484 FILLER_46_753
*8485 FILLER_46_755
*8486 FILLER_46_757
*8487 FILLER_46_769
*8488 FILLER_46_77
*8489 FILLER_46_781
*8490 FILLER_46_793
*8491 FILLER_46_805
*8492 FILLER_46_809
*8493 FILLER_46_81
*8494 FILLER_46_811
*8495 FILLER_46_813
*8496 FILLER_46_825
*8497 FILLER_46_83
*8498 FILLER_46_837
*8499 FILLER_46_841
*8500 FILLER_46_85
*8501 FILLER_46_97
*8502 FILLER_47_105
*8503 FILLER_47_109
*8504 FILLER_47_111
*8505 FILLER_47_113
*8506 FILLER_47_125
*8507 FILLER_47_137
*8508 FILLER_47_149
*8509 FILLER_47_15
*8510 FILLER_47_161
*8511 FILLER_47_165
*8512 FILLER_47_167
*8513 FILLER_47_169
*8514 FILLER_47_181
*8515 FILLER_47_193
*8516 FILLER_47_205
*8517 FILLER_47_217
*8518 FILLER_47_221
*8519 FILLER_47_223
*8520 FILLER_47_225
*8521 FILLER_47_237
*8522 FILLER_47_249
*8523 FILLER_47_261
*8524 FILLER_47_27
*8525 FILLER_47_273
*8526 FILLER_47_277
*8527 FILLER_47_279
*8528 FILLER_47_281
*8529 FILLER_47_293
*8530 FILLER_47_3
*8531 FILLER_47_305
*8532 FILLER_47_317
*8533 FILLER_47_329
*8534 FILLER_47_333
*8535 FILLER_47_335
*8536 FILLER_47_337
*8537 FILLER_47_349
*8538 FILLER_47_361
*8539 FILLER_47_373
*8540 FILLER_47_385
*8541 FILLER_47_389
*8542 FILLER_47_39
*8543 FILLER_47_391
*8544 FILLER_47_393
*8545 FILLER_47_405
*8546 FILLER_47_417
*8547 FILLER_47_429
*8548 FILLER_47_441
*8549 FILLER_47_445
*8550 FILLER_47_447
*8551 FILLER_47_449
*8552 FILLER_47_461
*8553 FILLER_47_473
*8554 FILLER_47_485
*8555 FILLER_47_497
*8556 FILLER_47_501
*8557 FILLER_47_503
*8558 FILLER_47_505
*8559 FILLER_47_51
*8560 FILLER_47_517
*8561 FILLER_47_529
*8562 FILLER_47_541
*8563 FILLER_47_55
*8564 FILLER_47_553
*8565 FILLER_47_557
*8566 FILLER_47_559
*8567 FILLER_47_561
*8568 FILLER_47_57
*8569 FILLER_47_573
*8570 FILLER_47_585
*8571 FILLER_47_597
*8572 FILLER_47_609
*8573 FILLER_47_613
*8574 FILLER_47_615
*8575 FILLER_47_617
*8576 FILLER_47_629
*8577 FILLER_47_641
*8578 FILLER_47_653
*8579 FILLER_47_665
*8580 FILLER_47_669
*8581 FILLER_47_671
*8582 FILLER_47_673
*8583 FILLER_47_685
*8584 FILLER_47_69
*8585 FILLER_47_697
*8586 FILLER_47_709
*8587 FILLER_47_721
*8588 FILLER_47_725
*8589 FILLER_47_727
*8590 FILLER_47_729
*8591 FILLER_47_741
*8592 FILLER_47_753
*8593 FILLER_47_765
*8594 FILLER_47_777
*8595 FILLER_47_781
*8596 FILLER_47_783
*8597 FILLER_47_785
*8598 FILLER_47_797
*8599 FILLER_47_809
*8600 FILLER_47_81
*8601 FILLER_47_821
*8602 FILLER_47_833
*8603 FILLER_47_837
*8604 FILLER_47_839
*8605 FILLER_47_841
*8606 FILLER_47_93
*8607 FILLER_48_109
*8608 FILLER_48_121
*8609 FILLER_48_133
*8610 FILLER_48_137
*8611 FILLER_48_139
*8612 FILLER_48_141
*8613 FILLER_48_15
*8614 FILLER_48_153
*8615 FILLER_48_165
*8616 FILLER_48_177
*8617 FILLER_48_189
*8618 FILLER_48_193
*8619 FILLER_48_195
*8620 FILLER_48_197
*8621 FILLER_48_209
*8622 FILLER_48_221
*8623 FILLER_48_233
*8624 FILLER_48_245
*8625 FILLER_48_249
*8626 FILLER_48_251
*8627 FILLER_48_253
*8628 FILLER_48_265
*8629 FILLER_48_27
*8630 FILLER_48_277
*8631 FILLER_48_289
*8632 FILLER_48_29
*8633 FILLER_48_3
*8634 FILLER_48_301
*8635 FILLER_48_305
*8636 FILLER_48_307
*8637 FILLER_48_309
*8638 FILLER_48_321
*8639 FILLER_48_333
*8640 FILLER_48_345
*8641 FILLER_48_357
*8642 FILLER_48_361
*8643 FILLER_48_363
*8644 FILLER_48_365
*8645 FILLER_48_377
*8646 FILLER_48_389
*8647 FILLER_48_401
*8648 FILLER_48_41
*8649 FILLER_48_413
*8650 FILLER_48_417
*8651 FILLER_48_419
*8652 FILLER_48_421
*8653 FILLER_48_433
*8654 FILLER_48_445
*8655 FILLER_48_457
*8656 FILLER_48_469
*8657 FILLER_48_473
*8658 FILLER_48_475
*8659 FILLER_48_477
*8660 FILLER_48_489
*8661 FILLER_48_501
*8662 FILLER_48_513
*8663 FILLER_48_525
*8664 FILLER_48_529
*8665 FILLER_48_53
*8666 FILLER_48_531
*8667 FILLER_48_533
*8668 FILLER_48_545
*8669 FILLER_48_557
*8670 FILLER_48_569
*8671 FILLER_48_581
*8672 FILLER_48_585
*8673 FILLER_48_587
*8674 FILLER_48_589
*8675 FILLER_48_601
*8676 FILLER_48_613
*8677 FILLER_48_625
*8678 FILLER_48_637
*8679 FILLER_48_641
*8680 FILLER_48_643
*8681 FILLER_48_645
*8682 FILLER_48_65
*8683 FILLER_48_657
*8684 FILLER_48_669
*8685 FILLER_48_681
*8686 FILLER_48_693
*8687 FILLER_48_697
*8688 FILLER_48_699
*8689 FILLER_48_701
*8690 FILLER_48_713
*8691 FILLER_48_725
*8692 FILLER_48_737
*8693 FILLER_48_749
*8694 FILLER_48_753
*8695 FILLER_48_755
*8696 FILLER_48_757
*8697 FILLER_48_769
*8698 FILLER_48_77
*8699 FILLER_48_781
*8700 FILLER_48_793
*8701 FILLER_48_805
*8702 FILLER_48_809
*8703 FILLER_48_81
*8704 FILLER_48_811
*8705 FILLER_48_813
*8706 FILLER_48_825
*8707 FILLER_48_83
*8708 FILLER_48_837
*8709 FILLER_48_841
*8710 FILLER_48_85
*8711 FILLER_48_97
*8712 FILLER_49_105
*8713 FILLER_49_109
*8714 FILLER_49_111
*8715 FILLER_49_113
*8716 FILLER_49_125
*8717 FILLER_49_137
*8718 FILLER_49_149
*8719 FILLER_49_15
*8720 FILLER_49_161
*8721 FILLER_49_165
*8722 FILLER_49_167
*8723 FILLER_49_169
*8724 FILLER_49_181
*8725 FILLER_49_193
*8726 FILLER_49_205
*8727 FILLER_49_217
*8728 FILLER_49_221
*8729 FILLER_49_223
*8730 FILLER_49_225
*8731 FILLER_49_237
*8732 FILLER_49_249
*8733 FILLER_49_261
*8734 FILLER_49_27
*8735 FILLER_49_273
*8736 FILLER_49_277
*8737 FILLER_49_279
*8738 FILLER_49_281
*8739 FILLER_49_293
*8740 FILLER_49_3
*8741 FILLER_49_305
*8742 FILLER_49_317
*8743 FILLER_49_329
*8744 FILLER_49_333
*8745 FILLER_49_335
*8746 FILLER_49_337
*8747 FILLER_49_349
*8748 FILLER_49_361
*8749 FILLER_49_373
*8750 FILLER_49_385
*8751 FILLER_49_389
*8752 FILLER_49_39
*8753 FILLER_49_391
*8754 FILLER_49_393
*8755 FILLER_49_405
*8756 FILLER_49_417
*8757 FILLER_49_429
*8758 FILLER_49_441
*8759 FILLER_49_445
*8760 FILLER_49_447
*8761 FILLER_49_449
*8762 FILLER_49_461
*8763 FILLER_49_473
*8764 FILLER_49_485
*8765 FILLER_49_497
*8766 FILLER_49_501
*8767 FILLER_49_503
*8768 FILLER_49_505
*8769 FILLER_49_51
*8770 FILLER_49_517
*8771 FILLER_49_529
*8772 FILLER_49_541
*8773 FILLER_49_55
*8774 FILLER_49_553
*8775 FILLER_49_557
*8776 FILLER_49_559
*8777 FILLER_49_561
*8778 FILLER_49_57
*8779 FILLER_49_573
*8780 FILLER_49_585
*8781 FILLER_49_597
*8782 FILLER_49_609
*8783 FILLER_49_613
*8784 FILLER_49_615
*8785 FILLER_49_617
*8786 FILLER_49_629
*8787 FILLER_49_641
*8788 FILLER_49_653
*8789 FILLER_49_665
*8790 FILLER_49_669
*8791 FILLER_49_671
*8792 FILLER_49_673
*8793 FILLER_49_685
*8794 FILLER_49_69
*8795 FILLER_49_697
*8796 FILLER_49_709
*8797 FILLER_49_721
*8798 FILLER_49_725
*8799 FILLER_49_727
*8800 FILLER_49_729
*8801 FILLER_49_741
*8802 FILLER_49_753
*8803 FILLER_49_765
*8804 FILLER_49_777
*8805 FILLER_49_781
*8806 FILLER_49_783
*8807 FILLER_49_785
*8808 FILLER_49_797
*8809 FILLER_49_809
*8810 FILLER_49_81
*8811 FILLER_49_821
*8812 FILLER_49_833
*8813 FILLER_49_837
*8814 FILLER_49_839
*8815 FILLER_49_841
*8816 FILLER_49_93
*8817 FILLER_4_109
*8818 FILLER_4_121
*8819 FILLER_4_133
*8820 FILLER_4_137
*8821 FILLER_4_139
*8822 FILLER_4_141
*8823 FILLER_4_15
*8824 FILLER_4_153
*8825 FILLER_4_165
*8826 FILLER_4_177
*8827 FILLER_4_189
*8828 FILLER_4_193
*8829 FILLER_4_195
*8830 FILLER_4_197
*8831 FILLER_4_209
*8832 FILLER_4_221
*8833 FILLER_4_233
*8834 FILLER_4_245
*8835 FILLER_4_249
*8836 FILLER_4_251
*8837 FILLER_4_253
*8838 FILLER_4_265
*8839 FILLER_4_27
*8840 FILLER_4_277
*8841 FILLER_4_289
*8842 FILLER_4_29
*8843 FILLER_4_3
*8844 FILLER_4_301
*8845 FILLER_4_305
*8846 FILLER_4_307
*8847 FILLER_4_309
*8848 FILLER_4_321
*8849 FILLER_4_333
*8850 FILLER_4_345
*8851 FILLER_4_357
*8852 FILLER_4_361
*8853 FILLER_4_363
*8854 FILLER_4_365
*8855 FILLER_4_377
*8856 FILLER_4_389
*8857 FILLER_4_401
*8858 FILLER_4_41
*8859 FILLER_4_413
*8860 FILLER_4_417
*8861 FILLER_4_419
*8862 FILLER_4_421
*8863 FILLER_4_433
*8864 FILLER_4_445
*8865 FILLER_4_457
*8866 FILLER_4_469
*8867 FILLER_4_473
*8868 FILLER_4_475
*8869 FILLER_4_477
*8870 FILLER_4_489
*8871 FILLER_4_501
*8872 FILLER_4_513
*8873 FILLER_4_525
*8874 FILLER_4_529
*8875 FILLER_4_53
*8876 FILLER_4_531
*8877 FILLER_4_533
*8878 FILLER_4_545
*8879 FILLER_4_557
*8880 FILLER_4_569
*8881 FILLER_4_581
*8882 FILLER_4_585
*8883 FILLER_4_587
*8884 FILLER_4_589
*8885 FILLER_4_601
*8886 FILLER_4_613
*8887 FILLER_4_625
*8888 FILLER_4_637
*8889 FILLER_4_641
*8890 FILLER_4_643
*8891 FILLER_4_645
*8892 FILLER_4_65
*8893 FILLER_4_657
*8894 FILLER_4_669
*8895 FILLER_4_681
*8896 FILLER_4_693
*8897 FILLER_4_697
*8898 FILLER_4_699
*8899 FILLER_4_701
*8900 FILLER_4_713
*8901 FILLER_4_725
*8902 FILLER_4_737
*8903 FILLER_4_749
*8904 FILLER_4_753
*8905 FILLER_4_755
*8906 FILLER_4_757
*8907 FILLER_4_769
*8908 FILLER_4_77
*8909 FILLER_4_781
*8910 FILLER_4_793
*8911 FILLER_4_805
*8912 FILLER_4_809
*8913 FILLER_4_81
*8914 FILLER_4_811
*8915 FILLER_4_813
*8916 FILLER_4_825
*8917 FILLER_4_83
*8918 FILLER_4_837
*8919 FILLER_4_841
*8920 FILLER_4_85
*8921 FILLER_4_97
*8922 FILLER_50_109
*8923 FILLER_50_121
*8924 FILLER_50_133
*8925 FILLER_50_137
*8926 FILLER_50_139
*8927 FILLER_50_141
*8928 FILLER_50_15
*8929 FILLER_50_153
*8930 FILLER_50_165
*8931 FILLER_50_177
*8932 FILLER_50_189
*8933 FILLER_50_193
*8934 FILLER_50_195
*8935 FILLER_50_197
*8936 FILLER_50_209
*8937 FILLER_50_221
*8938 FILLER_50_233
*8939 FILLER_50_245
*8940 FILLER_50_249
*8941 FILLER_50_251
*8942 FILLER_50_253
*8943 FILLER_50_265
*8944 FILLER_50_27
*8945 FILLER_50_277
*8946 FILLER_50_289
*8947 FILLER_50_29
*8948 FILLER_50_3
*8949 FILLER_50_301
*8950 FILLER_50_305
*8951 FILLER_50_307
*8952 FILLER_50_309
*8953 FILLER_50_321
*8954 FILLER_50_333
*8955 FILLER_50_345
*8956 FILLER_50_357
*8957 FILLER_50_361
*8958 FILLER_50_363
*8959 FILLER_50_365
*8960 FILLER_50_377
*8961 FILLER_50_389
*8962 FILLER_50_401
*8963 FILLER_50_41
*8964 FILLER_50_413
*8965 FILLER_50_417
*8966 FILLER_50_419
*8967 FILLER_50_421
*8968 FILLER_50_433
*8969 FILLER_50_445
*8970 FILLER_50_457
*8971 FILLER_50_469
*8972 FILLER_50_473
*8973 FILLER_50_475
*8974 FILLER_50_477
*8975 FILLER_50_489
*8976 FILLER_50_501
*8977 FILLER_50_513
*8978 FILLER_50_525
*8979 FILLER_50_529
*8980 FILLER_50_53
*8981 FILLER_50_531
*8982 FILLER_50_533
*8983 FILLER_50_545
*8984 FILLER_50_557
*8985 FILLER_50_569
*8986 FILLER_50_581
*8987 FILLER_50_585
*8988 FILLER_50_587
*8989 FILLER_50_589
*8990 FILLER_50_601
*8991 FILLER_50_613
*8992 FILLER_50_625
*8993 FILLER_50_637
*8994 FILLER_50_641
*8995 FILLER_50_643
*8996 FILLER_50_645
*8997 FILLER_50_65
*8998 FILLER_50_657
*8999 FILLER_50_669
*9000 FILLER_50_681
*9001 FILLER_50_693
*9002 FILLER_50_697
*9003 FILLER_50_699
*9004 FILLER_50_701
*9005 FILLER_50_713
*9006 FILLER_50_725
*9007 FILLER_50_737
*9008 FILLER_50_749
*9009 FILLER_50_753
*9010 FILLER_50_755
*9011 FILLER_50_757
*9012 FILLER_50_769
*9013 FILLER_50_77
*9014 FILLER_50_781
*9015 FILLER_50_793
*9016 FILLER_50_805
*9017 FILLER_50_809
*9018 FILLER_50_81
*9019 FILLER_50_811
*9020 FILLER_50_813
*9021 FILLER_50_825
*9022 FILLER_50_83
*9023 FILLER_50_837
*9024 FILLER_50_841
*9025 FILLER_50_85
*9026 FILLER_50_97
*9027 FILLER_51_105
*9028 FILLER_51_109
*9029 FILLER_51_111
*9030 FILLER_51_113
*9031 FILLER_51_125
*9032 FILLER_51_137
*9033 FILLER_51_149
*9034 FILLER_51_15
*9035 FILLER_51_161
*9036 FILLER_51_165
*9037 FILLER_51_167
*9038 FILLER_51_169
*9039 FILLER_51_181
*9040 FILLER_51_193
*9041 FILLER_51_205
*9042 FILLER_51_217
*9043 FILLER_51_221
*9044 FILLER_51_223
*9045 FILLER_51_225
*9046 FILLER_51_237
*9047 FILLER_51_249
*9048 FILLER_51_261
*9049 FILLER_51_27
*9050 FILLER_51_273
*9051 FILLER_51_277
*9052 FILLER_51_279
*9053 FILLER_51_281
*9054 FILLER_51_293
*9055 FILLER_51_3
*9056 FILLER_51_305
*9057 FILLER_51_317
*9058 FILLER_51_329
*9059 FILLER_51_333
*9060 FILLER_51_335
*9061 FILLER_51_337
*9062 FILLER_51_349
*9063 FILLER_51_361
*9064 FILLER_51_373
*9065 FILLER_51_385
*9066 FILLER_51_389
*9067 FILLER_51_39
*9068 FILLER_51_391
*9069 FILLER_51_393
*9070 FILLER_51_405
*9071 FILLER_51_417
*9072 FILLER_51_429
*9073 FILLER_51_441
*9074 FILLER_51_445
*9075 FILLER_51_447
*9076 FILLER_51_449
*9077 FILLER_51_461
*9078 FILLER_51_473
*9079 FILLER_51_485
*9080 FILLER_51_497
*9081 FILLER_51_501
*9082 FILLER_51_503
*9083 FILLER_51_505
*9084 FILLER_51_51
*9085 FILLER_51_517
*9086 FILLER_51_529
*9087 FILLER_51_541
*9088 FILLER_51_55
*9089 FILLER_51_553
*9090 FILLER_51_557
*9091 FILLER_51_559
*9092 FILLER_51_561
*9093 FILLER_51_57
*9094 FILLER_51_573
*9095 FILLER_51_585
*9096 FILLER_51_597
*9097 FILLER_51_609
*9098 FILLER_51_613
*9099 FILLER_51_615
*9100 FILLER_51_617
*9101 FILLER_51_629
*9102 FILLER_51_641
*9103 FILLER_51_653
*9104 FILLER_51_665
*9105 FILLER_51_669
*9106 FILLER_51_671
*9107 FILLER_51_673
*9108 FILLER_51_685
*9109 FILLER_51_69
*9110 FILLER_51_697
*9111 FILLER_51_709
*9112 FILLER_51_721
*9113 FILLER_51_725
*9114 FILLER_51_727
*9115 FILLER_51_729
*9116 FILLER_51_741
*9117 FILLER_51_753
*9118 FILLER_51_765
*9119 FILLER_51_777
*9120 FILLER_51_781
*9121 FILLER_51_783
*9122 FILLER_51_785
*9123 FILLER_51_797
*9124 FILLER_51_809
*9125 FILLER_51_81
*9126 FILLER_51_821
*9127 FILLER_51_833
*9128 FILLER_51_837
*9129 FILLER_51_839
*9130 FILLER_51_841
*9131 FILLER_51_93
*9132 FILLER_52_109
*9133 FILLER_52_121
*9134 FILLER_52_133
*9135 FILLER_52_137
*9136 FILLER_52_139
*9137 FILLER_52_141
*9138 FILLER_52_15
*9139 FILLER_52_153
*9140 FILLER_52_165
*9141 FILLER_52_177
*9142 FILLER_52_189
*9143 FILLER_52_193
*9144 FILLER_52_195
*9145 FILLER_52_197
*9146 FILLER_52_209
*9147 FILLER_52_221
*9148 FILLER_52_233
*9149 FILLER_52_245
*9150 FILLER_52_249
*9151 FILLER_52_251
*9152 FILLER_52_253
*9153 FILLER_52_265
*9154 FILLER_52_27
*9155 FILLER_52_277
*9156 FILLER_52_289
*9157 FILLER_52_29
*9158 FILLER_52_3
*9159 FILLER_52_301
*9160 FILLER_52_305
*9161 FILLER_52_307
*9162 FILLER_52_309
*9163 FILLER_52_321
*9164 FILLER_52_333
*9165 FILLER_52_345
*9166 FILLER_52_357
*9167 FILLER_52_361
*9168 FILLER_52_363
*9169 FILLER_52_365
*9170 FILLER_52_377
*9171 FILLER_52_389
*9172 FILLER_52_401
*9173 FILLER_52_41
*9174 FILLER_52_413
*9175 FILLER_52_417
*9176 FILLER_52_419
*9177 FILLER_52_421
*9178 FILLER_52_433
*9179 FILLER_52_445
*9180 FILLER_52_457
*9181 FILLER_52_469
*9182 FILLER_52_473
*9183 FILLER_52_475
*9184 FILLER_52_477
*9185 FILLER_52_489
*9186 FILLER_52_501
*9187 FILLER_52_513
*9188 FILLER_52_525
*9189 FILLER_52_529
*9190 FILLER_52_53
*9191 FILLER_52_531
*9192 FILLER_52_533
*9193 FILLER_52_545
*9194 FILLER_52_557
*9195 FILLER_52_569
*9196 FILLER_52_581
*9197 FILLER_52_585
*9198 FILLER_52_587
*9199 FILLER_52_589
*9200 FILLER_52_601
*9201 FILLER_52_613
*9202 FILLER_52_625
*9203 FILLER_52_637
*9204 FILLER_52_641
*9205 FILLER_52_643
*9206 FILLER_52_645
*9207 FILLER_52_65
*9208 FILLER_52_657
*9209 FILLER_52_669
*9210 FILLER_52_681
*9211 FILLER_52_693
*9212 FILLER_52_697
*9213 FILLER_52_699
*9214 FILLER_52_701
*9215 FILLER_52_713
*9216 FILLER_52_725
*9217 FILLER_52_737
*9218 FILLER_52_749
*9219 FILLER_52_753
*9220 FILLER_52_755
*9221 FILLER_52_757
*9222 FILLER_52_769
*9223 FILLER_52_77
*9224 FILLER_52_781
*9225 FILLER_52_793
*9226 FILLER_52_805
*9227 FILLER_52_809
*9228 FILLER_52_81
*9229 FILLER_52_811
*9230 FILLER_52_813
*9231 FILLER_52_825
*9232 FILLER_52_83
*9233 FILLER_52_837
*9234 FILLER_52_841
*9235 FILLER_52_85
*9236 FILLER_52_97
*9237 FILLER_53_105
*9238 FILLER_53_109
*9239 FILLER_53_111
*9240 FILLER_53_113
*9241 FILLER_53_125
*9242 FILLER_53_137
*9243 FILLER_53_149
*9244 FILLER_53_15
*9245 FILLER_53_161
*9246 FILLER_53_165
*9247 FILLER_53_167
*9248 FILLER_53_169
*9249 FILLER_53_181
*9250 FILLER_53_193
*9251 FILLER_53_205
*9252 FILLER_53_217
*9253 FILLER_53_221
*9254 FILLER_53_223
*9255 FILLER_53_225
*9256 FILLER_53_237
*9257 FILLER_53_249
*9258 FILLER_53_261
*9259 FILLER_53_27
*9260 FILLER_53_273
*9261 FILLER_53_277
*9262 FILLER_53_279
*9263 FILLER_53_281
*9264 FILLER_53_293
*9265 FILLER_53_3
*9266 FILLER_53_305
*9267 FILLER_53_317
*9268 FILLER_53_329
*9269 FILLER_53_333
*9270 FILLER_53_335
*9271 FILLER_53_337
*9272 FILLER_53_349
*9273 FILLER_53_361
*9274 FILLER_53_373
*9275 FILLER_53_385
*9276 FILLER_53_389
*9277 FILLER_53_39
*9278 FILLER_53_391
*9279 FILLER_53_393
*9280 FILLER_53_405
*9281 FILLER_53_417
*9282 FILLER_53_429
*9283 FILLER_53_441
*9284 FILLER_53_445
*9285 FILLER_53_447
*9286 FILLER_53_449
*9287 FILLER_53_461
*9288 FILLER_53_473
*9289 FILLER_53_485
*9290 FILLER_53_497
*9291 FILLER_53_501
*9292 FILLER_53_503
*9293 FILLER_53_505
*9294 FILLER_53_51
*9295 FILLER_53_517
*9296 FILLER_53_529
*9297 FILLER_53_541
*9298 FILLER_53_55
*9299 FILLER_53_553
*9300 FILLER_53_557
*9301 FILLER_53_559
*9302 FILLER_53_561
*9303 FILLER_53_57
*9304 FILLER_53_573
*9305 FILLER_53_585
*9306 FILLER_53_597
*9307 FILLER_53_609
*9308 FILLER_53_613
*9309 FILLER_53_615
*9310 FILLER_53_617
*9311 FILLER_53_629
*9312 FILLER_53_641
*9313 FILLER_53_653
*9314 FILLER_53_665
*9315 FILLER_53_669
*9316 FILLER_53_671
*9317 FILLER_53_673
*9318 FILLER_53_685
*9319 FILLER_53_69
*9320 FILLER_53_697
*9321 FILLER_53_709
*9322 FILLER_53_721
*9323 FILLER_53_725
*9324 FILLER_53_727
*9325 FILLER_53_729
*9326 FILLER_53_741
*9327 FILLER_53_753
*9328 FILLER_53_765
*9329 FILLER_53_777
*9330 FILLER_53_781
*9331 FILLER_53_783
*9332 FILLER_53_785
*9333 FILLER_53_797
*9334 FILLER_53_809
*9335 FILLER_53_81
*9336 FILLER_53_821
*9337 FILLER_53_833
*9338 FILLER_53_837
*9339 FILLER_53_839
*9340 FILLER_53_841
*9341 FILLER_53_93
*9342 FILLER_54_109
*9343 FILLER_54_121
*9344 FILLER_54_133
*9345 FILLER_54_137
*9346 FILLER_54_139
*9347 FILLER_54_141
*9348 FILLER_54_15
*9349 FILLER_54_153
*9350 FILLER_54_165
*9351 FILLER_54_177
*9352 FILLER_54_189
*9353 FILLER_54_193
*9354 FILLER_54_195
*9355 FILLER_54_197
*9356 FILLER_54_209
*9357 FILLER_54_221
*9358 FILLER_54_233
*9359 FILLER_54_245
*9360 FILLER_54_249
*9361 FILLER_54_251
*9362 FILLER_54_253
*9363 FILLER_54_265
*9364 FILLER_54_27
*9365 FILLER_54_277
*9366 FILLER_54_289
*9367 FILLER_54_29
*9368 FILLER_54_3
*9369 FILLER_54_301
*9370 FILLER_54_305
*9371 FILLER_54_307
*9372 FILLER_54_309
*9373 FILLER_54_321
*9374 FILLER_54_333
*9375 FILLER_54_345
*9376 FILLER_54_357
*9377 FILLER_54_361
*9378 FILLER_54_363
*9379 FILLER_54_365
*9380 FILLER_54_377
*9381 FILLER_54_389
*9382 FILLER_54_401
*9383 FILLER_54_41
*9384 FILLER_54_413
*9385 FILLER_54_417
*9386 FILLER_54_419
*9387 FILLER_54_421
*9388 FILLER_54_433
*9389 FILLER_54_445
*9390 FILLER_54_457
*9391 FILLER_54_469
*9392 FILLER_54_473
*9393 FILLER_54_475
*9394 FILLER_54_477
*9395 FILLER_54_489
*9396 FILLER_54_501
*9397 FILLER_54_513
*9398 FILLER_54_525
*9399 FILLER_54_529
*9400 FILLER_54_53
*9401 FILLER_54_531
*9402 FILLER_54_533
*9403 FILLER_54_545
*9404 FILLER_54_557
*9405 FILLER_54_569
*9406 FILLER_54_581
*9407 FILLER_54_585
*9408 FILLER_54_587
*9409 FILLER_54_589
*9410 FILLER_54_601
*9411 FILLER_54_613
*9412 FILLER_54_625
*9413 FILLER_54_637
*9414 FILLER_54_641
*9415 FILLER_54_643
*9416 FILLER_54_645
*9417 FILLER_54_65
*9418 FILLER_54_657
*9419 FILLER_54_669
*9420 FILLER_54_681
*9421 FILLER_54_693
*9422 FILLER_54_697
*9423 FILLER_54_699
*9424 FILLER_54_701
*9425 FILLER_54_713
*9426 FILLER_54_725
*9427 FILLER_54_737
*9428 FILLER_54_749
*9429 FILLER_54_753
*9430 FILLER_54_755
*9431 FILLER_54_757
*9432 FILLER_54_769
*9433 FILLER_54_77
*9434 FILLER_54_781
*9435 FILLER_54_793
*9436 FILLER_54_805
*9437 FILLER_54_809
*9438 FILLER_54_81
*9439 FILLER_54_811
*9440 FILLER_54_813
*9441 FILLER_54_825
*9442 FILLER_54_83
*9443 FILLER_54_837
*9444 FILLER_54_841
*9445 FILLER_54_85
*9446 FILLER_54_97
*9447 FILLER_55_105
*9448 FILLER_55_109
*9449 FILLER_55_111
*9450 FILLER_55_113
*9451 FILLER_55_125
*9452 FILLER_55_137
*9453 FILLER_55_149
*9454 FILLER_55_15
*9455 FILLER_55_161
*9456 FILLER_55_165
*9457 FILLER_55_167
*9458 FILLER_55_169
*9459 FILLER_55_181
*9460 FILLER_55_193
*9461 FILLER_55_205
*9462 FILLER_55_217
*9463 FILLER_55_221
*9464 FILLER_55_223
*9465 FILLER_55_225
*9466 FILLER_55_237
*9467 FILLER_55_249
*9468 FILLER_55_261
*9469 FILLER_55_27
*9470 FILLER_55_273
*9471 FILLER_55_277
*9472 FILLER_55_279
*9473 FILLER_55_281
*9474 FILLER_55_293
*9475 FILLER_55_3
*9476 FILLER_55_305
*9477 FILLER_55_317
*9478 FILLER_55_329
*9479 FILLER_55_333
*9480 FILLER_55_335
*9481 FILLER_55_337
*9482 FILLER_55_349
*9483 FILLER_55_361
*9484 FILLER_55_373
*9485 FILLER_55_385
*9486 FILLER_55_389
*9487 FILLER_55_39
*9488 FILLER_55_391
*9489 FILLER_55_393
*9490 FILLER_55_405
*9491 FILLER_55_417
*9492 FILLER_55_429
*9493 FILLER_55_441
*9494 FILLER_55_445
*9495 FILLER_55_447
*9496 FILLER_55_449
*9497 FILLER_55_461
*9498 FILLER_55_473
*9499 FILLER_55_485
*9500 FILLER_55_497
*9501 FILLER_55_501
*9502 FILLER_55_503
*9503 FILLER_55_505
*9504 FILLER_55_51
*9505 FILLER_55_517
*9506 FILLER_55_529
*9507 FILLER_55_541
*9508 FILLER_55_55
*9509 FILLER_55_553
*9510 FILLER_55_557
*9511 FILLER_55_559
*9512 FILLER_55_561
*9513 FILLER_55_57
*9514 FILLER_55_573
*9515 FILLER_55_585
*9516 FILLER_55_597
*9517 FILLER_55_609
*9518 FILLER_55_613
*9519 FILLER_55_615
*9520 FILLER_55_617
*9521 FILLER_55_629
*9522 FILLER_55_641
*9523 FILLER_55_653
*9524 FILLER_55_665
*9525 FILLER_55_669
*9526 FILLER_55_671
*9527 FILLER_55_673
*9528 FILLER_55_685
*9529 FILLER_55_69
*9530 FILLER_55_697
*9531 FILLER_55_709
*9532 FILLER_55_721
*9533 FILLER_55_725
*9534 FILLER_55_727
*9535 FILLER_55_729
*9536 FILLER_55_741
*9537 FILLER_55_753
*9538 FILLER_55_765
*9539 FILLER_55_777
*9540 FILLER_55_781
*9541 FILLER_55_783
*9542 FILLER_55_785
*9543 FILLER_55_797
*9544 FILLER_55_809
*9545 FILLER_55_81
*9546 FILLER_55_821
*9547 FILLER_55_833
*9548 FILLER_55_837
*9549 FILLER_55_839
*9550 FILLER_55_841
*9551 FILLER_55_93
*9552 FILLER_56_109
*9553 FILLER_56_121
*9554 FILLER_56_133
*9555 FILLER_56_137
*9556 FILLER_56_139
*9557 FILLER_56_141
*9558 FILLER_56_15
*9559 FILLER_56_153
*9560 FILLER_56_165
*9561 FILLER_56_177
*9562 FILLER_56_189
*9563 FILLER_56_193
*9564 FILLER_56_195
*9565 FILLER_56_197
*9566 FILLER_56_209
*9567 FILLER_56_221
*9568 FILLER_56_233
*9569 FILLER_56_245
*9570 FILLER_56_249
*9571 FILLER_56_251
*9572 FILLER_56_253
*9573 FILLER_56_265
*9574 FILLER_56_27
*9575 FILLER_56_277
*9576 FILLER_56_289
*9577 FILLER_56_29
*9578 FILLER_56_3
*9579 FILLER_56_301
*9580 FILLER_56_305
*9581 FILLER_56_307
*9582 FILLER_56_309
*9583 FILLER_56_321
*9584 FILLER_56_333
*9585 FILLER_56_345
*9586 FILLER_56_357
*9587 FILLER_56_361
*9588 FILLER_56_363
*9589 FILLER_56_365
*9590 FILLER_56_377
*9591 FILLER_56_389
*9592 FILLER_56_401
*9593 FILLER_56_41
*9594 FILLER_56_413
*9595 FILLER_56_417
*9596 FILLER_56_419
*9597 FILLER_56_421
*9598 FILLER_56_433
*9599 FILLER_56_445
*9600 FILLER_56_457
*9601 FILLER_56_469
*9602 FILLER_56_473
*9603 FILLER_56_475
*9604 FILLER_56_477
*9605 FILLER_56_489
*9606 FILLER_56_501
*9607 FILLER_56_513
*9608 FILLER_56_525
*9609 FILLER_56_529
*9610 FILLER_56_53
*9611 FILLER_56_531
*9612 FILLER_56_533
*9613 FILLER_56_545
*9614 FILLER_56_557
*9615 FILLER_56_569
*9616 FILLER_56_581
*9617 FILLER_56_585
*9618 FILLER_56_587
*9619 FILLER_56_589
*9620 FILLER_56_601
*9621 FILLER_56_613
*9622 FILLER_56_625
*9623 FILLER_56_637
*9624 FILLER_56_641
*9625 FILLER_56_643
*9626 FILLER_56_645
*9627 FILLER_56_65
*9628 FILLER_56_657
*9629 FILLER_56_669
*9630 FILLER_56_681
*9631 FILLER_56_693
*9632 FILLER_56_697
*9633 FILLER_56_699
*9634 FILLER_56_701
*9635 FILLER_56_713
*9636 FILLER_56_725
*9637 FILLER_56_737
*9638 FILLER_56_749
*9639 FILLER_56_753
*9640 FILLER_56_755
*9641 FILLER_56_757
*9642 FILLER_56_769
*9643 FILLER_56_77
*9644 FILLER_56_781
*9645 FILLER_56_793
*9646 FILLER_56_805
*9647 FILLER_56_809
*9648 FILLER_56_81
*9649 FILLER_56_811
*9650 FILLER_56_813
*9651 FILLER_56_825
*9652 FILLER_56_83
*9653 FILLER_56_837
*9654 FILLER_56_841
*9655 FILLER_56_85
*9656 FILLER_56_97
*9657 FILLER_57_105
*9658 FILLER_57_109
*9659 FILLER_57_111
*9660 FILLER_57_113
*9661 FILLER_57_125
*9662 FILLER_57_137
*9663 FILLER_57_149
*9664 FILLER_57_15
*9665 FILLER_57_161
*9666 FILLER_57_165
*9667 FILLER_57_167
*9668 FILLER_57_169
*9669 FILLER_57_181
*9670 FILLER_57_193
*9671 FILLER_57_205
*9672 FILLER_57_217
*9673 FILLER_57_221
*9674 FILLER_57_223
*9675 FILLER_57_225
*9676 FILLER_57_237
*9677 FILLER_57_249
*9678 FILLER_57_261
*9679 FILLER_57_27
*9680 FILLER_57_273
*9681 FILLER_57_277
*9682 FILLER_57_279
*9683 FILLER_57_281
*9684 FILLER_57_293
*9685 FILLER_57_3
*9686 FILLER_57_305
*9687 FILLER_57_317
*9688 FILLER_57_329
*9689 FILLER_57_333
*9690 FILLER_57_335
*9691 FILLER_57_337
*9692 FILLER_57_349
*9693 FILLER_57_361
*9694 FILLER_57_373
*9695 FILLER_57_385
*9696 FILLER_57_389
*9697 FILLER_57_39
*9698 FILLER_57_391
*9699 FILLER_57_393
*9700 FILLER_57_405
*9701 FILLER_57_417
*9702 FILLER_57_429
*9703 FILLER_57_441
*9704 FILLER_57_445
*9705 FILLER_57_447
*9706 FILLER_57_449
*9707 FILLER_57_461
*9708 FILLER_57_473
*9709 FILLER_57_485
*9710 FILLER_57_497
*9711 FILLER_57_501
*9712 FILLER_57_503
*9713 FILLER_57_505
*9714 FILLER_57_51
*9715 FILLER_57_517
*9716 FILLER_57_529
*9717 FILLER_57_541
*9718 FILLER_57_55
*9719 FILLER_57_553
*9720 FILLER_57_557
*9721 FILLER_57_559
*9722 FILLER_57_561
*9723 FILLER_57_57
*9724 FILLER_57_573
*9725 FILLER_57_585
*9726 FILLER_57_597
*9727 FILLER_57_609
*9728 FILLER_57_613
*9729 FILLER_57_615
*9730 FILLER_57_617
*9731 FILLER_57_629
*9732 FILLER_57_641
*9733 FILLER_57_653
*9734 FILLER_57_665
*9735 FILLER_57_669
*9736 FILLER_57_671
*9737 FILLER_57_673
*9738 FILLER_57_685
*9739 FILLER_57_69
*9740 FILLER_57_697
*9741 FILLER_57_709
*9742 FILLER_57_721
*9743 FILLER_57_725
*9744 FILLER_57_727
*9745 FILLER_57_729
*9746 FILLER_57_741
*9747 FILLER_57_753
*9748 FILLER_57_765
*9749 FILLER_57_777
*9750 FILLER_57_781
*9751 FILLER_57_783
*9752 FILLER_57_785
*9753 FILLER_57_797
*9754 FILLER_57_809
*9755 FILLER_57_81
*9756 FILLER_57_821
*9757 FILLER_57_833
*9758 FILLER_57_837
*9759 FILLER_57_839
*9760 FILLER_57_841
*9761 FILLER_57_93
*9762 FILLER_58_109
*9763 FILLER_58_121
*9764 FILLER_58_133
*9765 FILLER_58_137
*9766 FILLER_58_139
*9767 FILLER_58_141
*9768 FILLER_58_15
*9769 FILLER_58_153
*9770 FILLER_58_165
*9771 FILLER_58_177
*9772 FILLER_58_189
*9773 FILLER_58_193
*9774 FILLER_58_195
*9775 FILLER_58_197
*9776 FILLER_58_209
*9777 FILLER_58_221
*9778 FILLER_58_233
*9779 FILLER_58_245
*9780 FILLER_58_249
*9781 FILLER_58_251
*9782 FILLER_58_253
*9783 FILLER_58_265
*9784 FILLER_58_27
*9785 FILLER_58_277
*9786 FILLER_58_289
*9787 FILLER_58_29
*9788 FILLER_58_3
*9789 FILLER_58_301
*9790 FILLER_58_305
*9791 FILLER_58_307
*9792 FILLER_58_309
*9793 FILLER_58_321
*9794 FILLER_58_333
*9795 FILLER_58_345
*9796 FILLER_58_357
*9797 FILLER_58_361
*9798 FILLER_58_363
*9799 FILLER_58_365
*9800 FILLER_58_377
*9801 FILLER_58_389
*9802 FILLER_58_401
*9803 FILLER_58_41
*9804 FILLER_58_413
*9805 FILLER_58_417
*9806 FILLER_58_419
*9807 FILLER_58_421
*9808 FILLER_58_433
*9809 FILLER_58_445
*9810 FILLER_58_457
*9811 FILLER_58_469
*9812 FILLER_58_473
*9813 FILLER_58_475
*9814 FILLER_58_477
*9815 FILLER_58_489
*9816 FILLER_58_501
*9817 FILLER_58_513
*9818 FILLER_58_525
*9819 FILLER_58_529
*9820 FILLER_58_53
*9821 FILLER_58_531
*9822 FILLER_58_533
*9823 FILLER_58_545
*9824 FILLER_58_557
*9825 FILLER_58_569
*9826 FILLER_58_581
*9827 FILLER_58_585
*9828 FILLER_58_587
*9829 FILLER_58_589
*9830 FILLER_58_601
*9831 FILLER_58_613
*9832 FILLER_58_625
*9833 FILLER_58_637
*9834 FILLER_58_641
*9835 FILLER_58_643
*9836 FILLER_58_645
*9837 FILLER_58_65
*9838 FILLER_58_657
*9839 FILLER_58_669
*9840 FILLER_58_681
*9841 FILLER_58_693
*9842 FILLER_58_697
*9843 FILLER_58_699
*9844 FILLER_58_701
*9845 FILLER_58_713
*9846 FILLER_58_725
*9847 FILLER_58_737
*9848 FILLER_58_749
*9849 FILLER_58_753
*9850 FILLER_58_755
*9851 FILLER_58_757
*9852 FILLER_58_769
*9853 FILLER_58_77
*9854 FILLER_58_781
*9855 FILLER_58_793
*9856 FILLER_58_805
*9857 FILLER_58_809
*9858 FILLER_58_81
*9859 FILLER_58_811
*9860 FILLER_58_813
*9861 FILLER_58_825
*9862 FILLER_58_83
*9863 FILLER_58_837
*9864 FILLER_58_841
*9865 FILLER_58_85
*9866 FILLER_58_97
*9867 FILLER_59_105
*9868 FILLER_59_109
*9869 FILLER_59_111
*9870 FILLER_59_113
*9871 FILLER_59_125
*9872 FILLER_59_137
*9873 FILLER_59_149
*9874 FILLER_59_15
*9875 FILLER_59_161
*9876 FILLER_59_165
*9877 FILLER_59_167
*9878 FILLER_59_169
*9879 FILLER_59_181
*9880 FILLER_59_193
*9881 FILLER_59_205
*9882 FILLER_59_217
*9883 FILLER_59_221
*9884 FILLER_59_223
*9885 FILLER_59_225
*9886 FILLER_59_237
*9887 FILLER_59_249
*9888 FILLER_59_261
*9889 FILLER_59_27
*9890 FILLER_59_273
*9891 FILLER_59_277
*9892 FILLER_59_279
*9893 FILLER_59_281
*9894 FILLER_59_293
*9895 FILLER_59_3
*9896 FILLER_59_305
*9897 FILLER_59_317
*9898 FILLER_59_329
*9899 FILLER_59_333
*9900 FILLER_59_335
*9901 FILLER_59_337
*9902 FILLER_59_349
*9903 FILLER_59_361
*9904 FILLER_59_373
*9905 FILLER_59_385
*9906 FILLER_59_389
*9907 FILLER_59_39
*9908 FILLER_59_391
*9909 FILLER_59_393
*9910 FILLER_59_405
*9911 FILLER_59_417
*9912 FILLER_59_429
*9913 FILLER_59_441
*9914 FILLER_59_445
*9915 FILLER_59_447
*9916 FILLER_59_449
*9917 FILLER_59_461
*9918 FILLER_59_473
*9919 FILLER_59_485
*9920 FILLER_59_497
*9921 FILLER_59_501
*9922 FILLER_59_503
*9923 FILLER_59_505
*9924 FILLER_59_51
*9925 FILLER_59_517
*9926 FILLER_59_529
*9927 FILLER_59_541
*9928 FILLER_59_55
*9929 FILLER_59_553
*9930 FILLER_59_557
*9931 FILLER_59_559
*9932 FILLER_59_561
*9933 FILLER_59_57
*9934 FILLER_59_573
*9935 FILLER_59_585
*9936 FILLER_59_597
*9937 FILLER_59_609
*9938 FILLER_59_613
*9939 FILLER_59_615
*9940 FILLER_59_617
*9941 FILLER_59_629
*9942 FILLER_59_641
*9943 FILLER_59_653
*9944 FILLER_59_665
*9945 FILLER_59_669
*9946 FILLER_59_671
*9947 FILLER_59_673
*9948 FILLER_59_685
*9949 FILLER_59_69
*9950 FILLER_59_697
*9951 FILLER_59_709
*9952 FILLER_59_721
*9953 FILLER_59_725
*9954 FILLER_59_727
*9955 FILLER_59_729
*9956 FILLER_59_741
*9957 FILLER_59_753
*9958 FILLER_59_765
*9959 FILLER_59_777
*9960 FILLER_59_781
*9961 FILLER_59_783
*9962 FILLER_59_785
*9963 FILLER_59_797
*9964 FILLER_59_809
*9965 FILLER_59_81
*9966 FILLER_59_821
*9967 FILLER_59_833
*9968 FILLER_59_837
*9969 FILLER_59_839
*9970 FILLER_59_841
*9971 FILLER_59_93
*9972 FILLER_5_105
*9973 FILLER_5_109
*9974 FILLER_5_111
*9975 FILLER_5_113
*9976 FILLER_5_125
*9977 FILLER_5_137
*9978 FILLER_5_149
*9979 FILLER_5_15
*9980 FILLER_5_161
*9981 FILLER_5_165
*9982 FILLER_5_167
*9983 FILLER_5_169
*9984 FILLER_5_181
*9985 FILLER_5_193
*9986 FILLER_5_205
*9987 FILLER_5_217
*9988 FILLER_5_221
*9989 FILLER_5_223
*9990 FILLER_5_225
*9991 FILLER_5_237
*9992 FILLER_5_249
*9993 FILLER_5_261
*9994 FILLER_5_27
*9995 FILLER_5_273
*9996 FILLER_5_277
*9997 FILLER_5_279
*9998 FILLER_5_281
*9999 FILLER_5_293
*10000 FILLER_5_3
*10001 FILLER_5_305
*10002 FILLER_5_317
*10003 FILLER_5_329
*10004 FILLER_5_333
*10005 FILLER_5_335
*10006 FILLER_5_337
*10007 FILLER_5_349
*10008 FILLER_5_361
*10009 FILLER_5_373
*10010 FILLER_5_385
*10011 FILLER_5_389
*10012 FILLER_5_39
*10013 FILLER_5_391
*10014 FILLER_5_393
*10015 FILLER_5_405
*10016 FILLER_5_417
*10017 FILLER_5_429
*10018 FILLER_5_441
*10019 FILLER_5_445
*10020 FILLER_5_447
*10021 FILLER_5_449
*10022 FILLER_5_461
*10023 FILLER_5_473
*10024 FILLER_5_485
*10025 FILLER_5_497
*10026 FILLER_5_501
*10027 FILLER_5_503
*10028 FILLER_5_505
*10029 FILLER_5_51
*10030 FILLER_5_517
*10031 FILLER_5_529
*10032 FILLER_5_541
*10033 FILLER_5_55
*10034 FILLER_5_553
*10035 FILLER_5_557
*10036 FILLER_5_559
*10037 FILLER_5_561
*10038 FILLER_5_57
*10039 FILLER_5_573
*10040 FILLER_5_585
*10041 FILLER_5_597
*10042 FILLER_5_609
*10043 FILLER_5_613
*10044 FILLER_5_615
*10045 FILLER_5_617
*10046 FILLER_5_629
*10047 FILLER_5_641
*10048 FILLER_5_653
*10049 FILLER_5_665
*10050 FILLER_5_669
*10051 FILLER_5_671
*10052 FILLER_5_673
*10053 FILLER_5_685
*10054 FILLER_5_69
*10055 FILLER_5_697
*10056 FILLER_5_709
*10057 FILLER_5_721
*10058 FILLER_5_725
*10059 FILLER_5_727
*10060 FILLER_5_729
*10061 FILLER_5_741
*10062 FILLER_5_753
*10063 FILLER_5_765
*10064 FILLER_5_777
*10065 FILLER_5_781
*10066 FILLER_5_783
*10067 FILLER_5_785
*10068 FILLER_5_797
*10069 FILLER_5_809
*10070 FILLER_5_81
*10071 FILLER_5_821
*10072 FILLER_5_833
*10073 FILLER_5_837
*10074 FILLER_5_839
*10075 FILLER_5_841
*10076 FILLER_5_93
*10077 FILLER_60_109
*10078 FILLER_60_121
*10079 FILLER_60_133
*10080 FILLER_60_137
*10081 FILLER_60_139
*10082 FILLER_60_141
*10083 FILLER_60_15
*10084 FILLER_60_153
*10085 FILLER_60_165
*10086 FILLER_60_177
*10087 FILLER_60_189
*10088 FILLER_60_193
*10089 FILLER_60_195
*10090 FILLER_60_197
*10091 FILLER_60_209
*10092 FILLER_60_221
*10093 FILLER_60_233
*10094 FILLER_60_245
*10095 FILLER_60_249
*10096 FILLER_60_251
*10097 FILLER_60_253
*10098 FILLER_60_265
*10099 FILLER_60_27
*10100 FILLER_60_277
*10101 FILLER_60_289
*10102 FILLER_60_29
*10103 FILLER_60_3
*10104 FILLER_60_301
*10105 FILLER_60_305
*10106 FILLER_60_307
*10107 FILLER_60_309
*10108 FILLER_60_321
*10109 FILLER_60_333
*10110 FILLER_60_345
*10111 FILLER_60_357
*10112 FILLER_60_361
*10113 FILLER_60_363
*10114 FILLER_60_365
*10115 FILLER_60_377
*10116 FILLER_60_389
*10117 FILLER_60_401
*10118 FILLER_60_41
*10119 FILLER_60_413
*10120 FILLER_60_417
*10121 FILLER_60_419
*10122 FILLER_60_421
*10123 FILLER_60_433
*10124 FILLER_60_445
*10125 FILLER_60_457
*10126 FILLER_60_469
*10127 FILLER_60_473
*10128 FILLER_60_475
*10129 FILLER_60_477
*10130 FILLER_60_489
*10131 FILLER_60_501
*10132 FILLER_60_513
*10133 FILLER_60_525
*10134 FILLER_60_529
*10135 FILLER_60_53
*10136 FILLER_60_531
*10137 FILLER_60_533
*10138 FILLER_60_545
*10139 FILLER_60_557
*10140 FILLER_60_569
*10141 FILLER_60_581
*10142 FILLER_60_585
*10143 FILLER_60_587
*10144 FILLER_60_589
*10145 FILLER_60_601
*10146 FILLER_60_613
*10147 FILLER_60_625
*10148 FILLER_60_637
*10149 FILLER_60_641
*10150 FILLER_60_643
*10151 FILLER_60_645
*10152 FILLER_60_65
*10153 FILLER_60_657
*10154 FILLER_60_669
*10155 FILLER_60_681
*10156 FILLER_60_693
*10157 FILLER_60_697
*10158 FILLER_60_699
*10159 FILLER_60_701
*10160 FILLER_60_713
*10161 FILLER_60_725
*10162 FILLER_60_737
*10163 FILLER_60_749
*10164 FILLER_60_753
*10165 FILLER_60_755
*10166 FILLER_60_757
*10167 FILLER_60_769
*10168 FILLER_60_77
*10169 FILLER_60_781
*10170 FILLER_60_793
*10171 FILLER_60_805
*10172 FILLER_60_809
*10173 FILLER_60_81
*10174 FILLER_60_811
*10175 FILLER_60_813
*10176 FILLER_60_825
*10177 FILLER_60_83
*10178 FILLER_60_837
*10179 FILLER_60_841
*10180 FILLER_60_85
*10181 FILLER_60_97
*10182 FILLER_61_105
*10183 FILLER_61_109
*10184 FILLER_61_111
*10185 FILLER_61_113
*10186 FILLER_61_125
*10187 FILLER_61_137
*10188 FILLER_61_149
*10189 FILLER_61_15
*10190 FILLER_61_161
*10191 FILLER_61_165
*10192 FILLER_61_167
*10193 FILLER_61_169
*10194 FILLER_61_181
*10195 FILLER_61_193
*10196 FILLER_61_205
*10197 FILLER_61_217
*10198 FILLER_61_221
*10199 FILLER_61_223
*10200 FILLER_61_225
*10201 FILLER_61_237
*10202 FILLER_61_249
*10203 FILLER_61_261
*10204 FILLER_61_27
*10205 FILLER_61_273
*10206 FILLER_61_277
*10207 FILLER_61_279
*10208 FILLER_61_281
*10209 FILLER_61_293
*10210 FILLER_61_3
*10211 FILLER_61_305
*10212 FILLER_61_317
*10213 FILLER_61_329
*10214 FILLER_61_333
*10215 FILLER_61_335
*10216 FILLER_61_337
*10217 FILLER_61_349
*10218 FILLER_61_361
*10219 FILLER_61_373
*10220 FILLER_61_385
*10221 FILLER_61_389
*10222 FILLER_61_39
*10223 FILLER_61_391
*10224 FILLER_61_393
*10225 FILLER_61_405
*10226 FILLER_61_417
*10227 FILLER_61_429
*10228 FILLER_61_441
*10229 FILLER_61_445
*10230 FILLER_61_447
*10231 FILLER_61_449
*10232 FILLER_61_461
*10233 FILLER_61_473
*10234 FILLER_61_485
*10235 FILLER_61_497
*10236 FILLER_61_501
*10237 FILLER_61_503
*10238 FILLER_61_505
*10239 FILLER_61_51
*10240 FILLER_61_517
*10241 FILLER_61_529
*10242 FILLER_61_541
*10243 FILLER_61_55
*10244 FILLER_61_553
*10245 FILLER_61_557
*10246 FILLER_61_559
*10247 FILLER_61_561
*10248 FILLER_61_57
*10249 FILLER_61_573
*10250 FILLER_61_585
*10251 FILLER_61_597
*10252 FILLER_61_609
*10253 FILLER_61_613
*10254 FILLER_61_615
*10255 FILLER_61_617
*10256 FILLER_61_629
*10257 FILLER_61_641
*10258 FILLER_61_653
*10259 FILLER_61_665
*10260 FILLER_61_669
*10261 FILLER_61_671
*10262 FILLER_61_673
*10263 FILLER_61_685
*10264 FILLER_61_69
*10265 FILLER_61_697
*10266 FILLER_61_709
*10267 FILLER_61_721
*10268 FILLER_61_725
*10269 FILLER_61_727
*10270 FILLER_61_729
*10271 FILLER_61_741
*10272 FILLER_61_753
*10273 FILLER_61_765
*10274 FILLER_61_777
*10275 FILLER_61_781
*10276 FILLER_61_783
*10277 FILLER_61_785
*10278 FILLER_61_797
*10279 FILLER_61_809
*10280 FILLER_61_81
*10281 FILLER_61_821
*10282 FILLER_61_833
*10283 FILLER_61_837
*10284 FILLER_61_839
*10285 FILLER_61_841
*10286 FILLER_61_93
*10287 FILLER_62_109
*10288 FILLER_62_121
*10289 FILLER_62_133
*10290 FILLER_62_137
*10291 FILLER_62_139
*10292 FILLER_62_141
*10293 FILLER_62_15
*10294 FILLER_62_153
*10295 FILLER_62_165
*10296 FILLER_62_177
*10297 FILLER_62_189
*10298 FILLER_62_193
*10299 FILLER_62_195
*10300 FILLER_62_197
*10301 FILLER_62_209
*10302 FILLER_62_221
*10303 FILLER_62_233
*10304 FILLER_62_245
*10305 FILLER_62_249
*10306 FILLER_62_251
*10307 FILLER_62_253
*10308 FILLER_62_265
*10309 FILLER_62_27
*10310 FILLER_62_277
*10311 FILLER_62_289
*10312 FILLER_62_29
*10313 FILLER_62_3
*10314 FILLER_62_301
*10315 FILLER_62_305
*10316 FILLER_62_307
*10317 FILLER_62_309
*10318 FILLER_62_321
*10319 FILLER_62_333
*10320 FILLER_62_345
*10321 FILLER_62_357
*10322 FILLER_62_361
*10323 FILLER_62_363
*10324 FILLER_62_365
*10325 FILLER_62_377
*10326 FILLER_62_389
*10327 FILLER_62_401
*10328 FILLER_62_41
*10329 FILLER_62_413
*10330 FILLER_62_417
*10331 FILLER_62_419
*10332 FILLER_62_421
*10333 FILLER_62_433
*10334 FILLER_62_445
*10335 FILLER_62_457
*10336 FILLER_62_469
*10337 FILLER_62_473
*10338 FILLER_62_475
*10339 FILLER_62_477
*10340 FILLER_62_489
*10341 FILLER_62_501
*10342 FILLER_62_513
*10343 FILLER_62_525
*10344 FILLER_62_529
*10345 FILLER_62_53
*10346 FILLER_62_531
*10347 FILLER_62_533
*10348 FILLER_62_545
*10349 FILLER_62_557
*10350 FILLER_62_569
*10351 FILLER_62_581
*10352 FILLER_62_585
*10353 FILLER_62_587
*10354 FILLER_62_589
*10355 FILLER_62_601
*10356 FILLER_62_613
*10357 FILLER_62_625
*10358 FILLER_62_637
*10359 FILLER_62_641
*10360 FILLER_62_643
*10361 FILLER_62_645
*10362 FILLER_62_65
*10363 FILLER_62_657
*10364 FILLER_62_669
*10365 FILLER_62_681
*10366 FILLER_62_693
*10367 FILLER_62_697
*10368 FILLER_62_699
*10369 FILLER_62_701
*10370 FILLER_62_713
*10371 FILLER_62_725
*10372 FILLER_62_737
*10373 FILLER_62_749
*10374 FILLER_62_753
*10375 FILLER_62_755
*10376 FILLER_62_757
*10377 FILLER_62_769
*10378 FILLER_62_77
*10379 FILLER_62_781
*10380 FILLER_62_793
*10381 FILLER_62_805
*10382 FILLER_62_809
*10383 FILLER_62_81
*10384 FILLER_62_811
*10385 FILLER_62_813
*10386 FILLER_62_825
*10387 FILLER_62_83
*10388 FILLER_62_837
*10389 FILLER_62_841
*10390 FILLER_62_85
*10391 FILLER_62_97
*10392 FILLER_63_105
*10393 FILLER_63_109
*10394 FILLER_63_111
*10395 FILLER_63_113
*10396 FILLER_63_125
*10397 FILLER_63_137
*10398 FILLER_63_149
*10399 FILLER_63_15
*10400 FILLER_63_161
*10401 FILLER_63_165
*10402 FILLER_63_167
*10403 FILLER_63_169
*10404 FILLER_63_181
*10405 FILLER_63_193
*10406 FILLER_63_205
*10407 FILLER_63_217
*10408 FILLER_63_221
*10409 FILLER_63_223
*10410 FILLER_63_225
*10411 FILLER_63_237
*10412 FILLER_63_249
*10413 FILLER_63_261
*10414 FILLER_63_27
*10415 FILLER_63_273
*10416 FILLER_63_277
*10417 FILLER_63_279
*10418 FILLER_63_281
*10419 FILLER_63_293
*10420 FILLER_63_3
*10421 FILLER_63_305
*10422 FILLER_63_317
*10423 FILLER_63_329
*10424 FILLER_63_333
*10425 FILLER_63_335
*10426 FILLER_63_337
*10427 FILLER_63_349
*10428 FILLER_63_361
*10429 FILLER_63_373
*10430 FILLER_63_385
*10431 FILLER_63_389
*10432 FILLER_63_39
*10433 FILLER_63_391
*10434 FILLER_63_393
*10435 FILLER_63_405
*10436 FILLER_63_417
*10437 FILLER_63_429
*10438 FILLER_63_441
*10439 FILLER_63_445
*10440 FILLER_63_447
*10441 FILLER_63_449
*10442 FILLER_63_461
*10443 FILLER_63_473
*10444 FILLER_63_485
*10445 FILLER_63_497
*10446 FILLER_63_501
*10447 FILLER_63_503
*10448 FILLER_63_505
*10449 FILLER_63_51
*10450 FILLER_63_517
*10451 FILLER_63_529
*10452 FILLER_63_541
*10453 FILLER_63_55
*10454 FILLER_63_553
*10455 FILLER_63_557
*10456 FILLER_63_559
*10457 FILLER_63_561
*10458 FILLER_63_57
*10459 FILLER_63_573
*10460 FILLER_63_585
*10461 FILLER_63_597
*10462 FILLER_63_609
*10463 FILLER_63_613
*10464 FILLER_63_615
*10465 FILLER_63_617
*10466 FILLER_63_629
*10467 FILLER_63_641
*10468 FILLER_63_653
*10469 FILLER_63_665
*10470 FILLER_63_669
*10471 FILLER_63_671
*10472 FILLER_63_673
*10473 FILLER_63_685
*10474 FILLER_63_69
*10475 FILLER_63_697
*10476 FILLER_63_709
*10477 FILLER_63_721
*10478 FILLER_63_725
*10479 FILLER_63_727
*10480 FILLER_63_729
*10481 FILLER_63_741
*10482 FILLER_63_753
*10483 FILLER_63_765
*10484 FILLER_63_777
*10485 FILLER_63_781
*10486 FILLER_63_783
*10487 FILLER_63_785
*10488 FILLER_63_797
*10489 FILLER_63_809
*10490 FILLER_63_81
*10491 FILLER_63_821
*10492 FILLER_63_833
*10493 FILLER_63_837
*10494 FILLER_63_839
*10495 FILLER_63_841
*10496 FILLER_63_93
*10497 FILLER_64_109
*10498 FILLER_64_121
*10499 FILLER_64_133
*10500 FILLER_64_137
*10501 FILLER_64_139
*10502 FILLER_64_141
*10503 FILLER_64_15
*10504 FILLER_64_153
*10505 FILLER_64_165
*10506 FILLER_64_177
*10507 FILLER_64_189
*10508 FILLER_64_193
*10509 FILLER_64_195
*10510 FILLER_64_197
*10511 FILLER_64_209
*10512 FILLER_64_221
*10513 FILLER_64_233
*10514 FILLER_64_245
*10515 FILLER_64_249
*10516 FILLER_64_251
*10517 FILLER_64_253
*10518 FILLER_64_265
*10519 FILLER_64_27
*10520 FILLER_64_277
*10521 FILLER_64_289
*10522 FILLER_64_29
*10523 FILLER_64_3
*10524 FILLER_64_301
*10525 FILLER_64_305
*10526 FILLER_64_307
*10527 FILLER_64_309
*10528 FILLER_64_321
*10529 FILLER_64_333
*10530 FILLER_64_345
*10531 FILLER_64_357
*10532 FILLER_64_361
*10533 FILLER_64_363
*10534 FILLER_64_365
*10535 FILLER_64_377
*10536 FILLER_64_389
*10537 FILLER_64_401
*10538 FILLER_64_41
*10539 FILLER_64_413
*10540 FILLER_64_417
*10541 FILLER_64_419
*10542 FILLER_64_421
*10543 FILLER_64_433
*10544 FILLER_64_445
*10545 FILLER_64_457
*10546 FILLER_64_469
*10547 FILLER_64_473
*10548 FILLER_64_475
*10549 FILLER_64_477
*10550 FILLER_64_489
*10551 FILLER_64_501
*10552 FILLER_64_513
*10553 FILLER_64_525
*10554 FILLER_64_529
*10555 FILLER_64_53
*10556 FILLER_64_531
*10557 FILLER_64_533
*10558 FILLER_64_545
*10559 FILLER_64_557
*10560 FILLER_64_569
*10561 FILLER_64_581
*10562 FILLER_64_585
*10563 FILLER_64_587
*10564 FILLER_64_589
*10565 FILLER_64_601
*10566 FILLER_64_613
*10567 FILLER_64_625
*10568 FILLER_64_637
*10569 FILLER_64_641
*10570 FILLER_64_643
*10571 FILLER_64_645
*10572 FILLER_64_65
*10573 FILLER_64_657
*10574 FILLER_64_669
*10575 FILLER_64_681
*10576 FILLER_64_693
*10577 FILLER_64_697
*10578 FILLER_64_699
*10579 FILLER_64_701
*10580 FILLER_64_713
*10581 FILLER_64_725
*10582 FILLER_64_737
*10583 FILLER_64_749
*10584 FILLER_64_753
*10585 FILLER_64_755
*10586 FILLER_64_757
*10587 FILLER_64_769
*10588 FILLER_64_77
*10589 FILLER_64_781
*10590 FILLER_64_793
*10591 FILLER_64_805
*10592 FILLER_64_809
*10593 FILLER_64_81
*10594 FILLER_64_811
*10595 FILLER_64_813
*10596 FILLER_64_825
*10597 FILLER_64_83
*10598 FILLER_64_837
*10599 FILLER_64_841
*10600 FILLER_64_85
*10601 FILLER_64_97
*10602 FILLER_65_105
*10603 FILLER_65_109
*10604 FILLER_65_111
*10605 FILLER_65_113
*10606 FILLER_65_125
*10607 FILLER_65_137
*10608 FILLER_65_149
*10609 FILLER_65_15
*10610 FILLER_65_161
*10611 FILLER_65_165
*10612 FILLER_65_167
*10613 FILLER_65_169
*10614 FILLER_65_181
*10615 FILLER_65_193
*10616 FILLER_65_205
*10617 FILLER_65_217
*10618 FILLER_65_221
*10619 FILLER_65_223
*10620 FILLER_65_225
*10621 FILLER_65_237
*10622 FILLER_65_249
*10623 FILLER_65_261
*10624 FILLER_65_27
*10625 FILLER_65_273
*10626 FILLER_65_277
*10627 FILLER_65_279
*10628 FILLER_65_281
*10629 FILLER_65_293
*10630 FILLER_65_3
*10631 FILLER_65_305
*10632 FILLER_65_317
*10633 FILLER_65_329
*10634 FILLER_65_333
*10635 FILLER_65_335
*10636 FILLER_65_337
*10637 FILLER_65_349
*10638 FILLER_65_361
*10639 FILLER_65_373
*10640 FILLER_65_385
*10641 FILLER_65_389
*10642 FILLER_65_39
*10643 FILLER_65_391
*10644 FILLER_65_393
*10645 FILLER_65_405
*10646 FILLER_65_417
*10647 FILLER_65_429
*10648 FILLER_65_441
*10649 FILLER_65_445
*10650 FILLER_65_447
*10651 FILLER_65_449
*10652 FILLER_65_461
*10653 FILLER_65_473
*10654 FILLER_65_485
*10655 FILLER_65_497
*10656 FILLER_65_501
*10657 FILLER_65_503
*10658 FILLER_65_505
*10659 FILLER_65_51
*10660 FILLER_65_517
*10661 FILLER_65_529
*10662 FILLER_65_541
*10663 FILLER_65_55
*10664 FILLER_65_553
*10665 FILLER_65_557
*10666 FILLER_65_559
*10667 FILLER_65_561
*10668 FILLER_65_57
*10669 FILLER_65_573
*10670 FILLER_65_585
*10671 FILLER_65_597
*10672 FILLER_65_609
*10673 FILLER_65_613
*10674 FILLER_65_615
*10675 FILLER_65_617
*10676 FILLER_65_629
*10677 FILLER_65_641
*10678 FILLER_65_653
*10679 FILLER_65_665
*10680 FILLER_65_669
*10681 FILLER_65_671
*10682 FILLER_65_673
*10683 FILLER_65_685
*10684 FILLER_65_69
*10685 FILLER_65_697
*10686 FILLER_65_709
*10687 FILLER_65_721
*10688 FILLER_65_725
*10689 FILLER_65_727
*10690 FILLER_65_729
*10691 FILLER_65_741
*10692 FILLER_65_753
*10693 FILLER_65_765
*10694 FILLER_65_777
*10695 FILLER_65_781
*10696 FILLER_65_783
*10697 FILLER_65_785
*10698 FILLER_65_797
*10699 FILLER_65_809
*10700 FILLER_65_81
*10701 FILLER_65_821
*10702 FILLER_65_833
*10703 FILLER_65_837
*10704 FILLER_65_839
*10705 FILLER_65_841
*10706 FILLER_65_93
*10707 FILLER_66_109
*10708 FILLER_66_121
*10709 FILLER_66_133
*10710 FILLER_66_137
*10711 FILLER_66_139
*10712 FILLER_66_141
*10713 FILLER_66_15
*10714 FILLER_66_153
*10715 FILLER_66_165
*10716 FILLER_66_177
*10717 FILLER_66_189
*10718 FILLER_66_193
*10719 FILLER_66_195
*10720 FILLER_66_197
*10721 FILLER_66_209
*10722 FILLER_66_221
*10723 FILLER_66_233
*10724 FILLER_66_245
*10725 FILLER_66_249
*10726 FILLER_66_251
*10727 FILLER_66_253
*10728 FILLER_66_265
*10729 FILLER_66_27
*10730 FILLER_66_277
*10731 FILLER_66_289
*10732 FILLER_66_29
*10733 FILLER_66_3
*10734 FILLER_66_301
*10735 FILLER_66_305
*10736 FILLER_66_307
*10737 FILLER_66_309
*10738 FILLER_66_321
*10739 FILLER_66_333
*10740 FILLER_66_345
*10741 FILLER_66_357
*10742 FILLER_66_361
*10743 FILLER_66_363
*10744 FILLER_66_365
*10745 FILLER_66_377
*10746 FILLER_66_389
*10747 FILLER_66_401
*10748 FILLER_66_41
*10749 FILLER_66_413
*10750 FILLER_66_417
*10751 FILLER_66_419
*10752 FILLER_66_421
*10753 FILLER_66_433
*10754 FILLER_66_445
*10755 FILLER_66_457
*10756 FILLER_66_469
*10757 FILLER_66_473
*10758 FILLER_66_475
*10759 FILLER_66_477
*10760 FILLER_66_489
*10761 FILLER_66_501
*10762 FILLER_66_513
*10763 FILLER_66_525
*10764 FILLER_66_529
*10765 FILLER_66_53
*10766 FILLER_66_531
*10767 FILLER_66_533
*10768 FILLER_66_545
*10769 FILLER_66_557
*10770 FILLER_66_569
*10771 FILLER_66_581
*10772 FILLER_66_585
*10773 FILLER_66_587
*10774 FILLER_66_589
*10775 FILLER_66_601
*10776 FILLER_66_613
*10777 FILLER_66_625
*10778 FILLER_66_637
*10779 FILLER_66_641
*10780 FILLER_66_643
*10781 FILLER_66_645
*10782 FILLER_66_65
*10783 FILLER_66_657
*10784 FILLER_66_669
*10785 FILLER_66_681
*10786 FILLER_66_693
*10787 FILLER_66_697
*10788 FILLER_66_699
*10789 FILLER_66_701
*10790 FILLER_66_713
*10791 FILLER_66_725
*10792 FILLER_66_737
*10793 FILLER_66_749
*10794 FILLER_66_753
*10795 FILLER_66_755
*10796 FILLER_66_757
*10797 FILLER_66_769
*10798 FILLER_66_77
*10799 FILLER_66_781
*10800 FILLER_66_793
*10801 FILLER_66_805
*10802 FILLER_66_809
*10803 FILLER_66_81
*10804 FILLER_66_811
*10805 FILLER_66_813
*10806 FILLER_66_825
*10807 FILLER_66_83
*10808 FILLER_66_837
*10809 FILLER_66_841
*10810 FILLER_66_85
*10811 FILLER_66_97
*10812 FILLER_67_105
*10813 FILLER_67_109
*10814 FILLER_67_111
*10815 FILLER_67_113
*10816 FILLER_67_125
*10817 FILLER_67_137
*10818 FILLER_67_149
*10819 FILLER_67_15
*10820 FILLER_67_161
*10821 FILLER_67_165
*10822 FILLER_67_167
*10823 FILLER_67_169
*10824 FILLER_67_181
*10825 FILLER_67_193
*10826 FILLER_67_205
*10827 FILLER_67_217
*10828 FILLER_67_221
*10829 FILLER_67_223
*10830 FILLER_67_225
*10831 FILLER_67_237
*10832 FILLER_67_249
*10833 FILLER_67_261
*10834 FILLER_67_27
*10835 FILLER_67_273
*10836 FILLER_67_277
*10837 FILLER_67_279
*10838 FILLER_67_281
*10839 FILLER_67_293
*10840 FILLER_67_3
*10841 FILLER_67_305
*10842 FILLER_67_317
*10843 FILLER_67_329
*10844 FILLER_67_333
*10845 FILLER_67_335
*10846 FILLER_67_337
*10847 FILLER_67_349
*10848 FILLER_67_361
*10849 FILLER_67_373
*10850 FILLER_67_385
*10851 FILLER_67_389
*10852 FILLER_67_39
*10853 FILLER_67_391
*10854 FILLER_67_393
*10855 FILLER_67_405
*10856 FILLER_67_417
*10857 FILLER_67_429
*10858 FILLER_67_441
*10859 FILLER_67_445
*10860 FILLER_67_447
*10861 FILLER_67_449
*10862 FILLER_67_461
*10863 FILLER_67_473
*10864 FILLER_67_485
*10865 FILLER_67_497
*10866 FILLER_67_501
*10867 FILLER_67_503
*10868 FILLER_67_505
*10869 FILLER_67_51
*10870 FILLER_67_517
*10871 FILLER_67_529
*10872 FILLER_67_541
*10873 FILLER_67_55
*10874 FILLER_67_553
*10875 FILLER_67_557
*10876 FILLER_67_559
*10877 FILLER_67_561
*10878 FILLER_67_57
*10879 FILLER_67_573
*10880 FILLER_67_585
*10881 FILLER_67_597
*10882 FILLER_67_609
*10883 FILLER_67_613
*10884 FILLER_67_615
*10885 FILLER_67_617
*10886 FILLER_67_629
*10887 FILLER_67_641
*10888 FILLER_67_653
*10889 FILLER_67_665
*10890 FILLER_67_669
*10891 FILLER_67_671
*10892 FILLER_67_673
*10893 FILLER_67_685
*10894 FILLER_67_69
*10895 FILLER_67_697
*10896 FILLER_67_709
*10897 FILLER_67_721
*10898 FILLER_67_725
*10899 FILLER_67_727
*10900 FILLER_67_729
*10901 FILLER_67_741
*10902 FILLER_67_753
*10903 FILLER_67_765
*10904 FILLER_67_777
*10905 FILLER_67_781
*10906 FILLER_67_783
*10907 FILLER_67_785
*10908 FILLER_67_797
*10909 FILLER_67_809
*10910 FILLER_67_81
*10911 FILLER_67_821
*10912 FILLER_67_833
*10913 FILLER_67_837
*10914 FILLER_67_839
*10915 FILLER_67_841
*10916 FILLER_67_93
*10917 FILLER_68_109
*10918 FILLER_68_121
*10919 FILLER_68_133
*10920 FILLER_68_137
*10921 FILLER_68_139
*10922 FILLER_68_141
*10923 FILLER_68_15
*10924 FILLER_68_153
*10925 FILLER_68_165
*10926 FILLER_68_177
*10927 FILLER_68_189
*10928 FILLER_68_193
*10929 FILLER_68_195
*10930 FILLER_68_197
*10931 FILLER_68_209
*10932 FILLER_68_221
*10933 FILLER_68_233
*10934 FILLER_68_245
*10935 FILLER_68_249
*10936 FILLER_68_251
*10937 FILLER_68_253
*10938 FILLER_68_265
*10939 FILLER_68_27
*10940 FILLER_68_277
*10941 FILLER_68_289
*10942 FILLER_68_29
*10943 FILLER_68_3
*10944 FILLER_68_301
*10945 FILLER_68_305
*10946 FILLER_68_307
*10947 FILLER_68_309
*10948 FILLER_68_321
*10949 FILLER_68_333
*10950 FILLER_68_345
*10951 FILLER_68_357
*10952 FILLER_68_361
*10953 FILLER_68_363
*10954 FILLER_68_365
*10955 FILLER_68_377
*10956 FILLER_68_389
*10957 FILLER_68_401
*10958 FILLER_68_41
*10959 FILLER_68_413
*10960 FILLER_68_417
*10961 FILLER_68_419
*10962 FILLER_68_421
*10963 FILLER_68_433
*10964 FILLER_68_445
*10965 FILLER_68_457
*10966 FILLER_68_469
*10967 FILLER_68_473
*10968 FILLER_68_475
*10969 FILLER_68_477
*10970 FILLER_68_489
*10971 FILLER_68_501
*10972 FILLER_68_513
*10973 FILLER_68_525
*10974 FILLER_68_529
*10975 FILLER_68_53
*10976 FILLER_68_531
*10977 FILLER_68_533
*10978 FILLER_68_545
*10979 FILLER_68_557
*10980 FILLER_68_569
*10981 FILLER_68_581
*10982 FILLER_68_585
*10983 FILLER_68_587
*10984 FILLER_68_589
*10985 FILLER_68_601
*10986 FILLER_68_613
*10987 FILLER_68_625
*10988 FILLER_68_637
*10989 FILLER_68_641
*10990 FILLER_68_643
*10991 FILLER_68_645
*10992 FILLER_68_65
*10993 FILLER_68_657
*10994 FILLER_68_669
*10995 FILLER_68_681
*10996 FILLER_68_693
*10997 FILLER_68_697
*10998 FILLER_68_699
*10999 FILLER_68_701
*11000 FILLER_68_713
*11001 FILLER_68_725
*11002 FILLER_68_737
*11003 FILLER_68_749
*11004 FILLER_68_753
*11005 FILLER_68_755
*11006 FILLER_68_757
*11007 FILLER_68_769
*11008 FILLER_68_77
*11009 FILLER_68_781
*11010 FILLER_68_793
*11011 FILLER_68_805
*11012 FILLER_68_809
*11013 FILLER_68_81
*11014 FILLER_68_811
*11015 FILLER_68_813
*11016 FILLER_68_825
*11017 FILLER_68_83
*11018 FILLER_68_837
*11019 FILLER_68_841
*11020 FILLER_68_85
*11021 FILLER_68_97
*11022 FILLER_69_105
*11023 FILLER_69_109
*11024 FILLER_69_111
*11025 FILLER_69_113
*11026 FILLER_69_125
*11027 FILLER_69_137
*11028 FILLER_69_149
*11029 FILLER_69_15
*11030 FILLER_69_161
*11031 FILLER_69_165
*11032 FILLER_69_167
*11033 FILLER_69_169
*11034 FILLER_69_181
*11035 FILLER_69_193
*11036 FILLER_69_205
*11037 FILLER_69_217
*11038 FILLER_69_221
*11039 FILLER_69_223
*11040 FILLER_69_225
*11041 FILLER_69_237
*11042 FILLER_69_249
*11043 FILLER_69_261
*11044 FILLER_69_27
*11045 FILLER_69_273
*11046 FILLER_69_277
*11047 FILLER_69_279
*11048 FILLER_69_281
*11049 FILLER_69_293
*11050 FILLER_69_3
*11051 FILLER_69_305
*11052 FILLER_69_317
*11053 FILLER_69_329
*11054 FILLER_69_333
*11055 FILLER_69_335
*11056 FILLER_69_337
*11057 FILLER_69_349
*11058 FILLER_69_361
*11059 FILLER_69_373
*11060 FILLER_69_385
*11061 FILLER_69_389
*11062 FILLER_69_39
*11063 FILLER_69_391
*11064 FILLER_69_393
*11065 FILLER_69_405
*11066 FILLER_69_417
*11067 FILLER_69_429
*11068 FILLER_69_441
*11069 FILLER_69_445
*11070 FILLER_69_447
*11071 FILLER_69_449
*11072 FILLER_69_461
*11073 FILLER_69_473
*11074 FILLER_69_485
*11075 FILLER_69_497
*11076 FILLER_69_501
*11077 FILLER_69_503
*11078 FILLER_69_505
*11079 FILLER_69_51
*11080 FILLER_69_517
*11081 FILLER_69_529
*11082 FILLER_69_541
*11083 FILLER_69_55
*11084 FILLER_69_553
*11085 FILLER_69_557
*11086 FILLER_69_559
*11087 FILLER_69_561
*11088 FILLER_69_57
*11089 FILLER_69_573
*11090 FILLER_69_585
*11091 FILLER_69_597
*11092 FILLER_69_609
*11093 FILLER_69_613
*11094 FILLER_69_615
*11095 FILLER_69_617
*11096 FILLER_69_629
*11097 FILLER_69_641
*11098 FILLER_69_653
*11099 FILLER_69_665
*11100 FILLER_69_669
*11101 FILLER_69_671
*11102 FILLER_69_673
*11103 FILLER_69_685
*11104 FILLER_69_69
*11105 FILLER_69_697
*11106 FILLER_69_709
*11107 FILLER_69_721
*11108 FILLER_69_725
*11109 FILLER_69_727
*11110 FILLER_69_729
*11111 FILLER_69_741
*11112 FILLER_69_753
*11113 FILLER_69_765
*11114 FILLER_69_777
*11115 FILLER_69_781
*11116 FILLER_69_783
*11117 FILLER_69_785
*11118 FILLER_69_797
*11119 FILLER_69_809
*11120 FILLER_69_81
*11121 FILLER_69_821
*11122 FILLER_69_833
*11123 FILLER_69_837
*11124 FILLER_69_839
*11125 FILLER_69_841
*11126 FILLER_69_93
*11127 FILLER_6_109
*11128 FILLER_6_121
*11129 FILLER_6_133
*11130 FILLER_6_137
*11131 FILLER_6_139
*11132 FILLER_6_141
*11133 FILLER_6_15
*11134 FILLER_6_153
*11135 FILLER_6_165
*11136 FILLER_6_177
*11137 FILLER_6_189
*11138 FILLER_6_193
*11139 FILLER_6_195
*11140 FILLER_6_197
*11141 FILLER_6_209
*11142 FILLER_6_221
*11143 FILLER_6_233
*11144 FILLER_6_245
*11145 FILLER_6_249
*11146 FILLER_6_251
*11147 FILLER_6_253
*11148 FILLER_6_265
*11149 FILLER_6_27
*11150 FILLER_6_277
*11151 FILLER_6_289
*11152 FILLER_6_29
*11153 FILLER_6_3
*11154 FILLER_6_301
*11155 FILLER_6_305
*11156 FILLER_6_307
*11157 FILLER_6_309
*11158 FILLER_6_321
*11159 FILLER_6_333
*11160 FILLER_6_345
*11161 FILLER_6_357
*11162 FILLER_6_361
*11163 FILLER_6_363
*11164 FILLER_6_365
*11165 FILLER_6_377
*11166 FILLER_6_389
*11167 FILLER_6_401
*11168 FILLER_6_41
*11169 FILLER_6_413
*11170 FILLER_6_417
*11171 FILLER_6_419
*11172 FILLER_6_421
*11173 FILLER_6_433
*11174 FILLER_6_445
*11175 FILLER_6_457
*11176 FILLER_6_469
*11177 FILLER_6_473
*11178 FILLER_6_475
*11179 FILLER_6_477
*11180 FILLER_6_489
*11181 FILLER_6_501
*11182 FILLER_6_513
*11183 FILLER_6_525
*11184 FILLER_6_529
*11185 FILLER_6_53
*11186 FILLER_6_531
*11187 FILLER_6_533
*11188 FILLER_6_545
*11189 FILLER_6_557
*11190 FILLER_6_569
*11191 FILLER_6_581
*11192 FILLER_6_585
*11193 FILLER_6_587
*11194 FILLER_6_589
*11195 FILLER_6_601
*11196 FILLER_6_613
*11197 FILLER_6_625
*11198 FILLER_6_637
*11199 FILLER_6_641
*11200 FILLER_6_643
*11201 FILLER_6_645
*11202 FILLER_6_65
*11203 FILLER_6_657
*11204 FILLER_6_669
*11205 FILLER_6_681
*11206 FILLER_6_693
*11207 FILLER_6_697
*11208 FILLER_6_699
*11209 FILLER_6_701
*11210 FILLER_6_713
*11211 FILLER_6_725
*11212 FILLER_6_737
*11213 FILLER_6_749
*11214 FILLER_6_753
*11215 FILLER_6_755
*11216 FILLER_6_757
*11217 FILLER_6_769
*11218 FILLER_6_77
*11219 FILLER_6_781
*11220 FILLER_6_793
*11221 FILLER_6_805
*11222 FILLER_6_809
*11223 FILLER_6_81
*11224 FILLER_6_811
*11225 FILLER_6_813
*11226 FILLER_6_825
*11227 FILLER_6_83
*11228 FILLER_6_837
*11229 FILLER_6_841
*11230 FILLER_6_85
*11231 FILLER_6_97
*11232 FILLER_70_109
*11233 FILLER_70_121
*11234 FILLER_70_133
*11235 FILLER_70_137
*11236 FILLER_70_139
*11237 FILLER_70_141
*11238 FILLER_70_15
*11239 FILLER_70_153
*11240 FILLER_70_165
*11241 FILLER_70_177
*11242 FILLER_70_189
*11243 FILLER_70_193
*11244 FILLER_70_195
*11245 FILLER_70_197
*11246 FILLER_70_209
*11247 FILLER_70_221
*11248 FILLER_70_233
*11249 FILLER_70_245
*11250 FILLER_70_249
*11251 FILLER_70_251
*11252 FILLER_70_253
*11253 FILLER_70_265
*11254 FILLER_70_27
*11255 FILLER_70_277
*11256 FILLER_70_289
*11257 FILLER_70_29
*11258 FILLER_70_3
*11259 FILLER_70_301
*11260 FILLER_70_305
*11261 FILLER_70_307
*11262 FILLER_70_309
*11263 FILLER_70_321
*11264 FILLER_70_333
*11265 FILLER_70_345
*11266 FILLER_70_357
*11267 FILLER_70_361
*11268 FILLER_70_363
*11269 FILLER_70_365
*11270 FILLER_70_377
*11271 FILLER_70_389
*11272 FILLER_70_401
*11273 FILLER_70_41
*11274 FILLER_70_413
*11275 FILLER_70_417
*11276 FILLER_70_419
*11277 FILLER_70_421
*11278 FILLER_70_433
*11279 FILLER_70_445
*11280 FILLER_70_457
*11281 FILLER_70_469
*11282 FILLER_70_473
*11283 FILLER_70_475
*11284 FILLER_70_477
*11285 FILLER_70_489
*11286 FILLER_70_501
*11287 FILLER_70_513
*11288 FILLER_70_525
*11289 FILLER_70_529
*11290 FILLER_70_53
*11291 FILLER_70_531
*11292 FILLER_70_533
*11293 FILLER_70_545
*11294 FILLER_70_557
*11295 FILLER_70_569
*11296 FILLER_70_581
*11297 FILLER_70_585
*11298 FILLER_70_587
*11299 FILLER_70_589
*11300 FILLER_70_601
*11301 FILLER_70_613
*11302 FILLER_70_625
*11303 FILLER_70_637
*11304 FILLER_70_641
*11305 FILLER_70_643
*11306 FILLER_70_645
*11307 FILLER_70_65
*11308 FILLER_70_657
*11309 FILLER_70_669
*11310 FILLER_70_681
*11311 FILLER_70_693
*11312 FILLER_70_697
*11313 FILLER_70_699
*11314 FILLER_70_701
*11315 FILLER_70_713
*11316 FILLER_70_725
*11317 FILLER_70_737
*11318 FILLER_70_749
*11319 FILLER_70_753
*11320 FILLER_70_755
*11321 FILLER_70_757
*11322 FILLER_70_769
*11323 FILLER_70_77
*11324 FILLER_70_781
*11325 FILLER_70_793
*11326 FILLER_70_805
*11327 FILLER_70_809
*11328 FILLER_70_81
*11329 FILLER_70_811
*11330 FILLER_70_813
*11331 FILLER_70_825
*11332 FILLER_70_83
*11333 FILLER_70_837
*11334 FILLER_70_841
*11335 FILLER_70_85
*11336 FILLER_70_97
*11337 FILLER_71_105
*11338 FILLER_71_109
*11339 FILLER_71_111
*11340 FILLER_71_113
*11341 FILLER_71_125
*11342 FILLER_71_137
*11343 FILLER_71_149
*11344 FILLER_71_15
*11345 FILLER_71_161
*11346 FILLER_71_165
*11347 FILLER_71_167
*11348 FILLER_71_169
*11349 FILLER_71_181
*11350 FILLER_71_193
*11351 FILLER_71_205
*11352 FILLER_71_217
*11353 FILLER_71_221
*11354 FILLER_71_223
*11355 FILLER_71_225
*11356 FILLER_71_237
*11357 FILLER_71_249
*11358 FILLER_71_261
*11359 FILLER_71_27
*11360 FILLER_71_273
*11361 FILLER_71_277
*11362 FILLER_71_279
*11363 FILLER_71_281
*11364 FILLER_71_293
*11365 FILLER_71_3
*11366 FILLER_71_305
*11367 FILLER_71_317
*11368 FILLER_71_329
*11369 FILLER_71_333
*11370 FILLER_71_335
*11371 FILLER_71_337
*11372 FILLER_71_349
*11373 FILLER_71_361
*11374 FILLER_71_373
*11375 FILLER_71_385
*11376 FILLER_71_389
*11377 FILLER_71_39
*11378 FILLER_71_391
*11379 FILLER_71_393
*11380 FILLER_71_405
*11381 FILLER_71_417
*11382 FILLER_71_429
*11383 FILLER_71_441
*11384 FILLER_71_445
*11385 FILLER_71_447
*11386 FILLER_71_449
*11387 FILLER_71_461
*11388 FILLER_71_473
*11389 FILLER_71_485
*11390 FILLER_71_497
*11391 FILLER_71_501
*11392 FILLER_71_503
*11393 FILLER_71_505
*11394 FILLER_71_51
*11395 FILLER_71_517
*11396 FILLER_71_529
*11397 FILLER_71_541
*11398 FILLER_71_55
*11399 FILLER_71_553
*11400 FILLER_71_557
*11401 FILLER_71_559
*11402 FILLER_71_561
*11403 FILLER_71_57
*11404 FILLER_71_573
*11405 FILLER_71_585
*11406 FILLER_71_597
*11407 FILLER_71_609
*11408 FILLER_71_613
*11409 FILLER_71_615
*11410 FILLER_71_617
*11411 FILLER_71_629
*11412 FILLER_71_641
*11413 FILLER_71_653
*11414 FILLER_71_665
*11415 FILLER_71_669
*11416 FILLER_71_671
*11417 FILLER_71_673
*11418 FILLER_71_685
*11419 FILLER_71_69
*11420 FILLER_71_697
*11421 FILLER_71_709
*11422 FILLER_71_721
*11423 FILLER_71_725
*11424 FILLER_71_727
*11425 FILLER_71_729
*11426 FILLER_71_741
*11427 FILLER_71_753
*11428 FILLER_71_765
*11429 FILLER_71_777
*11430 FILLER_71_781
*11431 FILLER_71_783
*11432 FILLER_71_785
*11433 FILLER_71_797
*11434 FILLER_71_809
*11435 FILLER_71_81
*11436 FILLER_71_821
*11437 FILLER_71_833
*11438 FILLER_71_837
*11439 FILLER_71_839
*11440 FILLER_71_841
*11441 FILLER_71_93
*11442 FILLER_72_109
*11443 FILLER_72_121
*11444 FILLER_72_133
*11445 FILLER_72_137
*11446 FILLER_72_139
*11447 FILLER_72_141
*11448 FILLER_72_15
*11449 FILLER_72_153
*11450 FILLER_72_165
*11451 FILLER_72_177
*11452 FILLER_72_189
*11453 FILLER_72_193
*11454 FILLER_72_195
*11455 FILLER_72_197
*11456 FILLER_72_209
*11457 FILLER_72_221
*11458 FILLER_72_233
*11459 FILLER_72_245
*11460 FILLER_72_249
*11461 FILLER_72_251
*11462 FILLER_72_253
*11463 FILLER_72_265
*11464 FILLER_72_27
*11465 FILLER_72_277
*11466 FILLER_72_289
*11467 FILLER_72_29
*11468 FILLER_72_3
*11469 FILLER_72_301
*11470 FILLER_72_305
*11471 FILLER_72_307
*11472 FILLER_72_309
*11473 FILLER_72_321
*11474 FILLER_72_333
*11475 FILLER_72_345
*11476 FILLER_72_357
*11477 FILLER_72_361
*11478 FILLER_72_363
*11479 FILLER_72_365
*11480 FILLER_72_377
*11481 FILLER_72_389
*11482 FILLER_72_401
*11483 FILLER_72_41
*11484 FILLER_72_413
*11485 FILLER_72_417
*11486 FILLER_72_419
*11487 FILLER_72_421
*11488 FILLER_72_433
*11489 FILLER_72_445
*11490 FILLER_72_457
*11491 FILLER_72_469
*11492 FILLER_72_473
*11493 FILLER_72_475
*11494 FILLER_72_477
*11495 FILLER_72_489
*11496 FILLER_72_501
*11497 FILLER_72_513
*11498 FILLER_72_525
*11499 FILLER_72_529
*11500 FILLER_72_53
*11501 FILLER_72_531
*11502 FILLER_72_533
*11503 FILLER_72_545
*11504 FILLER_72_557
*11505 FILLER_72_569
*11506 FILLER_72_581
*11507 FILLER_72_585
*11508 FILLER_72_587
*11509 FILLER_72_589
*11510 FILLER_72_601
*11511 FILLER_72_613
*11512 FILLER_72_625
*11513 FILLER_72_637
*11514 FILLER_72_641
*11515 FILLER_72_643
*11516 FILLER_72_645
*11517 FILLER_72_65
*11518 FILLER_72_657
*11519 FILLER_72_669
*11520 FILLER_72_681
*11521 FILLER_72_693
*11522 FILLER_72_697
*11523 FILLER_72_699
*11524 FILLER_72_701
*11525 FILLER_72_713
*11526 FILLER_72_725
*11527 FILLER_72_737
*11528 FILLER_72_749
*11529 FILLER_72_753
*11530 FILLER_72_755
*11531 FILLER_72_757
*11532 FILLER_72_769
*11533 FILLER_72_77
*11534 FILLER_72_781
*11535 FILLER_72_793
*11536 FILLER_72_805
*11537 FILLER_72_809
*11538 FILLER_72_81
*11539 FILLER_72_811
*11540 FILLER_72_813
*11541 FILLER_72_825
*11542 FILLER_72_83
*11543 FILLER_72_837
*11544 FILLER_72_841
*11545 FILLER_72_85
*11546 FILLER_72_97
*11547 FILLER_73_105
*11548 FILLER_73_109
*11549 FILLER_73_111
*11550 FILLER_73_113
*11551 FILLER_73_125
*11552 FILLER_73_137
*11553 FILLER_73_149
*11554 FILLER_73_15
*11555 FILLER_73_161
*11556 FILLER_73_165
*11557 FILLER_73_167
*11558 FILLER_73_169
*11559 FILLER_73_181
*11560 FILLER_73_193
*11561 FILLER_73_205
*11562 FILLER_73_217
*11563 FILLER_73_221
*11564 FILLER_73_223
*11565 FILLER_73_225
*11566 FILLER_73_237
*11567 FILLER_73_249
*11568 FILLER_73_261
*11569 FILLER_73_27
*11570 FILLER_73_273
*11571 FILLER_73_277
*11572 FILLER_73_279
*11573 FILLER_73_281
*11574 FILLER_73_293
*11575 FILLER_73_3
*11576 FILLER_73_305
*11577 FILLER_73_317
*11578 FILLER_73_329
*11579 FILLER_73_333
*11580 FILLER_73_335
*11581 FILLER_73_337
*11582 FILLER_73_349
*11583 FILLER_73_361
*11584 FILLER_73_373
*11585 FILLER_73_385
*11586 FILLER_73_389
*11587 FILLER_73_39
*11588 FILLER_73_391
*11589 FILLER_73_393
*11590 FILLER_73_405
*11591 FILLER_73_417
*11592 FILLER_73_429
*11593 FILLER_73_441
*11594 FILLER_73_445
*11595 FILLER_73_447
*11596 FILLER_73_449
*11597 FILLER_73_461
*11598 FILLER_73_473
*11599 FILLER_73_485
*11600 FILLER_73_497
*11601 FILLER_73_501
*11602 FILLER_73_503
*11603 FILLER_73_505
*11604 FILLER_73_51
*11605 FILLER_73_517
*11606 FILLER_73_529
*11607 FILLER_73_541
*11608 FILLER_73_55
*11609 FILLER_73_553
*11610 FILLER_73_557
*11611 FILLER_73_559
*11612 FILLER_73_561
*11613 FILLER_73_57
*11614 FILLER_73_573
*11615 FILLER_73_585
*11616 FILLER_73_597
*11617 FILLER_73_609
*11618 FILLER_73_613
*11619 FILLER_73_615
*11620 FILLER_73_617
*11621 FILLER_73_629
*11622 FILLER_73_641
*11623 FILLER_73_653
*11624 FILLER_73_665
*11625 FILLER_73_669
*11626 FILLER_73_671
*11627 FILLER_73_673
*11628 FILLER_73_685
*11629 FILLER_73_69
*11630 FILLER_73_697
*11631 FILLER_73_709
*11632 FILLER_73_721
*11633 FILLER_73_725
*11634 FILLER_73_727
*11635 FILLER_73_729
*11636 FILLER_73_741
*11637 FILLER_73_753
*11638 FILLER_73_765
*11639 FILLER_73_777
*11640 FILLER_73_781
*11641 FILLER_73_783
*11642 FILLER_73_785
*11643 FILLER_73_797
*11644 FILLER_73_809
*11645 FILLER_73_81
*11646 FILLER_73_821
*11647 FILLER_73_833
*11648 FILLER_73_837
*11649 FILLER_73_839
*11650 FILLER_73_841
*11651 FILLER_73_93
*11652 FILLER_74_109
*11653 FILLER_74_121
*11654 FILLER_74_133
*11655 FILLER_74_137
*11656 FILLER_74_139
*11657 FILLER_74_141
*11658 FILLER_74_15
*11659 FILLER_74_153
*11660 FILLER_74_165
*11661 FILLER_74_177
*11662 FILLER_74_189
*11663 FILLER_74_193
*11664 FILLER_74_195
*11665 FILLER_74_197
*11666 FILLER_74_209
*11667 FILLER_74_221
*11668 FILLER_74_233
*11669 FILLER_74_245
*11670 FILLER_74_249
*11671 FILLER_74_251
*11672 FILLER_74_253
*11673 FILLER_74_265
*11674 FILLER_74_27
*11675 FILLER_74_277
*11676 FILLER_74_289
*11677 FILLER_74_29
*11678 FILLER_74_3
*11679 FILLER_74_301
*11680 FILLER_74_305
*11681 FILLER_74_307
*11682 FILLER_74_309
*11683 FILLER_74_321
*11684 FILLER_74_333
*11685 FILLER_74_345
*11686 FILLER_74_357
*11687 FILLER_74_361
*11688 FILLER_74_363
*11689 FILLER_74_365
*11690 FILLER_74_377
*11691 FILLER_74_389
*11692 FILLER_74_401
*11693 FILLER_74_41
*11694 FILLER_74_413
*11695 FILLER_74_417
*11696 FILLER_74_419
*11697 FILLER_74_421
*11698 FILLER_74_433
*11699 FILLER_74_445
*11700 FILLER_74_457
*11701 FILLER_74_469
*11702 FILLER_74_473
*11703 FILLER_74_475
*11704 FILLER_74_477
*11705 FILLER_74_489
*11706 FILLER_74_501
*11707 FILLER_74_513
*11708 FILLER_74_525
*11709 FILLER_74_529
*11710 FILLER_74_53
*11711 FILLER_74_531
*11712 FILLER_74_533
*11713 FILLER_74_545
*11714 FILLER_74_557
*11715 FILLER_74_569
*11716 FILLER_74_581
*11717 FILLER_74_585
*11718 FILLER_74_587
*11719 FILLER_74_589
*11720 FILLER_74_601
*11721 FILLER_74_613
*11722 FILLER_74_625
*11723 FILLER_74_637
*11724 FILLER_74_641
*11725 FILLER_74_643
*11726 FILLER_74_645
*11727 FILLER_74_65
*11728 FILLER_74_657
*11729 FILLER_74_669
*11730 FILLER_74_681
*11731 FILLER_74_693
*11732 FILLER_74_697
*11733 FILLER_74_699
*11734 FILLER_74_701
*11735 FILLER_74_713
*11736 FILLER_74_725
*11737 FILLER_74_737
*11738 FILLER_74_749
*11739 FILLER_74_753
*11740 FILLER_74_755
*11741 FILLER_74_757
*11742 FILLER_74_769
*11743 FILLER_74_77
*11744 FILLER_74_781
*11745 FILLER_74_793
*11746 FILLER_74_805
*11747 FILLER_74_809
*11748 FILLER_74_81
*11749 FILLER_74_811
*11750 FILLER_74_813
*11751 FILLER_74_825
*11752 FILLER_74_83
*11753 FILLER_74_837
*11754 FILLER_74_841
*11755 FILLER_74_85
*11756 FILLER_74_97
*11757 FILLER_75_105
*11758 FILLER_75_109
*11759 FILLER_75_111
*11760 FILLER_75_113
*11761 FILLER_75_125
*11762 FILLER_75_137
*11763 FILLER_75_149
*11764 FILLER_75_15
*11765 FILLER_75_161
*11766 FILLER_75_165
*11767 FILLER_75_167
*11768 FILLER_75_169
*11769 FILLER_75_181
*11770 FILLER_75_193
*11771 FILLER_75_205
*11772 FILLER_75_217
*11773 FILLER_75_221
*11774 FILLER_75_223
*11775 FILLER_75_225
*11776 FILLER_75_237
*11777 FILLER_75_249
*11778 FILLER_75_261
*11779 FILLER_75_27
*11780 FILLER_75_273
*11781 FILLER_75_277
*11782 FILLER_75_279
*11783 FILLER_75_281
*11784 FILLER_75_293
*11785 FILLER_75_3
*11786 FILLER_75_305
*11787 FILLER_75_317
*11788 FILLER_75_329
*11789 FILLER_75_333
*11790 FILLER_75_335
*11791 FILLER_75_337
*11792 FILLER_75_349
*11793 FILLER_75_361
*11794 FILLER_75_373
*11795 FILLER_75_385
*11796 FILLER_75_389
*11797 FILLER_75_39
*11798 FILLER_75_391
*11799 FILLER_75_393
*11800 FILLER_75_405
*11801 FILLER_75_417
*11802 FILLER_75_429
*11803 FILLER_75_441
*11804 FILLER_75_445
*11805 FILLER_75_447
*11806 FILLER_75_449
*11807 FILLER_75_461
*11808 FILLER_75_473
*11809 FILLER_75_485
*11810 FILLER_75_497
*11811 FILLER_75_501
*11812 FILLER_75_503
*11813 FILLER_75_505
*11814 FILLER_75_51
*11815 FILLER_75_517
*11816 FILLER_75_529
*11817 FILLER_75_541
*11818 FILLER_75_55
*11819 FILLER_75_553
*11820 FILLER_75_557
*11821 FILLER_75_559
*11822 FILLER_75_561
*11823 FILLER_75_57
*11824 FILLER_75_573
*11825 FILLER_75_585
*11826 FILLER_75_597
*11827 FILLER_75_609
*11828 FILLER_75_613
*11829 FILLER_75_615
*11830 FILLER_75_617
*11831 FILLER_75_629
*11832 FILLER_75_641
*11833 FILLER_75_653
*11834 FILLER_75_665
*11835 FILLER_75_669
*11836 FILLER_75_671
*11837 FILLER_75_673
*11838 FILLER_75_685
*11839 FILLER_75_69
*11840 FILLER_75_697
*11841 FILLER_75_709
*11842 FILLER_75_721
*11843 FILLER_75_725
*11844 FILLER_75_727
*11845 FILLER_75_729
*11846 FILLER_75_741
*11847 FILLER_75_753
*11848 FILLER_75_765
*11849 FILLER_75_777
*11850 FILLER_75_781
*11851 FILLER_75_783
*11852 FILLER_75_785
*11853 FILLER_75_797
*11854 FILLER_75_809
*11855 FILLER_75_81
*11856 FILLER_75_821
*11857 FILLER_75_833
*11858 FILLER_75_837
*11859 FILLER_75_839
*11860 FILLER_75_841
*11861 FILLER_75_93
*11862 FILLER_76_109
*11863 FILLER_76_121
*11864 FILLER_76_133
*11865 FILLER_76_137
*11866 FILLER_76_139
*11867 FILLER_76_141
*11868 FILLER_76_15
*11869 FILLER_76_153
*11870 FILLER_76_165
*11871 FILLER_76_177
*11872 FILLER_76_189
*11873 FILLER_76_193
*11874 FILLER_76_195
*11875 FILLER_76_197
*11876 FILLER_76_209
*11877 FILLER_76_221
*11878 FILLER_76_233
*11879 FILLER_76_245
*11880 FILLER_76_249
*11881 FILLER_76_251
*11882 FILLER_76_253
*11883 FILLER_76_265
*11884 FILLER_76_27
*11885 FILLER_76_277
*11886 FILLER_76_289
*11887 FILLER_76_29
*11888 FILLER_76_3
*11889 FILLER_76_301
*11890 FILLER_76_305
*11891 FILLER_76_307
*11892 FILLER_76_309
*11893 FILLER_76_321
*11894 FILLER_76_333
*11895 FILLER_76_345
*11896 FILLER_76_357
*11897 FILLER_76_361
*11898 FILLER_76_363
*11899 FILLER_76_365
*11900 FILLER_76_377
*11901 FILLER_76_389
*11902 FILLER_76_401
*11903 FILLER_76_41
*11904 FILLER_76_413
*11905 FILLER_76_417
*11906 FILLER_76_419
*11907 FILLER_76_421
*11908 FILLER_76_433
*11909 FILLER_76_445
*11910 FILLER_76_457
*11911 FILLER_76_469
*11912 FILLER_76_473
*11913 FILLER_76_475
*11914 FILLER_76_477
*11915 FILLER_76_489
*11916 FILLER_76_501
*11917 FILLER_76_513
*11918 FILLER_76_525
*11919 FILLER_76_529
*11920 FILLER_76_53
*11921 FILLER_76_531
*11922 FILLER_76_533
*11923 FILLER_76_545
*11924 FILLER_76_557
*11925 FILLER_76_569
*11926 FILLER_76_581
*11927 FILLER_76_585
*11928 FILLER_76_587
*11929 FILLER_76_589
*11930 FILLER_76_601
*11931 FILLER_76_613
*11932 FILLER_76_625
*11933 FILLER_76_637
*11934 FILLER_76_641
*11935 FILLER_76_643
*11936 FILLER_76_645
*11937 FILLER_76_65
*11938 FILLER_76_657
*11939 FILLER_76_669
*11940 FILLER_76_681
*11941 FILLER_76_693
*11942 FILLER_76_697
*11943 FILLER_76_699
*11944 FILLER_76_701
*11945 FILLER_76_713
*11946 FILLER_76_725
*11947 FILLER_76_737
*11948 FILLER_76_749
*11949 FILLER_76_753
*11950 FILLER_76_755
*11951 FILLER_76_757
*11952 FILLER_76_769
*11953 FILLER_76_77
*11954 FILLER_76_781
*11955 FILLER_76_793
*11956 FILLER_76_805
*11957 FILLER_76_809
*11958 FILLER_76_81
*11959 FILLER_76_811
*11960 FILLER_76_813
*11961 FILLER_76_825
*11962 FILLER_76_83
*11963 FILLER_76_837
*11964 FILLER_76_841
*11965 FILLER_76_85
*11966 FILLER_76_97
*11967 FILLER_77_105
*11968 FILLER_77_109
*11969 FILLER_77_111
*11970 FILLER_77_113
*11971 FILLER_77_125
*11972 FILLER_77_137
*11973 FILLER_77_149
*11974 FILLER_77_15
*11975 FILLER_77_161
*11976 FILLER_77_165
*11977 FILLER_77_167
*11978 FILLER_77_169
*11979 FILLER_77_181
*11980 FILLER_77_193
*11981 FILLER_77_205
*11982 FILLER_77_217
*11983 FILLER_77_221
*11984 FILLER_77_223
*11985 FILLER_77_225
*11986 FILLER_77_237
*11987 FILLER_77_249
*11988 FILLER_77_261
*11989 FILLER_77_27
*11990 FILLER_77_273
*11991 FILLER_77_277
*11992 FILLER_77_279
*11993 FILLER_77_281
*11994 FILLER_77_293
*11995 FILLER_77_3
*11996 FILLER_77_305
*11997 FILLER_77_317
*11998 FILLER_77_329
*11999 FILLER_77_333
*12000 FILLER_77_335
*12001 FILLER_77_337
*12002 FILLER_77_349
*12003 FILLER_77_361
*12004 FILLER_77_373
*12005 FILLER_77_385
*12006 FILLER_77_389
*12007 FILLER_77_39
*12008 FILLER_77_391
*12009 FILLER_77_393
*12010 FILLER_77_405
*12011 FILLER_77_417
*12012 FILLER_77_429
*12013 FILLER_77_441
*12014 FILLER_77_445
*12015 FILLER_77_447
*12016 FILLER_77_449
*12017 FILLER_77_461
*12018 FILLER_77_473
*12019 FILLER_77_485
*12020 FILLER_77_497
*12021 FILLER_77_501
*12022 FILLER_77_503
*12023 FILLER_77_505
*12024 FILLER_77_51
*12025 FILLER_77_517
*12026 FILLER_77_529
*12027 FILLER_77_541
*12028 FILLER_77_55
*12029 FILLER_77_553
*12030 FILLER_77_557
*12031 FILLER_77_559
*12032 FILLER_77_561
*12033 FILLER_77_57
*12034 FILLER_77_573
*12035 FILLER_77_585
*12036 FILLER_77_597
*12037 FILLER_77_609
*12038 FILLER_77_613
*12039 FILLER_77_615
*12040 FILLER_77_617
*12041 FILLER_77_629
*12042 FILLER_77_641
*12043 FILLER_77_653
*12044 FILLER_77_665
*12045 FILLER_77_669
*12046 FILLER_77_671
*12047 FILLER_77_673
*12048 FILLER_77_685
*12049 FILLER_77_69
*12050 FILLER_77_697
*12051 FILLER_77_709
*12052 FILLER_77_721
*12053 FILLER_77_725
*12054 FILLER_77_727
*12055 FILLER_77_729
*12056 FILLER_77_741
*12057 FILLER_77_753
*12058 FILLER_77_765
*12059 FILLER_77_777
*12060 FILLER_77_781
*12061 FILLER_77_783
*12062 FILLER_77_785
*12063 FILLER_77_797
*12064 FILLER_77_809
*12065 FILLER_77_81
*12066 FILLER_77_821
*12067 FILLER_77_833
*12068 FILLER_77_837
*12069 FILLER_77_839
*12070 FILLER_77_841
*12071 FILLER_77_93
*12072 FILLER_78_109
*12073 FILLER_78_121
*12074 FILLER_78_133
*12075 FILLER_78_137
*12076 FILLER_78_139
*12077 FILLER_78_141
*12078 FILLER_78_15
*12079 FILLER_78_153
*12080 FILLER_78_165
*12081 FILLER_78_177
*12082 FILLER_78_189
*12083 FILLER_78_193
*12084 FILLER_78_195
*12085 FILLER_78_197
*12086 FILLER_78_209
*12087 FILLER_78_221
*12088 FILLER_78_233
*12089 FILLER_78_245
*12090 FILLER_78_249
*12091 FILLER_78_251
*12092 FILLER_78_253
*12093 FILLER_78_265
*12094 FILLER_78_27
*12095 FILLER_78_277
*12096 FILLER_78_289
*12097 FILLER_78_29
*12098 FILLER_78_3
*12099 FILLER_78_301
*12100 FILLER_78_305
*12101 FILLER_78_307
*12102 FILLER_78_309
*12103 FILLER_78_321
*12104 FILLER_78_333
*12105 FILLER_78_345
*12106 FILLER_78_357
*12107 FILLER_78_361
*12108 FILLER_78_363
*12109 FILLER_78_365
*12110 FILLER_78_377
*12111 FILLER_78_389
*12112 FILLER_78_401
*12113 FILLER_78_41
*12114 FILLER_78_413
*12115 FILLER_78_417
*12116 FILLER_78_419
*12117 FILLER_78_421
*12118 FILLER_78_433
*12119 FILLER_78_445
*12120 FILLER_78_457
*12121 FILLER_78_469
*12122 FILLER_78_473
*12123 FILLER_78_475
*12124 FILLER_78_477
*12125 FILLER_78_489
*12126 FILLER_78_501
*12127 FILLER_78_513
*12128 FILLER_78_525
*12129 FILLER_78_529
*12130 FILLER_78_53
*12131 FILLER_78_531
*12132 FILLER_78_533
*12133 FILLER_78_545
*12134 FILLER_78_557
*12135 FILLER_78_569
*12136 FILLER_78_581
*12137 FILLER_78_585
*12138 FILLER_78_587
*12139 FILLER_78_589
*12140 FILLER_78_601
*12141 FILLER_78_613
*12142 FILLER_78_625
*12143 FILLER_78_637
*12144 FILLER_78_641
*12145 FILLER_78_643
*12146 FILLER_78_645
*12147 FILLER_78_65
*12148 FILLER_78_657
*12149 FILLER_78_669
*12150 FILLER_78_681
*12151 FILLER_78_693
*12152 FILLER_78_697
*12153 FILLER_78_699
*12154 FILLER_78_701
*12155 FILLER_78_713
*12156 FILLER_78_725
*12157 FILLER_78_737
*12158 FILLER_78_749
*12159 FILLER_78_753
*12160 FILLER_78_755
*12161 FILLER_78_757
*12162 FILLER_78_769
*12163 FILLER_78_77
*12164 FILLER_78_781
*12165 FILLER_78_793
*12166 FILLER_78_805
*12167 FILLER_78_809
*12168 FILLER_78_81
*12169 FILLER_78_811
*12170 FILLER_78_813
*12171 FILLER_78_825
*12172 FILLER_78_83
*12173 FILLER_78_837
*12174 FILLER_78_841
*12175 FILLER_78_85
*12176 FILLER_78_97
*12177 FILLER_79_105
*12178 FILLER_79_109
*12179 FILLER_79_111
*12180 FILLER_79_113
*12181 FILLER_79_125
*12182 FILLER_79_137
*12183 FILLER_79_149
*12184 FILLER_79_15
*12185 FILLER_79_161
*12186 FILLER_79_165
*12187 FILLER_79_167
*12188 FILLER_79_169
*12189 FILLER_79_181
*12190 FILLER_79_193
*12191 FILLER_79_205
*12192 FILLER_79_217
*12193 FILLER_79_221
*12194 FILLER_79_223
*12195 FILLER_79_225
*12196 FILLER_79_237
*12197 FILLER_79_249
*12198 FILLER_79_261
*12199 FILLER_79_27
*12200 FILLER_79_273
*12201 FILLER_79_277
*12202 FILLER_79_279
*12203 FILLER_79_281
*12204 FILLER_79_293
*12205 FILLER_79_3
*12206 FILLER_79_305
*12207 FILLER_79_317
*12208 FILLER_79_329
*12209 FILLER_79_333
*12210 FILLER_79_335
*12211 FILLER_79_337
*12212 FILLER_79_349
*12213 FILLER_79_361
*12214 FILLER_79_373
*12215 FILLER_79_385
*12216 FILLER_79_389
*12217 FILLER_79_39
*12218 FILLER_79_391
*12219 FILLER_79_393
*12220 FILLER_79_405
*12221 FILLER_79_417
*12222 FILLER_79_429
*12223 FILLER_79_441
*12224 FILLER_79_445
*12225 FILLER_79_447
*12226 FILLER_79_449
*12227 FILLER_79_461
*12228 FILLER_79_473
*12229 FILLER_79_485
*12230 FILLER_79_497
*12231 FILLER_79_501
*12232 FILLER_79_503
*12233 FILLER_79_505
*12234 FILLER_79_51
*12235 FILLER_79_517
*12236 FILLER_79_529
*12237 FILLER_79_541
*12238 FILLER_79_55
*12239 FILLER_79_553
*12240 FILLER_79_557
*12241 FILLER_79_559
*12242 FILLER_79_561
*12243 FILLER_79_57
*12244 FILLER_79_573
*12245 FILLER_79_585
*12246 FILLER_79_597
*12247 FILLER_79_609
*12248 FILLER_79_613
*12249 FILLER_79_615
*12250 FILLER_79_617
*12251 FILLER_79_629
*12252 FILLER_79_641
*12253 FILLER_79_653
*12254 FILLER_79_665
*12255 FILLER_79_669
*12256 FILLER_79_671
*12257 FILLER_79_673
*12258 FILLER_79_685
*12259 FILLER_79_69
*12260 FILLER_79_697
*12261 FILLER_79_709
*12262 FILLER_79_721
*12263 FILLER_79_725
*12264 FILLER_79_727
*12265 FILLER_79_729
*12266 FILLER_79_741
*12267 FILLER_79_753
*12268 FILLER_79_765
*12269 FILLER_79_777
*12270 FILLER_79_781
*12271 FILLER_79_783
*12272 FILLER_79_785
*12273 FILLER_79_797
*12274 FILLER_79_809
*12275 FILLER_79_81
*12276 FILLER_79_821
*12277 FILLER_79_833
*12278 FILLER_79_837
*12279 FILLER_79_839
*12280 FILLER_79_841
*12281 FILLER_79_93
*12282 FILLER_7_105
*12283 FILLER_7_109
*12284 FILLER_7_111
*12285 FILLER_7_113
*12286 FILLER_7_125
*12287 FILLER_7_137
*12288 FILLER_7_149
*12289 FILLER_7_15
*12290 FILLER_7_161
*12291 FILLER_7_165
*12292 FILLER_7_167
*12293 FILLER_7_169
*12294 FILLER_7_181
*12295 FILLER_7_193
*12296 FILLER_7_205
*12297 FILLER_7_217
*12298 FILLER_7_221
*12299 FILLER_7_223
*12300 FILLER_7_225
*12301 FILLER_7_237
*12302 FILLER_7_249
*12303 FILLER_7_261
*12304 FILLER_7_27
*12305 FILLER_7_273
*12306 FILLER_7_277
*12307 FILLER_7_279
*12308 FILLER_7_281
*12309 FILLER_7_293
*12310 FILLER_7_3
*12311 FILLER_7_305
*12312 FILLER_7_317
*12313 FILLER_7_329
*12314 FILLER_7_333
*12315 FILLER_7_335
*12316 FILLER_7_337
*12317 FILLER_7_349
*12318 FILLER_7_361
*12319 FILLER_7_373
*12320 FILLER_7_385
*12321 FILLER_7_389
*12322 FILLER_7_39
*12323 FILLER_7_391
*12324 FILLER_7_393
*12325 FILLER_7_405
*12326 FILLER_7_417
*12327 FILLER_7_429
*12328 FILLER_7_441
*12329 FILLER_7_445
*12330 FILLER_7_447
*12331 FILLER_7_449
*12332 FILLER_7_461
*12333 FILLER_7_473
*12334 FILLER_7_485
*12335 FILLER_7_497
*12336 FILLER_7_501
*12337 FILLER_7_503
*12338 FILLER_7_505
*12339 FILLER_7_51
*12340 FILLER_7_517
*12341 FILLER_7_529
*12342 FILLER_7_541
*12343 FILLER_7_55
*12344 FILLER_7_553
*12345 FILLER_7_557
*12346 FILLER_7_559
*12347 FILLER_7_561
*12348 FILLER_7_57
*12349 FILLER_7_573
*12350 FILLER_7_585
*12351 FILLER_7_597
*12352 FILLER_7_609
*12353 FILLER_7_613
*12354 FILLER_7_615
*12355 FILLER_7_617
*12356 FILLER_7_629
*12357 FILLER_7_641
*12358 FILLER_7_653
*12359 FILLER_7_665
*12360 FILLER_7_669
*12361 FILLER_7_671
*12362 FILLER_7_673
*12363 FILLER_7_685
*12364 FILLER_7_69
*12365 FILLER_7_697
*12366 FILLER_7_709
*12367 FILLER_7_721
*12368 FILLER_7_725
*12369 FILLER_7_727
*12370 FILLER_7_729
*12371 FILLER_7_741
*12372 FILLER_7_753
*12373 FILLER_7_765
*12374 FILLER_7_777
*12375 FILLER_7_781
*12376 FILLER_7_783
*12377 FILLER_7_785
*12378 FILLER_7_797
*12379 FILLER_7_809
*12380 FILLER_7_81
*12381 FILLER_7_821
*12382 FILLER_7_833
*12383 FILLER_7_837
*12384 FILLER_7_839
*12385 FILLER_7_841
*12386 FILLER_7_93
*12387 FILLER_80_109
*12388 FILLER_80_121
*12389 FILLER_80_133
*12390 FILLER_80_137
*12391 FILLER_80_139
*12392 FILLER_80_141
*12393 FILLER_80_15
*12394 FILLER_80_153
*12395 FILLER_80_165
*12396 FILLER_80_177
*12397 FILLER_80_189
*12398 FILLER_80_193
*12399 FILLER_80_195
*12400 FILLER_80_197
*12401 FILLER_80_209
*12402 FILLER_80_221
*12403 FILLER_80_233
*12404 FILLER_80_245
*12405 FILLER_80_249
*12406 FILLER_80_251
*12407 FILLER_80_253
*12408 FILLER_80_265
*12409 FILLER_80_27
*12410 FILLER_80_277
*12411 FILLER_80_289
*12412 FILLER_80_29
*12413 FILLER_80_3
*12414 FILLER_80_301
*12415 FILLER_80_305
*12416 FILLER_80_307
*12417 FILLER_80_309
*12418 FILLER_80_321
*12419 FILLER_80_333
*12420 FILLER_80_345
*12421 FILLER_80_357
*12422 FILLER_80_361
*12423 FILLER_80_363
*12424 FILLER_80_365
*12425 FILLER_80_377
*12426 FILLER_80_389
*12427 FILLER_80_401
*12428 FILLER_80_41
*12429 FILLER_80_413
*12430 FILLER_80_417
*12431 FILLER_80_419
*12432 FILLER_80_421
*12433 FILLER_80_433
*12434 FILLER_80_445
*12435 FILLER_80_457
*12436 FILLER_80_469
*12437 FILLER_80_473
*12438 FILLER_80_475
*12439 FILLER_80_477
*12440 FILLER_80_489
*12441 FILLER_80_501
*12442 FILLER_80_513
*12443 FILLER_80_525
*12444 FILLER_80_529
*12445 FILLER_80_53
*12446 FILLER_80_531
*12447 FILLER_80_533
*12448 FILLER_80_545
*12449 FILLER_80_557
*12450 FILLER_80_569
*12451 FILLER_80_581
*12452 FILLER_80_585
*12453 FILLER_80_587
*12454 FILLER_80_589
*12455 FILLER_80_601
*12456 FILLER_80_613
*12457 FILLER_80_625
*12458 FILLER_80_637
*12459 FILLER_80_641
*12460 FILLER_80_643
*12461 FILLER_80_645
*12462 FILLER_80_65
*12463 FILLER_80_657
*12464 FILLER_80_669
*12465 FILLER_80_681
*12466 FILLER_80_693
*12467 FILLER_80_697
*12468 FILLER_80_699
*12469 FILLER_80_701
*12470 FILLER_80_713
*12471 FILLER_80_725
*12472 FILLER_80_737
*12473 FILLER_80_749
*12474 FILLER_80_753
*12475 FILLER_80_755
*12476 FILLER_80_757
*12477 FILLER_80_769
*12478 FILLER_80_77
*12479 FILLER_80_781
*12480 FILLER_80_793
*12481 FILLER_80_805
*12482 FILLER_80_809
*12483 FILLER_80_81
*12484 FILLER_80_811
*12485 FILLER_80_813
*12486 FILLER_80_825
*12487 FILLER_80_83
*12488 FILLER_80_837
*12489 FILLER_80_841
*12490 FILLER_80_85
*12491 FILLER_80_97
*12492 FILLER_81_105
*12493 FILLER_81_109
*12494 FILLER_81_111
*12495 FILLER_81_113
*12496 FILLER_81_125
*12497 FILLER_81_137
*12498 FILLER_81_149
*12499 FILLER_81_15
*12500 FILLER_81_161
*12501 FILLER_81_165
*12502 FILLER_81_167
*12503 FILLER_81_169
*12504 FILLER_81_181
*12505 FILLER_81_193
*12506 FILLER_81_205
*12507 FILLER_81_217
*12508 FILLER_81_221
*12509 FILLER_81_223
*12510 FILLER_81_225
*12511 FILLER_81_237
*12512 FILLER_81_249
*12513 FILLER_81_261
*12514 FILLER_81_27
*12515 FILLER_81_273
*12516 FILLER_81_277
*12517 FILLER_81_279
*12518 FILLER_81_281
*12519 FILLER_81_293
*12520 FILLER_81_3
*12521 FILLER_81_305
*12522 FILLER_81_317
*12523 FILLER_81_329
*12524 FILLER_81_333
*12525 FILLER_81_335
*12526 FILLER_81_337
*12527 FILLER_81_349
*12528 FILLER_81_361
*12529 FILLER_81_373
*12530 FILLER_81_385
*12531 FILLER_81_389
*12532 FILLER_81_39
*12533 FILLER_81_391
*12534 FILLER_81_393
*12535 FILLER_81_405
*12536 FILLER_81_417
*12537 FILLER_81_429
*12538 FILLER_81_441
*12539 FILLER_81_445
*12540 FILLER_81_447
*12541 FILLER_81_449
*12542 FILLER_81_461
*12543 FILLER_81_473
*12544 FILLER_81_485
*12545 FILLER_81_497
*12546 FILLER_81_501
*12547 FILLER_81_503
*12548 FILLER_81_505
*12549 FILLER_81_51
*12550 FILLER_81_517
*12551 FILLER_81_529
*12552 FILLER_81_541
*12553 FILLER_81_55
*12554 FILLER_81_553
*12555 FILLER_81_557
*12556 FILLER_81_559
*12557 FILLER_81_561
*12558 FILLER_81_57
*12559 FILLER_81_573
*12560 FILLER_81_585
*12561 FILLER_81_597
*12562 FILLER_81_609
*12563 FILLER_81_613
*12564 FILLER_81_615
*12565 FILLER_81_617
*12566 FILLER_81_629
*12567 FILLER_81_641
*12568 FILLER_81_653
*12569 FILLER_81_665
*12570 FILLER_81_669
*12571 FILLER_81_671
*12572 FILLER_81_673
*12573 FILLER_81_685
*12574 FILLER_81_69
*12575 FILLER_81_697
*12576 FILLER_81_709
*12577 FILLER_81_721
*12578 FILLER_81_725
*12579 FILLER_81_727
*12580 FILLER_81_729
*12581 FILLER_81_741
*12582 FILLER_81_753
*12583 FILLER_81_765
*12584 FILLER_81_777
*12585 FILLER_81_781
*12586 FILLER_81_783
*12587 FILLER_81_785
*12588 FILLER_81_797
*12589 FILLER_81_809
*12590 FILLER_81_81
*12591 FILLER_81_821
*12592 FILLER_81_833
*12593 FILLER_81_837
*12594 FILLER_81_839
*12595 FILLER_81_841
*12596 FILLER_81_93
*12597 FILLER_82_109
*12598 FILLER_82_121
*12599 FILLER_82_133
*12600 FILLER_82_137
*12601 FILLER_82_139
*12602 FILLER_82_141
*12603 FILLER_82_15
*12604 FILLER_82_153
*12605 FILLER_82_165
*12606 FILLER_82_177
*12607 FILLER_82_189
*12608 FILLER_82_193
*12609 FILLER_82_195
*12610 FILLER_82_197
*12611 FILLER_82_209
*12612 FILLER_82_221
*12613 FILLER_82_233
*12614 FILLER_82_245
*12615 FILLER_82_249
*12616 FILLER_82_251
*12617 FILLER_82_253
*12618 FILLER_82_265
*12619 FILLER_82_27
*12620 FILLER_82_277
*12621 FILLER_82_289
*12622 FILLER_82_29
*12623 FILLER_82_3
*12624 FILLER_82_301
*12625 FILLER_82_305
*12626 FILLER_82_307
*12627 FILLER_82_309
*12628 FILLER_82_321
*12629 FILLER_82_333
*12630 FILLER_82_345
*12631 FILLER_82_357
*12632 FILLER_82_361
*12633 FILLER_82_363
*12634 FILLER_82_365
*12635 FILLER_82_377
*12636 FILLER_82_389
*12637 FILLER_82_401
*12638 FILLER_82_41
*12639 FILLER_82_413
*12640 FILLER_82_417
*12641 FILLER_82_419
*12642 FILLER_82_421
*12643 FILLER_82_433
*12644 FILLER_82_445
*12645 FILLER_82_457
*12646 FILLER_82_469
*12647 FILLER_82_473
*12648 FILLER_82_475
*12649 FILLER_82_477
*12650 FILLER_82_489
*12651 FILLER_82_501
*12652 FILLER_82_513
*12653 FILLER_82_525
*12654 FILLER_82_529
*12655 FILLER_82_53
*12656 FILLER_82_531
*12657 FILLER_82_533
*12658 FILLER_82_545
*12659 FILLER_82_557
*12660 FILLER_82_569
*12661 FILLER_82_581
*12662 FILLER_82_585
*12663 FILLER_82_587
*12664 FILLER_82_589
*12665 FILLER_82_601
*12666 FILLER_82_613
*12667 FILLER_82_625
*12668 FILLER_82_637
*12669 FILLER_82_641
*12670 FILLER_82_643
*12671 FILLER_82_645
*12672 FILLER_82_65
*12673 FILLER_82_657
*12674 FILLER_82_669
*12675 FILLER_82_681
*12676 FILLER_82_693
*12677 FILLER_82_697
*12678 FILLER_82_699
*12679 FILLER_82_701
*12680 FILLER_82_713
*12681 FILLER_82_725
*12682 FILLER_82_737
*12683 FILLER_82_749
*12684 FILLER_82_753
*12685 FILLER_82_755
*12686 FILLER_82_757
*12687 FILLER_82_769
*12688 FILLER_82_77
*12689 FILLER_82_781
*12690 FILLER_82_793
*12691 FILLER_82_805
*12692 FILLER_82_809
*12693 FILLER_82_81
*12694 FILLER_82_811
*12695 FILLER_82_813
*12696 FILLER_82_825
*12697 FILLER_82_83
*12698 FILLER_82_837
*12699 FILLER_82_841
*12700 FILLER_82_85
*12701 FILLER_82_97
*12702 FILLER_83_105
*12703 FILLER_83_109
*12704 FILLER_83_111
*12705 FILLER_83_113
*12706 FILLER_83_125
*12707 FILLER_83_137
*12708 FILLER_83_149
*12709 FILLER_83_15
*12710 FILLER_83_161
*12711 FILLER_83_165
*12712 FILLER_83_167
*12713 FILLER_83_169
*12714 FILLER_83_181
*12715 FILLER_83_193
*12716 FILLER_83_205
*12717 FILLER_83_217
*12718 FILLER_83_221
*12719 FILLER_83_223
*12720 FILLER_83_225
*12721 FILLER_83_237
*12722 FILLER_83_249
*12723 FILLER_83_261
*12724 FILLER_83_27
*12725 FILLER_83_273
*12726 FILLER_83_277
*12727 FILLER_83_279
*12728 FILLER_83_281
*12729 FILLER_83_293
*12730 FILLER_83_3
*12731 FILLER_83_305
*12732 FILLER_83_317
*12733 FILLER_83_329
*12734 FILLER_83_333
*12735 FILLER_83_335
*12736 FILLER_83_337
*12737 FILLER_83_349
*12738 FILLER_83_361
*12739 FILLER_83_373
*12740 FILLER_83_385
*12741 FILLER_83_389
*12742 FILLER_83_39
*12743 FILLER_83_391
*12744 FILLER_83_393
*12745 FILLER_83_405
*12746 FILLER_83_417
*12747 FILLER_83_429
*12748 FILLER_83_441
*12749 FILLER_83_445
*12750 FILLER_83_447
*12751 FILLER_83_449
*12752 FILLER_83_461
*12753 FILLER_83_473
*12754 FILLER_83_485
*12755 FILLER_83_497
*12756 FILLER_83_501
*12757 FILLER_83_503
*12758 FILLER_83_505
*12759 FILLER_83_51
*12760 FILLER_83_517
*12761 FILLER_83_529
*12762 FILLER_83_541
*12763 FILLER_83_55
*12764 FILLER_83_553
*12765 FILLER_83_557
*12766 FILLER_83_559
*12767 FILLER_83_561
*12768 FILLER_83_57
*12769 FILLER_83_573
*12770 FILLER_83_585
*12771 FILLER_83_597
*12772 FILLER_83_609
*12773 FILLER_83_613
*12774 FILLER_83_615
*12775 FILLER_83_617
*12776 FILLER_83_629
*12777 FILLER_83_641
*12778 FILLER_83_653
*12779 FILLER_83_665
*12780 FILLER_83_669
*12781 FILLER_83_671
*12782 FILLER_83_673
*12783 FILLER_83_685
*12784 FILLER_83_69
*12785 FILLER_83_697
*12786 FILLER_83_709
*12787 FILLER_83_721
*12788 FILLER_83_725
*12789 FILLER_83_727
*12790 FILLER_83_729
*12791 FILLER_83_741
*12792 FILLER_83_753
*12793 FILLER_83_765
*12794 FILLER_83_777
*12795 FILLER_83_781
*12796 FILLER_83_783
*12797 FILLER_83_785
*12798 FILLER_83_797
*12799 FILLER_83_809
*12800 FILLER_83_81
*12801 FILLER_83_821
*12802 FILLER_83_833
*12803 FILLER_83_837
*12804 FILLER_83_839
*12805 FILLER_83_841
*12806 FILLER_83_93
*12807 FILLER_84_109
*12808 FILLER_84_121
*12809 FILLER_84_133
*12810 FILLER_84_137
*12811 FILLER_84_139
*12812 FILLER_84_141
*12813 FILLER_84_15
*12814 FILLER_84_153
*12815 FILLER_84_165
*12816 FILLER_84_177
*12817 FILLER_84_189
*12818 FILLER_84_193
*12819 FILLER_84_195
*12820 FILLER_84_197
*12821 FILLER_84_209
*12822 FILLER_84_221
*12823 FILLER_84_233
*12824 FILLER_84_245
*12825 FILLER_84_249
*12826 FILLER_84_251
*12827 FILLER_84_253
*12828 FILLER_84_265
*12829 FILLER_84_27
*12830 FILLER_84_277
*12831 FILLER_84_289
*12832 FILLER_84_29
*12833 FILLER_84_3
*12834 FILLER_84_301
*12835 FILLER_84_305
*12836 FILLER_84_307
*12837 FILLER_84_309
*12838 FILLER_84_321
*12839 FILLER_84_333
*12840 FILLER_84_345
*12841 FILLER_84_357
*12842 FILLER_84_361
*12843 FILLER_84_363
*12844 FILLER_84_365
*12845 FILLER_84_377
*12846 FILLER_84_389
*12847 FILLER_84_401
*12848 FILLER_84_41
*12849 FILLER_84_413
*12850 FILLER_84_417
*12851 FILLER_84_419
*12852 FILLER_84_421
*12853 FILLER_84_433
*12854 FILLER_84_445
*12855 FILLER_84_457
*12856 FILLER_84_469
*12857 FILLER_84_473
*12858 FILLER_84_475
*12859 FILLER_84_477
*12860 FILLER_84_489
*12861 FILLER_84_501
*12862 FILLER_84_513
*12863 FILLER_84_525
*12864 FILLER_84_529
*12865 FILLER_84_53
*12866 FILLER_84_531
*12867 FILLER_84_533
*12868 FILLER_84_545
*12869 FILLER_84_557
*12870 FILLER_84_569
*12871 FILLER_84_581
*12872 FILLER_84_585
*12873 FILLER_84_587
*12874 FILLER_84_589
*12875 FILLER_84_601
*12876 FILLER_84_613
*12877 FILLER_84_625
*12878 FILLER_84_637
*12879 FILLER_84_641
*12880 FILLER_84_643
*12881 FILLER_84_645
*12882 FILLER_84_65
*12883 FILLER_84_657
*12884 FILLER_84_669
*12885 FILLER_84_681
*12886 FILLER_84_693
*12887 FILLER_84_697
*12888 FILLER_84_699
*12889 FILLER_84_701
*12890 FILLER_84_713
*12891 FILLER_84_725
*12892 FILLER_84_737
*12893 FILLER_84_749
*12894 FILLER_84_753
*12895 FILLER_84_755
*12896 FILLER_84_757
*12897 FILLER_84_769
*12898 FILLER_84_77
*12899 FILLER_84_781
*12900 FILLER_84_793
*12901 FILLER_84_805
*12902 FILLER_84_809
*12903 FILLER_84_81
*12904 FILLER_84_811
*12905 FILLER_84_813
*12906 FILLER_84_825
*12907 FILLER_84_83
*12908 FILLER_84_837
*12909 FILLER_84_841
*12910 FILLER_84_85
*12911 FILLER_84_97
*12912 FILLER_85_105
*12913 FILLER_85_109
*12914 FILLER_85_111
*12915 FILLER_85_113
*12916 FILLER_85_125
*12917 FILLER_85_137
*12918 FILLER_85_149
*12919 FILLER_85_15
*12920 FILLER_85_161
*12921 FILLER_85_165
*12922 FILLER_85_167
*12923 FILLER_85_169
*12924 FILLER_85_181
*12925 FILLER_85_193
*12926 FILLER_85_205
*12927 FILLER_85_217
*12928 FILLER_85_221
*12929 FILLER_85_223
*12930 FILLER_85_225
*12931 FILLER_85_237
*12932 FILLER_85_249
*12933 FILLER_85_261
*12934 FILLER_85_27
*12935 FILLER_85_273
*12936 FILLER_85_277
*12937 FILLER_85_279
*12938 FILLER_85_281
*12939 FILLER_85_293
*12940 FILLER_85_3
*12941 FILLER_85_305
*12942 FILLER_85_317
*12943 FILLER_85_329
*12944 FILLER_85_333
*12945 FILLER_85_335
*12946 FILLER_85_337
*12947 FILLER_85_349
*12948 FILLER_85_361
*12949 FILLER_85_373
*12950 FILLER_85_385
*12951 FILLER_85_389
*12952 FILLER_85_39
*12953 FILLER_85_391
*12954 FILLER_85_393
*12955 FILLER_85_405
*12956 FILLER_85_417
*12957 FILLER_85_429
*12958 FILLER_85_441
*12959 FILLER_85_445
*12960 FILLER_85_447
*12961 FILLER_85_449
*12962 FILLER_85_461
*12963 FILLER_85_473
*12964 FILLER_85_485
*12965 FILLER_85_497
*12966 FILLER_85_501
*12967 FILLER_85_503
*12968 FILLER_85_505
*12969 FILLER_85_51
*12970 FILLER_85_517
*12971 FILLER_85_529
*12972 FILLER_85_541
*12973 FILLER_85_55
*12974 FILLER_85_553
*12975 FILLER_85_557
*12976 FILLER_85_559
*12977 FILLER_85_561
*12978 FILLER_85_57
*12979 FILLER_85_573
*12980 FILLER_85_585
*12981 FILLER_85_597
*12982 FILLER_85_609
*12983 FILLER_85_613
*12984 FILLER_85_615
*12985 FILLER_85_617
*12986 FILLER_85_629
*12987 FILLER_85_641
*12988 FILLER_85_653
*12989 FILLER_85_665
*12990 FILLER_85_669
*12991 FILLER_85_671
*12992 FILLER_85_673
*12993 FILLER_85_685
*12994 FILLER_85_69
*12995 FILLER_85_697
*12996 FILLER_85_709
*12997 FILLER_85_721
*12998 FILLER_85_725
*12999 FILLER_85_727
*13000 FILLER_85_729
*13001 FILLER_85_741
*13002 FILLER_85_753
*13003 FILLER_85_765
*13004 FILLER_85_777
*13005 FILLER_85_781
*13006 FILLER_85_783
*13007 FILLER_85_785
*13008 FILLER_85_797
*13009 FILLER_85_809
*13010 FILLER_85_81
*13011 FILLER_85_821
*13012 FILLER_85_833
*13013 FILLER_85_837
*13014 FILLER_85_839
*13015 FILLER_85_841
*13016 FILLER_85_93
*13017 FILLER_86_109
*13018 FILLER_86_121
*13019 FILLER_86_133
*13020 FILLER_86_137
*13021 FILLER_86_139
*13022 FILLER_86_141
*13023 FILLER_86_15
*13024 FILLER_86_153
*13025 FILLER_86_165
*13026 FILLER_86_177
*13027 FILLER_86_189
*13028 FILLER_86_193
*13029 FILLER_86_195
*13030 FILLER_86_197
*13031 FILLER_86_209
*13032 FILLER_86_221
*13033 FILLER_86_233
*13034 FILLER_86_245
*13035 FILLER_86_249
*13036 FILLER_86_251
*13037 FILLER_86_253
*13038 FILLER_86_265
*13039 FILLER_86_27
*13040 FILLER_86_277
*13041 FILLER_86_289
*13042 FILLER_86_29
*13043 FILLER_86_3
*13044 FILLER_86_301
*13045 FILLER_86_305
*13046 FILLER_86_307
*13047 FILLER_86_309
*13048 FILLER_86_321
*13049 FILLER_86_333
*13050 FILLER_86_345
*13051 FILLER_86_357
*13052 FILLER_86_361
*13053 FILLER_86_363
*13054 FILLER_86_365
*13055 FILLER_86_377
*13056 FILLER_86_389
*13057 FILLER_86_401
*13058 FILLER_86_41
*13059 FILLER_86_413
*13060 FILLER_86_417
*13061 FILLER_86_419
*13062 FILLER_86_421
*13063 FILLER_86_433
*13064 FILLER_86_445
*13065 FILLER_86_457
*13066 FILLER_86_469
*13067 FILLER_86_473
*13068 FILLER_86_475
*13069 FILLER_86_477
*13070 FILLER_86_489
*13071 FILLER_86_501
*13072 FILLER_86_513
*13073 FILLER_86_525
*13074 FILLER_86_529
*13075 FILLER_86_53
*13076 FILLER_86_531
*13077 FILLER_86_533
*13078 FILLER_86_545
*13079 FILLER_86_557
*13080 FILLER_86_569
*13081 FILLER_86_581
*13082 FILLER_86_585
*13083 FILLER_86_587
*13084 FILLER_86_589
*13085 FILLER_86_601
*13086 FILLER_86_613
*13087 FILLER_86_625
*13088 FILLER_86_637
*13089 FILLER_86_641
*13090 FILLER_86_643
*13091 FILLER_86_645
*13092 FILLER_86_65
*13093 FILLER_86_657
*13094 FILLER_86_669
*13095 FILLER_86_681
*13096 FILLER_86_693
*13097 FILLER_86_697
*13098 FILLER_86_699
*13099 FILLER_86_701
*13100 FILLER_86_713
*13101 FILLER_86_725
*13102 FILLER_86_737
*13103 FILLER_86_749
*13104 FILLER_86_753
*13105 FILLER_86_755
*13106 FILLER_86_757
*13107 FILLER_86_769
*13108 FILLER_86_77
*13109 FILLER_86_781
*13110 FILLER_86_793
*13111 FILLER_86_805
*13112 FILLER_86_809
*13113 FILLER_86_81
*13114 FILLER_86_811
*13115 FILLER_86_813
*13116 FILLER_86_825
*13117 FILLER_86_83
*13118 FILLER_86_837
*13119 FILLER_86_841
*13120 FILLER_86_85
*13121 FILLER_86_97
*13122 FILLER_87_105
*13123 FILLER_87_109
*13124 FILLER_87_111
*13125 FILLER_87_113
*13126 FILLER_87_125
*13127 FILLER_87_137
*13128 FILLER_87_149
*13129 FILLER_87_15
*13130 FILLER_87_161
*13131 FILLER_87_165
*13132 FILLER_87_167
*13133 FILLER_87_169
*13134 FILLER_87_181
*13135 FILLER_87_193
*13136 FILLER_87_205
*13137 FILLER_87_217
*13138 FILLER_87_221
*13139 FILLER_87_223
*13140 FILLER_87_225
*13141 FILLER_87_237
*13142 FILLER_87_249
*13143 FILLER_87_261
*13144 FILLER_87_27
*13145 FILLER_87_273
*13146 FILLER_87_277
*13147 FILLER_87_279
*13148 FILLER_87_281
*13149 FILLER_87_293
*13150 FILLER_87_3
*13151 FILLER_87_305
*13152 FILLER_87_317
*13153 FILLER_87_329
*13154 FILLER_87_333
*13155 FILLER_87_335
*13156 FILLER_87_337
*13157 FILLER_87_349
*13158 FILLER_87_361
*13159 FILLER_87_373
*13160 FILLER_87_385
*13161 FILLER_87_389
*13162 FILLER_87_39
*13163 FILLER_87_391
*13164 FILLER_87_393
*13165 FILLER_87_405
*13166 FILLER_87_417
*13167 FILLER_87_429
*13168 FILLER_87_441
*13169 FILLER_87_445
*13170 FILLER_87_447
*13171 FILLER_87_449
*13172 FILLER_87_461
*13173 FILLER_87_473
*13174 FILLER_87_485
*13175 FILLER_87_497
*13176 FILLER_87_501
*13177 FILLER_87_503
*13178 FILLER_87_505
*13179 FILLER_87_51
*13180 FILLER_87_517
*13181 FILLER_87_529
*13182 FILLER_87_541
*13183 FILLER_87_55
*13184 FILLER_87_553
*13185 FILLER_87_557
*13186 FILLER_87_559
*13187 FILLER_87_561
*13188 FILLER_87_57
*13189 FILLER_87_573
*13190 FILLER_87_585
*13191 FILLER_87_597
*13192 FILLER_87_609
*13193 FILLER_87_613
*13194 FILLER_87_615
*13195 FILLER_87_617
*13196 FILLER_87_629
*13197 FILLER_87_641
*13198 FILLER_87_653
*13199 FILLER_87_665
*13200 FILLER_87_669
*13201 FILLER_87_671
*13202 FILLER_87_673
*13203 FILLER_87_685
*13204 FILLER_87_69
*13205 FILLER_87_697
*13206 FILLER_87_709
*13207 FILLER_87_721
*13208 FILLER_87_725
*13209 FILLER_87_727
*13210 FILLER_87_729
*13211 FILLER_87_741
*13212 FILLER_87_753
*13213 FILLER_87_765
*13214 FILLER_87_777
*13215 FILLER_87_781
*13216 FILLER_87_783
*13217 FILLER_87_785
*13218 FILLER_87_797
*13219 FILLER_87_809
*13220 FILLER_87_81
*13221 FILLER_87_821
*13222 FILLER_87_833
*13223 FILLER_87_837
*13224 FILLER_87_839
*13225 FILLER_87_841
*13226 FILLER_87_93
*13227 FILLER_88_109
*13228 FILLER_88_121
*13229 FILLER_88_133
*13230 FILLER_88_137
*13231 FILLER_88_139
*13232 FILLER_88_141
*13233 FILLER_88_15
*13234 FILLER_88_153
*13235 FILLER_88_165
*13236 FILLER_88_177
*13237 FILLER_88_189
*13238 FILLER_88_193
*13239 FILLER_88_195
*13240 FILLER_88_197
*13241 FILLER_88_209
*13242 FILLER_88_221
*13243 FILLER_88_233
*13244 FILLER_88_245
*13245 FILLER_88_249
*13246 FILLER_88_251
*13247 FILLER_88_253
*13248 FILLER_88_265
*13249 FILLER_88_27
*13250 FILLER_88_277
*13251 FILLER_88_289
*13252 FILLER_88_29
*13253 FILLER_88_3
*13254 FILLER_88_301
*13255 FILLER_88_305
*13256 FILLER_88_307
*13257 FILLER_88_309
*13258 FILLER_88_321
*13259 FILLER_88_333
*13260 FILLER_88_345
*13261 FILLER_88_357
*13262 FILLER_88_361
*13263 FILLER_88_363
*13264 FILLER_88_365
*13265 FILLER_88_377
*13266 FILLER_88_389
*13267 FILLER_88_401
*13268 FILLER_88_41
*13269 FILLER_88_413
*13270 FILLER_88_417
*13271 FILLER_88_419
*13272 FILLER_88_421
*13273 FILLER_88_433
*13274 FILLER_88_445
*13275 FILLER_88_457
*13276 FILLER_88_469
*13277 FILLER_88_473
*13278 FILLER_88_475
*13279 FILLER_88_477
*13280 FILLER_88_489
*13281 FILLER_88_501
*13282 FILLER_88_513
*13283 FILLER_88_525
*13284 FILLER_88_529
*13285 FILLER_88_53
*13286 FILLER_88_531
*13287 FILLER_88_533
*13288 FILLER_88_545
*13289 FILLER_88_557
*13290 FILLER_88_569
*13291 FILLER_88_581
*13292 FILLER_88_585
*13293 FILLER_88_587
*13294 FILLER_88_589
*13295 FILLER_88_601
*13296 FILLER_88_613
*13297 FILLER_88_625
*13298 FILLER_88_637
*13299 FILLER_88_641
*13300 FILLER_88_643
*13301 FILLER_88_645
*13302 FILLER_88_65
*13303 FILLER_88_657
*13304 FILLER_88_669
*13305 FILLER_88_681
*13306 FILLER_88_693
*13307 FILLER_88_697
*13308 FILLER_88_699
*13309 FILLER_88_701
*13310 FILLER_88_713
*13311 FILLER_88_725
*13312 FILLER_88_737
*13313 FILLER_88_749
*13314 FILLER_88_753
*13315 FILLER_88_755
*13316 FILLER_88_757
*13317 FILLER_88_769
*13318 FILLER_88_77
*13319 FILLER_88_781
*13320 FILLER_88_793
*13321 FILLER_88_805
*13322 FILLER_88_809
*13323 FILLER_88_81
*13324 FILLER_88_811
*13325 FILLER_88_813
*13326 FILLER_88_825
*13327 FILLER_88_83
*13328 FILLER_88_837
*13329 FILLER_88_841
*13330 FILLER_88_85
*13331 FILLER_88_97
*13332 FILLER_89_105
*13333 FILLER_89_109
*13334 FILLER_89_111
*13335 FILLER_89_113
*13336 FILLER_89_125
*13337 FILLER_89_137
*13338 FILLER_89_149
*13339 FILLER_89_15
*13340 FILLER_89_161
*13341 FILLER_89_165
*13342 FILLER_89_167
*13343 FILLER_89_169
*13344 FILLER_89_181
*13345 FILLER_89_193
*13346 FILLER_89_205
*13347 FILLER_89_217
*13348 FILLER_89_221
*13349 FILLER_89_223
*13350 FILLER_89_225
*13351 FILLER_89_237
*13352 FILLER_89_249
*13353 FILLER_89_261
*13354 FILLER_89_27
*13355 FILLER_89_273
*13356 FILLER_89_277
*13357 FILLER_89_279
*13358 FILLER_89_281
*13359 FILLER_89_293
*13360 FILLER_89_3
*13361 FILLER_89_305
*13362 FILLER_89_317
*13363 FILLER_89_329
*13364 FILLER_89_333
*13365 FILLER_89_335
*13366 FILLER_89_337
*13367 FILLER_89_349
*13368 FILLER_89_361
*13369 FILLER_89_373
*13370 FILLER_89_385
*13371 FILLER_89_389
*13372 FILLER_89_39
*13373 FILLER_89_391
*13374 FILLER_89_393
*13375 FILLER_89_405
*13376 FILLER_89_417
*13377 FILLER_89_429
*13378 FILLER_89_441
*13379 FILLER_89_445
*13380 FILLER_89_447
*13381 FILLER_89_449
*13382 FILLER_89_461
*13383 FILLER_89_473
*13384 FILLER_89_485
*13385 FILLER_89_497
*13386 FILLER_89_501
*13387 FILLER_89_503
*13388 FILLER_89_505
*13389 FILLER_89_51
*13390 FILLER_89_517
*13391 FILLER_89_529
*13392 FILLER_89_541
*13393 FILLER_89_55
*13394 FILLER_89_553
*13395 FILLER_89_557
*13396 FILLER_89_559
*13397 FILLER_89_561
*13398 FILLER_89_57
*13399 FILLER_89_573
*13400 FILLER_89_585
*13401 FILLER_89_597
*13402 FILLER_89_609
*13403 FILLER_89_613
*13404 FILLER_89_615
*13405 FILLER_89_617
*13406 FILLER_89_629
*13407 FILLER_89_641
*13408 FILLER_89_653
*13409 FILLER_89_665
*13410 FILLER_89_669
*13411 FILLER_89_671
*13412 FILLER_89_673
*13413 FILLER_89_685
*13414 FILLER_89_69
*13415 FILLER_89_697
*13416 FILLER_89_709
*13417 FILLER_89_721
*13418 FILLER_89_725
*13419 FILLER_89_727
*13420 FILLER_89_729
*13421 FILLER_89_741
*13422 FILLER_89_753
*13423 FILLER_89_765
*13424 FILLER_89_777
*13425 FILLER_89_781
*13426 FILLER_89_783
*13427 FILLER_89_785
*13428 FILLER_89_797
*13429 FILLER_89_809
*13430 FILLER_89_81
*13431 FILLER_89_821
*13432 FILLER_89_833
*13433 FILLER_89_837
*13434 FILLER_89_839
*13435 FILLER_89_841
*13436 FILLER_89_93
*13437 FILLER_8_109
*13438 FILLER_8_121
*13439 FILLER_8_133
*13440 FILLER_8_137
*13441 FILLER_8_139
*13442 FILLER_8_141
*13443 FILLER_8_15
*13444 FILLER_8_153
*13445 FILLER_8_165
*13446 FILLER_8_177
*13447 FILLER_8_189
*13448 FILLER_8_193
*13449 FILLER_8_195
*13450 FILLER_8_197
*13451 FILLER_8_209
*13452 FILLER_8_221
*13453 FILLER_8_233
*13454 FILLER_8_245
*13455 FILLER_8_249
*13456 FILLER_8_251
*13457 FILLER_8_253
*13458 FILLER_8_265
*13459 FILLER_8_27
*13460 FILLER_8_277
*13461 FILLER_8_289
*13462 FILLER_8_29
*13463 FILLER_8_3
*13464 FILLER_8_301
*13465 FILLER_8_305
*13466 FILLER_8_307
*13467 FILLER_8_309
*13468 FILLER_8_321
*13469 FILLER_8_333
*13470 FILLER_8_345
*13471 FILLER_8_357
*13472 FILLER_8_361
*13473 FILLER_8_363
*13474 FILLER_8_365
*13475 FILLER_8_377
*13476 FILLER_8_389
*13477 FILLER_8_401
*13478 FILLER_8_41
*13479 FILLER_8_413
*13480 FILLER_8_417
*13481 FILLER_8_419
*13482 FILLER_8_421
*13483 FILLER_8_433
*13484 FILLER_8_445
*13485 FILLER_8_457
*13486 FILLER_8_469
*13487 FILLER_8_473
*13488 FILLER_8_475
*13489 FILLER_8_477
*13490 FILLER_8_489
*13491 FILLER_8_501
*13492 FILLER_8_513
*13493 FILLER_8_525
*13494 FILLER_8_529
*13495 FILLER_8_53
*13496 FILLER_8_531
*13497 FILLER_8_533
*13498 FILLER_8_545
*13499 FILLER_8_557
*13500 FILLER_8_569
*13501 FILLER_8_581
*13502 FILLER_8_585
*13503 FILLER_8_587
*13504 FILLER_8_589
*13505 FILLER_8_601
*13506 FILLER_8_613
*13507 FILLER_8_625
*13508 FILLER_8_637
*13509 FILLER_8_641
*13510 FILLER_8_643
*13511 FILLER_8_645
*13512 FILLER_8_65
*13513 FILLER_8_657
*13514 FILLER_8_669
*13515 FILLER_8_681
*13516 FILLER_8_693
*13517 FILLER_8_697
*13518 FILLER_8_699
*13519 FILLER_8_701
*13520 FILLER_8_713
*13521 FILLER_8_725
*13522 FILLER_8_737
*13523 FILLER_8_749
*13524 FILLER_8_753
*13525 FILLER_8_755
*13526 FILLER_8_757
*13527 FILLER_8_769
*13528 FILLER_8_77
*13529 FILLER_8_781
*13530 FILLER_8_793
*13531 FILLER_8_805
*13532 FILLER_8_809
*13533 FILLER_8_81
*13534 FILLER_8_811
*13535 FILLER_8_813
*13536 FILLER_8_825
*13537 FILLER_8_83
*13538 FILLER_8_837
*13539 FILLER_8_841
*13540 FILLER_8_85
*13541 FILLER_8_97
*13542 FILLER_90_109
*13543 FILLER_90_121
*13544 FILLER_90_133
*13545 FILLER_90_137
*13546 FILLER_90_139
*13547 FILLER_90_141
*13548 FILLER_90_15
*13549 FILLER_90_153
*13550 FILLER_90_165
*13551 FILLER_90_177
*13552 FILLER_90_189
*13553 FILLER_90_193
*13554 FILLER_90_195
*13555 FILLER_90_197
*13556 FILLER_90_209
*13557 FILLER_90_221
*13558 FILLER_90_233
*13559 FILLER_90_245
*13560 FILLER_90_249
*13561 FILLER_90_251
*13562 FILLER_90_253
*13563 FILLER_90_265
*13564 FILLER_90_27
*13565 FILLER_90_277
*13566 FILLER_90_289
*13567 FILLER_90_29
*13568 FILLER_90_3
*13569 FILLER_90_301
*13570 FILLER_90_305
*13571 FILLER_90_307
*13572 FILLER_90_309
*13573 FILLER_90_321
*13574 FILLER_90_333
*13575 FILLER_90_345
*13576 FILLER_90_357
*13577 FILLER_90_361
*13578 FILLER_90_363
*13579 FILLER_90_365
*13580 FILLER_90_377
*13581 FILLER_90_389
*13582 FILLER_90_401
*13583 FILLER_90_41
*13584 FILLER_90_413
*13585 FILLER_90_417
*13586 FILLER_90_419
*13587 FILLER_90_421
*13588 FILLER_90_433
*13589 FILLER_90_445
*13590 FILLER_90_457
*13591 FILLER_90_469
*13592 FILLER_90_473
*13593 FILLER_90_475
*13594 FILLER_90_477
*13595 FILLER_90_489
*13596 FILLER_90_501
*13597 FILLER_90_513
*13598 FILLER_90_525
*13599 FILLER_90_529
*13600 FILLER_90_53
*13601 FILLER_90_531
*13602 FILLER_90_533
*13603 FILLER_90_545
*13604 FILLER_90_557
*13605 FILLER_90_569
*13606 FILLER_90_581
*13607 FILLER_90_585
*13608 FILLER_90_587
*13609 FILLER_90_589
*13610 FILLER_90_601
*13611 FILLER_90_613
*13612 FILLER_90_625
*13613 FILLER_90_637
*13614 FILLER_90_641
*13615 FILLER_90_643
*13616 FILLER_90_645
*13617 FILLER_90_65
*13618 FILLER_90_657
*13619 FILLER_90_669
*13620 FILLER_90_681
*13621 FILLER_90_693
*13622 FILLER_90_697
*13623 FILLER_90_699
*13624 FILLER_90_701
*13625 FILLER_90_713
*13626 FILLER_90_725
*13627 FILLER_90_737
*13628 FILLER_90_749
*13629 FILLER_90_753
*13630 FILLER_90_755
*13631 FILLER_90_757
*13632 FILLER_90_769
*13633 FILLER_90_77
*13634 FILLER_90_781
*13635 FILLER_90_793
*13636 FILLER_90_805
*13637 FILLER_90_809
*13638 FILLER_90_81
*13639 FILLER_90_811
*13640 FILLER_90_813
*13641 FILLER_90_825
*13642 FILLER_90_83
*13643 FILLER_90_837
*13644 FILLER_90_841
*13645 FILLER_90_85
*13646 FILLER_90_97
*13647 FILLER_91_105
*13648 FILLER_91_109
*13649 FILLER_91_111
*13650 FILLER_91_113
*13651 FILLER_91_125
*13652 FILLER_91_137
*13653 FILLER_91_149
*13654 FILLER_91_15
*13655 FILLER_91_161
*13656 FILLER_91_165
*13657 FILLER_91_167
*13658 FILLER_91_169
*13659 FILLER_91_181
*13660 FILLER_91_193
*13661 FILLER_91_205
*13662 FILLER_91_217
*13663 FILLER_91_221
*13664 FILLER_91_223
*13665 FILLER_91_225
*13666 FILLER_91_237
*13667 FILLER_91_249
*13668 FILLER_91_261
*13669 FILLER_91_27
*13670 FILLER_91_273
*13671 FILLER_91_277
*13672 FILLER_91_279
*13673 FILLER_91_281
*13674 FILLER_91_293
*13675 FILLER_91_3
*13676 FILLER_91_305
*13677 FILLER_91_317
*13678 FILLER_91_329
*13679 FILLER_91_333
*13680 FILLER_91_335
*13681 FILLER_91_337
*13682 FILLER_91_349
*13683 FILLER_91_361
*13684 FILLER_91_373
*13685 FILLER_91_385
*13686 FILLER_91_389
*13687 FILLER_91_39
*13688 FILLER_91_391
*13689 FILLER_91_393
*13690 FILLER_91_405
*13691 FILLER_91_417
*13692 FILLER_91_429
*13693 FILLER_91_441
*13694 FILLER_91_445
*13695 FILLER_91_447
*13696 FILLER_91_449
*13697 FILLER_91_461
*13698 FILLER_91_473
*13699 FILLER_91_485
*13700 FILLER_91_497
*13701 FILLER_91_501
*13702 FILLER_91_503
*13703 FILLER_91_505
*13704 FILLER_91_51
*13705 FILLER_91_517
*13706 FILLER_91_529
*13707 FILLER_91_541
*13708 FILLER_91_55
*13709 FILLER_91_553
*13710 FILLER_91_557
*13711 FILLER_91_559
*13712 FILLER_91_561
*13713 FILLER_91_57
*13714 FILLER_91_573
*13715 FILLER_91_585
*13716 FILLER_91_597
*13717 FILLER_91_609
*13718 FILLER_91_613
*13719 FILLER_91_615
*13720 FILLER_91_617
*13721 FILLER_91_629
*13722 FILLER_91_641
*13723 FILLER_91_653
*13724 FILLER_91_665
*13725 FILLER_91_669
*13726 FILLER_91_671
*13727 FILLER_91_673
*13728 FILLER_91_685
*13729 FILLER_91_69
*13730 FILLER_91_697
*13731 FILLER_91_709
*13732 FILLER_91_721
*13733 FILLER_91_725
*13734 FILLER_91_727
*13735 FILLER_91_729
*13736 FILLER_91_741
*13737 FILLER_91_753
*13738 FILLER_91_765
*13739 FILLER_91_777
*13740 FILLER_91_781
*13741 FILLER_91_783
*13742 FILLER_91_785
*13743 FILLER_91_797
*13744 FILLER_91_809
*13745 FILLER_91_81
*13746 FILLER_91_821
*13747 FILLER_91_833
*13748 FILLER_91_837
*13749 FILLER_91_839
*13750 FILLER_91_841
*13751 FILLER_91_93
*13752 FILLER_92_109
*13753 FILLER_92_121
*13754 FILLER_92_133
*13755 FILLER_92_137
*13756 FILLER_92_139
*13757 FILLER_92_141
*13758 FILLER_92_15
*13759 FILLER_92_153
*13760 FILLER_92_165
*13761 FILLER_92_177
*13762 FILLER_92_189
*13763 FILLER_92_193
*13764 FILLER_92_195
*13765 FILLER_92_197
*13766 FILLER_92_209
*13767 FILLER_92_221
*13768 FILLER_92_233
*13769 FILLER_92_245
*13770 FILLER_92_249
*13771 FILLER_92_251
*13772 FILLER_92_253
*13773 FILLER_92_265
*13774 FILLER_92_27
*13775 FILLER_92_277
*13776 FILLER_92_289
*13777 FILLER_92_29
*13778 FILLER_92_3
*13779 FILLER_92_301
*13780 FILLER_92_305
*13781 FILLER_92_307
*13782 FILLER_92_309
*13783 FILLER_92_321
*13784 FILLER_92_333
*13785 FILLER_92_345
*13786 FILLER_92_357
*13787 FILLER_92_361
*13788 FILLER_92_363
*13789 FILLER_92_365
*13790 FILLER_92_377
*13791 FILLER_92_389
*13792 FILLER_92_401
*13793 FILLER_92_41
*13794 FILLER_92_413
*13795 FILLER_92_417
*13796 FILLER_92_419
*13797 FILLER_92_421
*13798 FILLER_92_433
*13799 FILLER_92_445
*13800 FILLER_92_457
*13801 FILLER_92_469
*13802 FILLER_92_473
*13803 FILLER_92_475
*13804 FILLER_92_477
*13805 FILLER_92_489
*13806 FILLER_92_501
*13807 FILLER_92_513
*13808 FILLER_92_525
*13809 FILLER_92_529
*13810 FILLER_92_53
*13811 FILLER_92_531
*13812 FILLER_92_533
*13813 FILLER_92_545
*13814 FILLER_92_557
*13815 FILLER_92_569
*13816 FILLER_92_581
*13817 FILLER_92_585
*13818 FILLER_92_587
*13819 FILLER_92_589
*13820 FILLER_92_601
*13821 FILLER_92_613
*13822 FILLER_92_625
*13823 FILLER_92_637
*13824 FILLER_92_641
*13825 FILLER_92_643
*13826 FILLER_92_645
*13827 FILLER_92_65
*13828 FILLER_92_657
*13829 FILLER_92_669
*13830 FILLER_92_681
*13831 FILLER_92_693
*13832 FILLER_92_697
*13833 FILLER_92_699
*13834 FILLER_92_701
*13835 FILLER_92_713
*13836 FILLER_92_725
*13837 FILLER_92_737
*13838 FILLER_92_749
*13839 FILLER_92_753
*13840 FILLER_92_755
*13841 FILLER_92_757
*13842 FILLER_92_769
*13843 FILLER_92_77
*13844 FILLER_92_781
*13845 FILLER_92_793
*13846 FILLER_92_805
*13847 FILLER_92_809
*13848 FILLER_92_81
*13849 FILLER_92_811
*13850 FILLER_92_813
*13851 FILLER_92_825
*13852 FILLER_92_83
*13853 FILLER_92_837
*13854 FILLER_92_841
*13855 FILLER_92_85
*13856 FILLER_92_97
*13857 FILLER_93_105
*13858 FILLER_93_109
*13859 FILLER_93_111
*13860 FILLER_93_113
*13861 FILLER_93_125
*13862 FILLER_93_137
*13863 FILLER_93_149
*13864 FILLER_93_15
*13865 FILLER_93_161
*13866 FILLER_93_165
*13867 FILLER_93_167
*13868 FILLER_93_169
*13869 FILLER_93_181
*13870 FILLER_93_193
*13871 FILLER_93_205
*13872 FILLER_93_217
*13873 FILLER_93_221
*13874 FILLER_93_223
*13875 FILLER_93_225
*13876 FILLER_93_237
*13877 FILLER_93_249
*13878 FILLER_93_261
*13879 FILLER_93_27
*13880 FILLER_93_273
*13881 FILLER_93_277
*13882 FILLER_93_279
*13883 FILLER_93_281
*13884 FILLER_93_293
*13885 FILLER_93_3
*13886 FILLER_93_305
*13887 FILLER_93_317
*13888 FILLER_93_329
*13889 FILLER_93_333
*13890 FILLER_93_335
*13891 FILLER_93_337
*13892 FILLER_93_349
*13893 FILLER_93_361
*13894 FILLER_93_373
*13895 FILLER_93_385
*13896 FILLER_93_389
*13897 FILLER_93_39
*13898 FILLER_93_391
*13899 FILLER_93_393
*13900 FILLER_93_405
*13901 FILLER_93_417
*13902 FILLER_93_429
*13903 FILLER_93_441
*13904 FILLER_93_445
*13905 FILLER_93_447
*13906 FILLER_93_449
*13907 FILLER_93_461
*13908 FILLER_93_473
*13909 FILLER_93_485
*13910 FILLER_93_497
*13911 FILLER_93_501
*13912 FILLER_93_503
*13913 FILLER_93_505
*13914 FILLER_93_51
*13915 FILLER_93_517
*13916 FILLER_93_529
*13917 FILLER_93_541
*13918 FILLER_93_55
*13919 FILLER_93_553
*13920 FILLER_93_557
*13921 FILLER_93_559
*13922 FILLER_93_561
*13923 FILLER_93_57
*13924 FILLER_93_573
*13925 FILLER_93_585
*13926 FILLER_93_597
*13927 FILLER_93_609
*13928 FILLER_93_613
*13929 FILLER_93_615
*13930 FILLER_93_617
*13931 FILLER_93_629
*13932 FILLER_93_641
*13933 FILLER_93_653
*13934 FILLER_93_665
*13935 FILLER_93_669
*13936 FILLER_93_671
*13937 FILLER_93_673
*13938 FILLER_93_685
*13939 FILLER_93_69
*13940 FILLER_93_697
*13941 FILLER_93_709
*13942 FILLER_93_721
*13943 FILLER_93_725
*13944 FILLER_93_727
*13945 FILLER_93_729
*13946 FILLER_93_741
*13947 FILLER_93_753
*13948 FILLER_93_765
*13949 FILLER_93_777
*13950 FILLER_93_781
*13951 FILLER_93_783
*13952 FILLER_93_785
*13953 FILLER_93_797
*13954 FILLER_93_809
*13955 FILLER_93_81
*13956 FILLER_93_821
*13957 FILLER_93_833
*13958 FILLER_93_837
*13959 FILLER_93_839
*13960 FILLER_93_841
*13961 FILLER_93_93
*13962 FILLER_94_109
*13963 FILLER_94_121
*13964 FILLER_94_133
*13965 FILLER_94_137
*13966 FILLER_94_139
*13967 FILLER_94_141
*13968 FILLER_94_15
*13969 FILLER_94_153
*13970 FILLER_94_165
*13971 FILLER_94_177
*13972 FILLER_94_189
*13973 FILLER_94_193
*13974 FILLER_94_195
*13975 FILLER_94_197
*13976 FILLER_94_209
*13977 FILLER_94_221
*13978 FILLER_94_233
*13979 FILLER_94_245
*13980 FILLER_94_249
*13981 FILLER_94_251
*13982 FILLER_94_253
*13983 FILLER_94_265
*13984 FILLER_94_27
*13985 FILLER_94_277
*13986 FILLER_94_289
*13987 FILLER_94_29
*13988 FILLER_94_3
*13989 FILLER_94_301
*13990 FILLER_94_305
*13991 FILLER_94_307
*13992 FILLER_94_309
*13993 FILLER_94_321
*13994 FILLER_94_333
*13995 FILLER_94_345
*13996 FILLER_94_357
*13997 FILLER_94_361
*13998 FILLER_94_363
*13999 FILLER_94_365
*14000 FILLER_94_377
*14001 FILLER_94_389
*14002 FILLER_94_401
*14003 FILLER_94_41
*14004 FILLER_94_413
*14005 FILLER_94_417
*14006 FILLER_94_419
*14007 FILLER_94_421
*14008 FILLER_94_433
*14009 FILLER_94_445
*14010 FILLER_94_457
*14011 FILLER_94_469
*14012 FILLER_94_473
*14013 FILLER_94_475
*14014 FILLER_94_477
*14015 FILLER_94_489
*14016 FILLER_94_501
*14017 FILLER_94_513
*14018 FILLER_94_525
*14019 FILLER_94_529
*14020 FILLER_94_53
*14021 FILLER_94_531
*14022 FILLER_94_533
*14023 FILLER_94_545
*14024 FILLER_94_557
*14025 FILLER_94_569
*14026 FILLER_94_581
*14027 FILLER_94_585
*14028 FILLER_94_587
*14029 FILLER_94_589
*14030 FILLER_94_601
*14031 FILLER_94_613
*14032 FILLER_94_625
*14033 FILLER_94_637
*14034 FILLER_94_641
*14035 FILLER_94_643
*14036 FILLER_94_645
*14037 FILLER_94_65
*14038 FILLER_94_657
*14039 FILLER_94_669
*14040 FILLER_94_681
*14041 FILLER_94_693
*14042 FILLER_94_697
*14043 FILLER_94_699
*14044 FILLER_94_701
*14045 FILLER_94_713
*14046 FILLER_94_725
*14047 FILLER_94_737
*14048 FILLER_94_749
*14049 FILLER_94_753
*14050 FILLER_94_755
*14051 FILLER_94_757
*14052 FILLER_94_769
*14053 FILLER_94_77
*14054 FILLER_94_781
*14055 FILLER_94_793
*14056 FILLER_94_805
*14057 FILLER_94_809
*14058 FILLER_94_81
*14059 FILLER_94_811
*14060 FILLER_94_813
*14061 FILLER_94_825
*14062 FILLER_94_83
*14063 FILLER_94_837
*14064 FILLER_94_841
*14065 FILLER_94_85
*14066 FILLER_94_97
*14067 FILLER_95_105
*14068 FILLER_95_109
*14069 FILLER_95_111
*14070 FILLER_95_113
*14071 FILLER_95_125
*14072 FILLER_95_137
*14073 FILLER_95_149
*14074 FILLER_95_15
*14075 FILLER_95_161
*14076 FILLER_95_165
*14077 FILLER_95_167
*14078 FILLER_95_169
*14079 FILLER_95_181
*14080 FILLER_95_193
*14081 FILLER_95_205
*14082 FILLER_95_217
*14083 FILLER_95_221
*14084 FILLER_95_223
*14085 FILLER_95_225
*14086 FILLER_95_237
*14087 FILLER_95_249
*14088 FILLER_95_261
*14089 FILLER_95_27
*14090 FILLER_95_273
*14091 FILLER_95_277
*14092 FILLER_95_279
*14093 FILLER_95_281
*14094 FILLER_95_293
*14095 FILLER_95_3
*14096 FILLER_95_305
*14097 FILLER_95_317
*14098 FILLER_95_329
*14099 FILLER_95_333
*14100 FILLER_95_335
*14101 FILLER_95_337
*14102 FILLER_95_349
*14103 FILLER_95_361
*14104 FILLER_95_373
*14105 FILLER_95_385
*14106 FILLER_95_389
*14107 FILLER_95_39
*14108 FILLER_95_391
*14109 FILLER_95_393
*14110 FILLER_95_405
*14111 FILLER_95_417
*14112 FILLER_95_429
*14113 FILLER_95_441
*14114 FILLER_95_445
*14115 FILLER_95_447
*14116 FILLER_95_449
*14117 FILLER_95_461
*14118 FILLER_95_473
*14119 FILLER_95_485
*14120 FILLER_95_497
*14121 FILLER_95_501
*14122 FILLER_95_503
*14123 FILLER_95_505
*14124 FILLER_95_51
*14125 FILLER_95_517
*14126 FILLER_95_529
*14127 FILLER_95_541
*14128 FILLER_95_55
*14129 FILLER_95_553
*14130 FILLER_95_557
*14131 FILLER_95_559
*14132 FILLER_95_561
*14133 FILLER_95_57
*14134 FILLER_95_573
*14135 FILLER_95_585
*14136 FILLER_95_597
*14137 FILLER_95_609
*14138 FILLER_95_613
*14139 FILLER_95_615
*14140 FILLER_95_617
*14141 FILLER_95_629
*14142 FILLER_95_641
*14143 FILLER_95_653
*14144 FILLER_95_665
*14145 FILLER_95_669
*14146 FILLER_95_671
*14147 FILLER_95_673
*14148 FILLER_95_685
*14149 FILLER_95_69
*14150 FILLER_95_697
*14151 FILLER_95_709
*14152 FILLER_95_721
*14153 FILLER_95_725
*14154 FILLER_95_727
*14155 FILLER_95_729
*14156 FILLER_95_741
*14157 FILLER_95_753
*14158 FILLER_95_765
*14159 FILLER_95_777
*14160 FILLER_95_781
*14161 FILLER_95_783
*14162 FILLER_95_785
*14163 FILLER_95_797
*14164 FILLER_95_809
*14165 FILLER_95_81
*14166 FILLER_95_821
*14167 FILLER_95_833
*14168 FILLER_95_837
*14169 FILLER_95_839
*14170 FILLER_95_841
*14171 FILLER_95_93
*14172 FILLER_96_109
*14173 FILLER_96_121
*14174 FILLER_96_133
*14175 FILLER_96_137
*14176 FILLER_96_139
*14177 FILLER_96_141
*14178 FILLER_96_15
*14179 FILLER_96_153
*14180 FILLER_96_165
*14181 FILLER_96_177
*14182 FILLER_96_189
*14183 FILLER_96_193
*14184 FILLER_96_195
*14185 FILLER_96_197
*14186 FILLER_96_209
*14187 FILLER_96_221
*14188 FILLER_96_233
*14189 FILLER_96_245
*14190 FILLER_96_249
*14191 FILLER_96_251
*14192 FILLER_96_253
*14193 FILLER_96_265
*14194 FILLER_96_27
*14195 FILLER_96_277
*14196 FILLER_96_289
*14197 FILLER_96_29
*14198 FILLER_96_3
*14199 FILLER_96_301
*14200 FILLER_96_305
*14201 FILLER_96_307
*14202 FILLER_96_309
*14203 FILLER_96_321
*14204 FILLER_96_333
*14205 FILLER_96_345
*14206 FILLER_96_357
*14207 FILLER_96_361
*14208 FILLER_96_363
*14209 FILLER_96_365
*14210 FILLER_96_377
*14211 FILLER_96_389
*14212 FILLER_96_401
*14213 FILLER_96_41
*14214 FILLER_96_413
*14215 FILLER_96_417
*14216 FILLER_96_419
*14217 FILLER_96_421
*14218 FILLER_96_433
*14219 FILLER_96_445
*14220 FILLER_96_457
*14221 FILLER_96_469
*14222 FILLER_96_473
*14223 FILLER_96_475
*14224 FILLER_96_477
*14225 FILLER_96_489
*14226 FILLER_96_501
*14227 FILLER_96_513
*14228 FILLER_96_525
*14229 FILLER_96_529
*14230 FILLER_96_53
*14231 FILLER_96_531
*14232 FILLER_96_533
*14233 FILLER_96_545
*14234 FILLER_96_557
*14235 FILLER_96_569
*14236 FILLER_96_581
*14237 FILLER_96_585
*14238 FILLER_96_587
*14239 FILLER_96_589
*14240 FILLER_96_601
*14241 FILLER_96_613
*14242 FILLER_96_625
*14243 FILLER_96_637
*14244 FILLER_96_641
*14245 FILLER_96_643
*14246 FILLER_96_645
*14247 FILLER_96_65
*14248 FILLER_96_657
*14249 FILLER_96_669
*14250 FILLER_96_681
*14251 FILLER_96_693
*14252 FILLER_96_697
*14253 FILLER_96_699
*14254 FILLER_96_701
*14255 FILLER_96_713
*14256 FILLER_96_725
*14257 FILLER_96_737
*14258 FILLER_96_749
*14259 FILLER_96_753
*14260 FILLER_96_755
*14261 FILLER_96_757
*14262 FILLER_96_769
*14263 FILLER_96_77
*14264 FILLER_96_781
*14265 FILLER_96_793
*14266 FILLER_96_805
*14267 FILLER_96_809
*14268 FILLER_96_81
*14269 FILLER_96_811
*14270 FILLER_96_813
*14271 FILLER_96_825
*14272 FILLER_96_83
*14273 FILLER_96_837
*14274 FILLER_96_841
*14275 FILLER_96_85
*14276 FILLER_96_97
*14277 FILLER_97_105
*14278 FILLER_97_109
*14279 FILLER_97_111
*14280 FILLER_97_113
*14281 FILLER_97_125
*14282 FILLER_97_137
*14283 FILLER_97_149
*14284 FILLER_97_15
*14285 FILLER_97_161
*14286 FILLER_97_165
*14287 FILLER_97_167
*14288 FILLER_97_169
*14289 FILLER_97_181
*14290 FILLER_97_193
*14291 FILLER_97_205
*14292 FILLER_97_217
*14293 FILLER_97_221
*14294 FILLER_97_223
*14295 FILLER_97_225
*14296 FILLER_97_237
*14297 FILLER_97_249
*14298 FILLER_97_261
*14299 FILLER_97_27
*14300 FILLER_97_273
*14301 FILLER_97_277
*14302 FILLER_97_279
*14303 FILLER_97_281
*14304 FILLER_97_293
*14305 FILLER_97_3
*14306 FILLER_97_305
*14307 FILLER_97_317
*14308 FILLER_97_329
*14309 FILLER_97_333
*14310 FILLER_97_335
*14311 FILLER_97_337
*14312 FILLER_97_349
*14313 FILLER_97_361
*14314 FILLER_97_373
*14315 FILLER_97_385
*14316 FILLER_97_389
*14317 FILLER_97_39
*14318 FILLER_97_391
*14319 FILLER_97_393
*14320 FILLER_97_405
*14321 FILLER_97_417
*14322 FILLER_97_429
*14323 FILLER_97_441
*14324 FILLER_97_445
*14325 FILLER_97_447
*14326 FILLER_97_449
*14327 FILLER_97_461
*14328 FILLER_97_473
*14329 FILLER_97_485
*14330 FILLER_97_497
*14331 FILLER_97_501
*14332 FILLER_97_503
*14333 FILLER_97_505
*14334 FILLER_97_51
*14335 FILLER_97_517
*14336 FILLER_97_529
*14337 FILLER_97_541
*14338 FILLER_97_55
*14339 FILLER_97_553
*14340 FILLER_97_557
*14341 FILLER_97_559
*14342 FILLER_97_561
*14343 FILLER_97_57
*14344 FILLER_97_573
*14345 FILLER_97_585
*14346 FILLER_97_597
*14347 FILLER_97_609
*14348 FILLER_97_613
*14349 FILLER_97_615
*14350 FILLER_97_617
*14351 FILLER_97_629
*14352 FILLER_97_641
*14353 FILLER_97_653
*14354 FILLER_97_665
*14355 FILLER_97_669
*14356 FILLER_97_671
*14357 FILLER_97_673
*14358 FILLER_97_685
*14359 FILLER_97_69
*14360 FILLER_97_697
*14361 FILLER_97_709
*14362 FILLER_97_721
*14363 FILLER_97_725
*14364 FILLER_97_727
*14365 FILLER_97_729
*14366 FILLER_97_741
*14367 FILLER_97_753
*14368 FILLER_97_765
*14369 FILLER_97_777
*14370 FILLER_97_781
*14371 FILLER_97_783
*14372 FILLER_97_785
*14373 FILLER_97_797
*14374 FILLER_97_809
*14375 FILLER_97_81
*14376 FILLER_97_821
*14377 FILLER_97_833
*14378 FILLER_97_837
*14379 FILLER_97_839
*14380 FILLER_97_841
*14381 FILLER_97_93
*14382 FILLER_98_109
*14383 FILLER_98_121
*14384 FILLER_98_133
*14385 FILLER_98_137
*14386 FILLER_98_139
*14387 FILLER_98_141
*14388 FILLER_98_15
*14389 FILLER_98_153
*14390 FILLER_98_165
*14391 FILLER_98_177
*14392 FILLER_98_189
*14393 FILLER_98_193
*14394 FILLER_98_195
*14395 FILLER_98_197
*14396 FILLER_98_209
*14397 FILLER_98_221
*14398 FILLER_98_233
*14399 FILLER_98_245
*14400 FILLER_98_249
*14401 FILLER_98_251
*14402 FILLER_98_253
*14403 FILLER_98_265
*14404 FILLER_98_27
*14405 FILLER_98_277
*14406 FILLER_98_289
*14407 FILLER_98_29
*14408 FILLER_98_3
*14409 FILLER_98_301
*14410 FILLER_98_305
*14411 FILLER_98_307
*14412 FILLER_98_309
*14413 FILLER_98_321
*14414 FILLER_98_333
*14415 FILLER_98_345
*14416 FILLER_98_357
*14417 FILLER_98_361
*14418 FILLER_98_363
*14419 FILLER_98_365
*14420 FILLER_98_377
*14421 FILLER_98_389
*14422 FILLER_98_401
*14423 FILLER_98_41
*14424 FILLER_98_413
*14425 FILLER_98_417
*14426 FILLER_98_419
*14427 FILLER_98_421
*14428 FILLER_98_433
*14429 FILLER_98_445
*14430 FILLER_98_457
*14431 FILLER_98_469
*14432 FILLER_98_473
*14433 FILLER_98_475
*14434 FILLER_98_477
*14435 FILLER_98_489
*14436 FILLER_98_501
*14437 FILLER_98_513
*14438 FILLER_98_525
*14439 FILLER_98_529
*14440 FILLER_98_53
*14441 FILLER_98_531
*14442 FILLER_98_533
*14443 FILLER_98_545
*14444 FILLER_98_557
*14445 FILLER_98_569
*14446 FILLER_98_581
*14447 FILLER_98_585
*14448 FILLER_98_587
*14449 FILLER_98_589
*14450 FILLER_98_601
*14451 FILLER_98_613
*14452 FILLER_98_625
*14453 FILLER_98_637
*14454 FILLER_98_641
*14455 FILLER_98_643
*14456 FILLER_98_645
*14457 FILLER_98_65
*14458 FILLER_98_657
*14459 FILLER_98_669
*14460 FILLER_98_681
*14461 FILLER_98_693
*14462 FILLER_98_697
*14463 FILLER_98_699
*14464 FILLER_98_701
*14465 FILLER_98_713
*14466 FILLER_98_725
*14467 FILLER_98_737
*14468 FILLER_98_749
*14469 FILLER_98_753
*14470 FILLER_98_755
*14471 FILLER_98_757
*14472 FILLER_98_769
*14473 FILLER_98_77
*14474 FILLER_98_781
*14475 FILLER_98_793
*14476 FILLER_98_805
*14477 FILLER_98_809
*14478 FILLER_98_81
*14479 FILLER_98_811
*14480 FILLER_98_813
*14481 FILLER_98_825
*14482 FILLER_98_83
*14483 FILLER_98_837
*14484 FILLER_98_841
*14485 FILLER_98_85
*14486 FILLER_98_97
*14487 FILLER_99_105
*14488 FILLER_99_109
*14489 FILLER_99_111
*14490 FILLER_99_113
*14491 FILLER_99_125
*14492 FILLER_99_137
*14493 FILLER_99_149
*14494 FILLER_99_15
*14495 FILLER_99_161
*14496 FILLER_99_165
*14497 FILLER_99_167
*14498 FILLER_99_169
*14499 FILLER_99_181
*14500 FILLER_99_193
*14501 FILLER_99_205
*14502 FILLER_99_217
*14503 FILLER_99_221
*14504 FILLER_99_223
*14505 FILLER_99_225
*14506 FILLER_99_237
*14507 FILLER_99_249
*14508 FILLER_99_261
*14509 FILLER_99_27
*14510 FILLER_99_273
*14511 FILLER_99_277
*14512 FILLER_99_279
*14513 FILLER_99_281
*14514 FILLER_99_293
*14515 FILLER_99_3
*14516 FILLER_99_305
*14517 FILLER_99_317
*14518 FILLER_99_329
*14519 FILLER_99_333
*14520 FILLER_99_335
*14521 FILLER_99_337
*14522 FILLER_99_349
*14523 FILLER_99_361
*14524 FILLER_99_373
*14525 FILLER_99_385
*14526 FILLER_99_389
*14527 FILLER_99_39
*14528 FILLER_99_391
*14529 FILLER_99_393
*14530 FILLER_99_405
*14531 FILLER_99_417
*14532 FILLER_99_429
*14533 FILLER_99_441
*14534 FILLER_99_445
*14535 FILLER_99_447
*14536 FILLER_99_449
*14537 FILLER_99_461
*14538 FILLER_99_473
*14539 FILLER_99_485
*14540 FILLER_99_497
*14541 FILLER_99_501
*14542 FILLER_99_503
*14543 FILLER_99_505
*14544 FILLER_99_51
*14545 FILLER_99_517
*14546 FILLER_99_529
*14547 FILLER_99_541
*14548 FILLER_99_55
*14549 FILLER_99_553
*14550 FILLER_99_557
*14551 FILLER_99_559
*14552 FILLER_99_561
*14553 FILLER_99_57
*14554 FILLER_99_573
*14555 FILLER_99_585
*14556 FILLER_99_597
*14557 FILLER_99_609
*14558 FILLER_99_613
*14559 FILLER_99_615
*14560 FILLER_99_617
*14561 FILLER_99_629
*14562 FILLER_99_641
*14563 FILLER_99_653
*14564 FILLER_99_665
*14565 FILLER_99_669
*14566 FILLER_99_671
*14567 FILLER_99_673
*14568 FILLER_99_685
*14569 FILLER_99_69
*14570 FILLER_99_697
*14571 FILLER_99_709
*14572 FILLER_99_721
*14573 FILLER_99_725
*14574 FILLER_99_727
*14575 FILLER_99_729
*14576 FILLER_99_741
*14577 FILLER_99_753
*14578 FILLER_99_765
*14579 FILLER_99_777
*14580 FILLER_99_781
*14581 FILLER_99_783
*14582 FILLER_99_785
*14583 FILLER_99_797
*14584 FILLER_99_809
*14585 FILLER_99_81
*14586 FILLER_99_821
*14587 FILLER_99_833
*14588 FILLER_99_837
*14589 FILLER_99_839
*14590 FILLER_99_841
*14591 FILLER_99_93
*14592 FILLER_9_105
*14593 FILLER_9_109
*14594 FILLER_9_111
*14595 FILLER_9_113
*14596 FILLER_9_125
*14597 FILLER_9_137
*14598 FILLER_9_149
*14599 FILLER_9_15
*14600 FILLER_9_161
*14601 FILLER_9_165
*14602 FILLER_9_167
*14603 FILLER_9_169
*14604 FILLER_9_181
*14605 FILLER_9_193
*14606 FILLER_9_205
*14607 FILLER_9_217
*14608 FILLER_9_221
*14609 FILLER_9_223
*14610 FILLER_9_225
*14611 FILLER_9_237
*14612 FILLER_9_249
*14613 FILLER_9_261
*14614 FILLER_9_27
*14615 FILLER_9_273
*14616 FILLER_9_277
*14617 FILLER_9_279
*14618 FILLER_9_281
*14619 FILLER_9_293
*14620 FILLER_9_3
*14621 FILLER_9_305
*14622 FILLER_9_317
*14623 FILLER_9_329
*14624 FILLER_9_333
*14625 FILLER_9_335
*14626 FILLER_9_337
*14627 FILLER_9_349
*14628 FILLER_9_361
*14629 FILLER_9_373
*14630 FILLER_9_385
*14631 FILLER_9_389
*14632 FILLER_9_39
*14633 FILLER_9_391
*14634 FILLER_9_393
*14635 FILLER_9_405
*14636 FILLER_9_417
*14637 FILLER_9_429
*14638 FILLER_9_441
*14639 FILLER_9_445
*14640 FILLER_9_447
*14641 FILLER_9_449
*14642 FILLER_9_461
*14643 FILLER_9_473
*14644 FILLER_9_485
*14645 FILLER_9_497
*14646 FILLER_9_501
*14647 FILLER_9_503
*14648 FILLER_9_505
*14649 FILLER_9_51
*14650 FILLER_9_517
*14651 FILLER_9_529
*14652 FILLER_9_541
*14653 FILLER_9_55
*14654 FILLER_9_553
*14655 FILLER_9_557
*14656 FILLER_9_559
*14657 FILLER_9_561
*14658 FILLER_9_57
*14659 FILLER_9_573
*14660 FILLER_9_585
*14661 FILLER_9_597
*14662 FILLER_9_609
*14663 FILLER_9_613
*14664 FILLER_9_615
*14665 FILLER_9_617
*14666 FILLER_9_629
*14667 FILLER_9_641
*14668 FILLER_9_653
*14669 FILLER_9_665
*14670 FILLER_9_669
*14671 FILLER_9_671
*14672 FILLER_9_673
*14673 FILLER_9_685
*14674 FILLER_9_69
*14675 FILLER_9_697
*14676 FILLER_9_709
*14677 FILLER_9_721
*14678 FILLER_9_725
*14679 FILLER_9_727
*14680 FILLER_9_729
*14681 FILLER_9_741
*14682 FILLER_9_753
*14683 FILLER_9_765
*14684 FILLER_9_777
*14685 FILLER_9_781
*14686 FILLER_9_783
*14687 FILLER_9_785
*14688 FILLER_9_797
*14689 FILLER_9_809
*14690 FILLER_9_81
*14691 FILLER_9_821
*14692 FILLER_9_833
*14693 FILLER_9_837
*14694 FILLER_9_839
*14695 FILLER_9_841
*14696 FILLER_9_93
*14697 PHY_EDGE_ROW_0_Left_139
*14698 PHY_EDGE_ROW_0_Right_0
*14699 PHY_EDGE_ROW_100_Left_239
*14700 PHY_EDGE_ROW_100_Right_100
*14701 PHY_EDGE_ROW_101_Left_240
*14702 PHY_EDGE_ROW_101_Right_101
*14703 PHY_EDGE_ROW_102_Left_241
*14704 PHY_EDGE_ROW_102_Right_102
*14705 PHY_EDGE_ROW_103_Left_242
*14706 PHY_EDGE_ROW_103_Right_103
*14707 PHY_EDGE_ROW_104_Left_243
*14708 PHY_EDGE_ROW_104_Right_104
*14709 PHY_EDGE_ROW_105_Left_244
*14710 PHY_EDGE_ROW_105_Right_105
*14711 PHY_EDGE_ROW_106_Left_245
*14712 PHY_EDGE_ROW_106_Right_106
*14713 PHY_EDGE_ROW_107_Left_246
*14714 PHY_EDGE_ROW_107_Right_107
*14715 PHY_EDGE_ROW_108_Left_247
*14716 PHY_EDGE_ROW_108_Right_108
*14717 PHY_EDGE_ROW_109_Left_248
*14718 PHY_EDGE_ROW_109_Right_109
*14719 PHY_EDGE_ROW_10_Left_149
*14720 PHY_EDGE_ROW_10_Right_10
*14721 PHY_EDGE_ROW_110_Left_249
*14722 PHY_EDGE_ROW_110_Right_110
*14723 PHY_EDGE_ROW_111_Left_250
*14724 PHY_EDGE_ROW_111_Right_111
*14725 PHY_EDGE_ROW_112_Left_251
*14726 PHY_EDGE_ROW_112_Right_112
*14727 PHY_EDGE_ROW_113_Left_252
*14728 PHY_EDGE_ROW_113_Right_113
*14729 PHY_EDGE_ROW_114_Left_253
*14730 PHY_EDGE_ROW_114_Right_114
*14731 PHY_EDGE_ROW_115_Left_254
*14732 PHY_EDGE_ROW_115_Right_115
*14733 PHY_EDGE_ROW_116_Left_255
*14734 PHY_EDGE_ROW_116_Right_116
*14735 PHY_EDGE_ROW_117_Left_256
*14736 PHY_EDGE_ROW_117_Right_117
*14737 PHY_EDGE_ROW_118_Left_257
*14738 PHY_EDGE_ROW_118_Right_118
*14739 PHY_EDGE_ROW_119_Left_258
*14740 PHY_EDGE_ROW_119_Right_119
*14741 PHY_EDGE_ROW_11_Left_150
*14742 PHY_EDGE_ROW_11_Right_11
*14743 PHY_EDGE_ROW_120_Left_259
*14744 PHY_EDGE_ROW_120_Right_120
*14745 PHY_EDGE_ROW_121_Left_260
*14746 PHY_EDGE_ROW_121_Right_121
*14747 PHY_EDGE_ROW_122_Left_261
*14748 PHY_EDGE_ROW_122_Right_122
*14749 PHY_EDGE_ROW_123_Left_262
*14750 PHY_EDGE_ROW_123_Right_123
*14751 PHY_EDGE_ROW_124_Left_263
*14752 PHY_EDGE_ROW_124_Right_124
*14753 PHY_EDGE_ROW_125_Left_264
*14754 PHY_EDGE_ROW_125_Right_125
*14755 PHY_EDGE_ROW_126_Left_265
*14756 PHY_EDGE_ROW_126_Right_126
*14757 PHY_EDGE_ROW_127_Left_266
*14758 PHY_EDGE_ROW_127_Right_127
*14759 PHY_EDGE_ROW_128_Left_267
*14760 PHY_EDGE_ROW_128_Right_128
*14761 PHY_EDGE_ROW_129_Left_268
*14762 PHY_EDGE_ROW_129_Right_129
*14763 PHY_EDGE_ROW_12_Left_151
*14764 PHY_EDGE_ROW_12_Right_12
*14765 PHY_EDGE_ROW_130_Left_269
*14766 PHY_EDGE_ROW_130_Right_130
*14767 PHY_EDGE_ROW_131_Left_270
*14768 PHY_EDGE_ROW_131_Right_131
*14769 PHY_EDGE_ROW_132_Left_271
*14770 PHY_EDGE_ROW_132_Right_132
*14771 PHY_EDGE_ROW_133_Left_272
*14772 PHY_EDGE_ROW_133_Right_133
*14773 PHY_EDGE_ROW_134_Left_273
*14774 PHY_EDGE_ROW_134_Right_134
*14775 PHY_EDGE_ROW_135_Left_274
*14776 PHY_EDGE_ROW_135_Right_135
*14777 PHY_EDGE_ROW_136_Left_275
*14778 PHY_EDGE_ROW_136_Right_136
*14779 PHY_EDGE_ROW_137_Left_276
*14780 PHY_EDGE_ROW_137_Right_137
*14781 PHY_EDGE_ROW_138_Left_277
*14782 PHY_EDGE_ROW_138_Right_138
*14783 PHY_EDGE_ROW_13_Left_152
*14784 PHY_EDGE_ROW_13_Right_13
*14785 PHY_EDGE_ROW_14_Left_153
*14786 PHY_EDGE_ROW_14_Right_14
*14787 PHY_EDGE_ROW_15_Left_154
*14788 PHY_EDGE_ROW_15_Right_15
*14789 PHY_EDGE_ROW_16_Left_155
*14790 PHY_EDGE_ROW_16_Right_16
*14791 PHY_EDGE_ROW_17_Left_156
*14792 PHY_EDGE_ROW_17_Right_17
*14793 PHY_EDGE_ROW_18_Left_157
*14794 PHY_EDGE_ROW_18_Right_18
*14795 PHY_EDGE_ROW_19_Left_158
*14796 PHY_EDGE_ROW_19_Right_19
*14797 PHY_EDGE_ROW_1_Left_140
*14798 PHY_EDGE_ROW_1_Right_1
*14799 PHY_EDGE_ROW_20_Left_159
*14800 PHY_EDGE_ROW_20_Right_20
*14801 PHY_EDGE_ROW_21_Left_160
*14802 PHY_EDGE_ROW_21_Right_21
*14803 PHY_EDGE_ROW_22_Left_161
*14804 PHY_EDGE_ROW_22_Right_22
*14805 PHY_EDGE_ROW_23_Left_162
*14806 PHY_EDGE_ROW_23_Right_23
*14807 PHY_EDGE_ROW_24_Left_163
*14808 PHY_EDGE_ROW_24_Right_24
*14809 PHY_EDGE_ROW_25_Left_164
*14810 PHY_EDGE_ROW_25_Right_25
*14811 PHY_EDGE_ROW_26_Left_165
*14812 PHY_EDGE_ROW_26_Right_26
*14813 PHY_EDGE_ROW_27_Left_166
*14814 PHY_EDGE_ROW_27_Right_27
*14815 PHY_EDGE_ROW_28_Left_167
*14816 PHY_EDGE_ROW_28_Right_28
*14817 PHY_EDGE_ROW_29_Left_168
*14818 PHY_EDGE_ROW_29_Right_29
*14819 PHY_EDGE_ROW_2_Left_141
*14820 PHY_EDGE_ROW_2_Right_2
*14821 PHY_EDGE_ROW_30_Left_169
*14822 PHY_EDGE_ROW_30_Right_30
*14823 PHY_EDGE_ROW_31_Left_170
*14824 PHY_EDGE_ROW_31_Right_31
*14825 PHY_EDGE_ROW_32_Left_171
*14826 PHY_EDGE_ROW_32_Right_32
*14827 PHY_EDGE_ROW_33_Left_172
*14828 PHY_EDGE_ROW_33_Right_33
*14829 PHY_EDGE_ROW_34_Left_173
*14830 PHY_EDGE_ROW_34_Right_34
*14831 PHY_EDGE_ROW_35_Left_174
*14832 PHY_EDGE_ROW_35_Right_35
*14833 PHY_EDGE_ROW_36_Left_175
*14834 PHY_EDGE_ROW_36_Right_36
*14835 PHY_EDGE_ROW_37_Left_176
*14836 PHY_EDGE_ROW_37_Right_37
*14837 PHY_EDGE_ROW_38_Left_177
*14838 PHY_EDGE_ROW_38_Right_38
*14839 PHY_EDGE_ROW_39_Left_178
*14840 PHY_EDGE_ROW_39_Right_39
*14841 PHY_EDGE_ROW_3_Left_142
*14842 PHY_EDGE_ROW_3_Right_3
*14843 PHY_EDGE_ROW_40_Left_179
*14844 PHY_EDGE_ROW_40_Right_40
*14845 PHY_EDGE_ROW_41_Left_180
*14846 PHY_EDGE_ROW_41_Right_41
*14847 PHY_EDGE_ROW_42_Left_181
*14848 PHY_EDGE_ROW_42_Right_42
*14849 PHY_EDGE_ROW_43_Left_182
*14850 PHY_EDGE_ROW_43_Right_43
*14851 PHY_EDGE_ROW_44_Left_183
*14852 PHY_EDGE_ROW_44_Right_44
*14853 PHY_EDGE_ROW_45_Left_184
*14854 PHY_EDGE_ROW_45_Right_45
*14855 PHY_EDGE_ROW_46_Left_185
*14856 PHY_EDGE_ROW_46_Right_46
*14857 PHY_EDGE_ROW_47_Left_186
*14858 PHY_EDGE_ROW_47_Right_47
*14859 PHY_EDGE_ROW_48_Left_187
*14860 PHY_EDGE_ROW_48_Right_48
*14861 PHY_EDGE_ROW_49_Left_188
*14862 PHY_EDGE_ROW_49_Right_49
*14863 PHY_EDGE_ROW_4_Left_143
*14864 PHY_EDGE_ROW_4_Right_4
*14865 PHY_EDGE_ROW_50_Left_189
*14866 PHY_EDGE_ROW_50_Right_50
*14867 PHY_EDGE_ROW_51_Left_190
*14868 PHY_EDGE_ROW_51_Right_51
*14869 PHY_EDGE_ROW_52_Left_191
*14870 PHY_EDGE_ROW_52_Right_52
*14871 PHY_EDGE_ROW_53_Left_192
*14872 PHY_EDGE_ROW_53_Right_53
*14873 PHY_EDGE_ROW_54_Left_193
*14874 PHY_EDGE_ROW_54_Right_54
*14875 PHY_EDGE_ROW_55_Left_194
*14876 PHY_EDGE_ROW_55_Right_55
*14877 PHY_EDGE_ROW_56_Left_195
*14878 PHY_EDGE_ROW_56_Right_56
*14879 PHY_EDGE_ROW_57_Left_196
*14880 PHY_EDGE_ROW_57_Right_57
*14881 PHY_EDGE_ROW_58_Left_197
*14882 PHY_EDGE_ROW_58_Right_58
*14883 PHY_EDGE_ROW_59_Left_198
*14884 PHY_EDGE_ROW_59_Right_59
*14885 PHY_EDGE_ROW_5_Left_144
*14886 PHY_EDGE_ROW_5_Right_5
*14887 PHY_EDGE_ROW_60_Left_199
*14888 PHY_EDGE_ROW_60_Right_60
*14889 PHY_EDGE_ROW_61_Left_200
*14890 PHY_EDGE_ROW_61_Right_61
*14891 PHY_EDGE_ROW_62_Left_201
*14892 PHY_EDGE_ROW_62_Right_62
*14893 PHY_EDGE_ROW_63_Left_202
*14894 PHY_EDGE_ROW_63_Right_63
*14895 PHY_EDGE_ROW_64_Left_203
*14896 PHY_EDGE_ROW_64_Right_64
*14897 PHY_EDGE_ROW_65_Left_204
*14898 PHY_EDGE_ROW_65_Right_65
*14899 PHY_EDGE_ROW_66_Left_205
*14900 PHY_EDGE_ROW_66_Right_66
*14901 PHY_EDGE_ROW_67_Left_206
*14902 PHY_EDGE_ROW_67_Right_67
*14903 PHY_EDGE_ROW_68_Left_207
*14904 PHY_EDGE_ROW_68_Right_68
*14905 PHY_EDGE_ROW_69_Left_208
*14906 PHY_EDGE_ROW_69_Right_69
*14907 PHY_EDGE_ROW_6_Left_145
*14908 PHY_EDGE_ROW_6_Right_6
*14909 PHY_EDGE_ROW_70_Left_209
*14910 PHY_EDGE_ROW_70_Right_70
*14911 PHY_EDGE_ROW_71_Left_210
*14912 PHY_EDGE_ROW_71_Right_71
*14913 PHY_EDGE_ROW_72_Left_211
*14914 PHY_EDGE_ROW_72_Right_72
*14915 PHY_EDGE_ROW_73_Left_212
*14916 PHY_EDGE_ROW_73_Right_73
*14917 PHY_EDGE_ROW_74_Left_213
*14918 PHY_EDGE_ROW_74_Right_74
*14919 PHY_EDGE_ROW_75_Left_214
*14920 PHY_EDGE_ROW_75_Right_75
*14921 PHY_EDGE_ROW_76_Left_215
*14922 PHY_EDGE_ROW_76_Right_76
*14923 PHY_EDGE_ROW_77_Left_216
*14924 PHY_EDGE_ROW_77_Right_77
*14925 PHY_EDGE_ROW_78_Left_217
*14926 PHY_EDGE_ROW_78_Right_78
*14927 PHY_EDGE_ROW_79_Left_218
*14928 PHY_EDGE_ROW_79_Right_79
*14929 PHY_EDGE_ROW_7_Left_146
*14930 PHY_EDGE_ROW_7_Right_7
*14931 PHY_EDGE_ROW_80_Left_219
*14932 PHY_EDGE_ROW_80_Right_80
*14933 PHY_EDGE_ROW_81_Left_220
*14934 PHY_EDGE_ROW_81_Right_81
*14935 PHY_EDGE_ROW_82_Left_221
*14936 PHY_EDGE_ROW_82_Right_82
*14937 PHY_EDGE_ROW_83_Left_222
*14938 PHY_EDGE_ROW_83_Right_83
*14939 PHY_EDGE_ROW_84_Left_223
*14940 PHY_EDGE_ROW_84_Right_84
*14941 PHY_EDGE_ROW_85_Left_224
*14942 PHY_EDGE_ROW_85_Right_85
*14943 PHY_EDGE_ROW_86_Left_225
*14944 PHY_EDGE_ROW_86_Right_86
*14945 PHY_EDGE_ROW_87_Left_226
*14946 PHY_EDGE_ROW_87_Right_87
*14947 PHY_EDGE_ROW_88_Left_227
*14948 PHY_EDGE_ROW_88_Right_88
*14949 PHY_EDGE_ROW_89_Left_228
*14950 PHY_EDGE_ROW_89_Right_89
*14951 PHY_EDGE_ROW_8_Left_147
*14952 PHY_EDGE_ROW_8_Right_8
*14953 PHY_EDGE_ROW_90_Left_229
*14954 PHY_EDGE_ROW_90_Right_90
*14955 PHY_EDGE_ROW_91_Left_230
*14956 PHY_EDGE_ROW_91_Right_91
*14957 PHY_EDGE_ROW_92_Left_231
*14958 PHY_EDGE_ROW_92_Right_92
*14959 PHY_EDGE_ROW_93_Left_232
*14960 PHY_EDGE_ROW_93_Right_93
*14961 PHY_EDGE_ROW_94_Left_233
*14962 PHY_EDGE_ROW_94_Right_94
*14963 PHY_EDGE_ROW_95_Left_234
*14964 PHY_EDGE_ROW_95_Right_95
*14965 PHY_EDGE_ROW_96_Left_235
*14966 PHY_EDGE_ROW_96_Right_96
*14967 PHY_EDGE_ROW_97_Left_236
*14968 PHY_EDGE_ROW_97_Right_97
*14969 PHY_EDGE_ROW_98_Left_237
*14970 PHY_EDGE_ROW_98_Right_98
*14971 PHY_EDGE_ROW_99_Left_238
*14972 PHY_EDGE_ROW_99_Right_99
*14973 PHY_EDGE_ROW_9_Left_148
*14974 PHY_EDGE_ROW_9_Right_9
*14975 TAP_TAPCELL_ROW_0_278
*14976 TAP_TAPCELL_ROW_0_279
*14977 TAP_TAPCELL_ROW_0_280
*14978 TAP_TAPCELL_ROW_0_281
*14979 TAP_TAPCELL_ROW_0_282
*14980 TAP_TAPCELL_ROW_0_283
*14981 TAP_TAPCELL_ROW_0_284
*14982 TAP_TAPCELL_ROW_0_285
*14983 TAP_TAPCELL_ROW_0_286
*14984 TAP_TAPCELL_ROW_0_287
*14985 TAP_TAPCELL_ROW_0_288
*14986 TAP_TAPCELL_ROW_0_289
*14987 TAP_TAPCELL_ROW_0_290
*14988 TAP_TAPCELL_ROW_0_291
*14989 TAP_TAPCELL_ROW_0_292
*14990 TAP_TAPCELL_ROW_0_293
*14991 TAP_TAPCELL_ROW_0_294
*14992 TAP_TAPCELL_ROW_0_295
*14993 TAP_TAPCELL_ROW_0_296
*14994 TAP_TAPCELL_ROW_0_297
*14995 TAP_TAPCELL_ROW_0_298
*14996 TAP_TAPCELL_ROW_0_299
*14997 TAP_TAPCELL_ROW_0_300
*14998 TAP_TAPCELL_ROW_0_301
*14999 TAP_TAPCELL_ROW_0_302
*15000 TAP_TAPCELL_ROW_0_303
*15001 TAP_TAPCELL_ROW_0_304
*15002 TAP_TAPCELL_ROW_0_305
*15003 TAP_TAPCELL_ROW_0_306
*15004 TAP_TAPCELL_ROW_0_307
*15005 TAP_TAPCELL_ROW_100_1793
*15006 TAP_TAPCELL_ROW_100_1794
*15007 TAP_TAPCELL_ROW_100_1795
*15008 TAP_TAPCELL_ROW_100_1796
*15009 TAP_TAPCELL_ROW_100_1797
*15010 TAP_TAPCELL_ROW_100_1798
*15011 TAP_TAPCELL_ROW_100_1799
*15012 TAP_TAPCELL_ROW_100_1800
*15013 TAP_TAPCELL_ROW_100_1801
*15014 TAP_TAPCELL_ROW_100_1802
*15015 TAP_TAPCELL_ROW_100_1803
*15016 TAP_TAPCELL_ROW_100_1804
*15017 TAP_TAPCELL_ROW_100_1805
*15018 TAP_TAPCELL_ROW_100_1806
*15019 TAP_TAPCELL_ROW_100_1807
*15020 TAP_TAPCELL_ROW_101_1808
*15021 TAP_TAPCELL_ROW_101_1809
*15022 TAP_TAPCELL_ROW_101_1810
*15023 TAP_TAPCELL_ROW_101_1811
*15024 TAP_TAPCELL_ROW_101_1812
*15025 TAP_TAPCELL_ROW_101_1813
*15026 TAP_TAPCELL_ROW_101_1814
*15027 TAP_TAPCELL_ROW_101_1815
*15028 TAP_TAPCELL_ROW_101_1816
*15029 TAP_TAPCELL_ROW_101_1817
*15030 TAP_TAPCELL_ROW_101_1818
*15031 TAP_TAPCELL_ROW_101_1819
*15032 TAP_TAPCELL_ROW_101_1820
*15033 TAP_TAPCELL_ROW_101_1821
*15034 TAP_TAPCELL_ROW_101_1822
*15035 TAP_TAPCELL_ROW_102_1823
*15036 TAP_TAPCELL_ROW_102_1824
*15037 TAP_TAPCELL_ROW_102_1825
*15038 TAP_TAPCELL_ROW_102_1826
*15039 TAP_TAPCELL_ROW_102_1827
*15040 TAP_TAPCELL_ROW_102_1828
*15041 TAP_TAPCELL_ROW_102_1829
*15042 TAP_TAPCELL_ROW_102_1830
*15043 TAP_TAPCELL_ROW_102_1831
*15044 TAP_TAPCELL_ROW_102_1832
*15045 TAP_TAPCELL_ROW_102_1833
*15046 TAP_TAPCELL_ROW_102_1834
*15047 TAP_TAPCELL_ROW_102_1835
*15048 TAP_TAPCELL_ROW_102_1836
*15049 TAP_TAPCELL_ROW_102_1837
*15050 TAP_TAPCELL_ROW_103_1838
*15051 TAP_TAPCELL_ROW_103_1839
*15052 TAP_TAPCELL_ROW_103_1840
*15053 TAP_TAPCELL_ROW_103_1841
*15054 TAP_TAPCELL_ROW_103_1842
*15055 TAP_TAPCELL_ROW_103_1843
*15056 TAP_TAPCELL_ROW_103_1844
*15057 TAP_TAPCELL_ROW_103_1845
*15058 TAP_TAPCELL_ROW_103_1846
*15059 TAP_TAPCELL_ROW_103_1847
*15060 TAP_TAPCELL_ROW_103_1848
*15061 TAP_TAPCELL_ROW_103_1849
*15062 TAP_TAPCELL_ROW_103_1850
*15063 TAP_TAPCELL_ROW_103_1851
*15064 TAP_TAPCELL_ROW_103_1852
*15065 TAP_TAPCELL_ROW_104_1853
*15066 TAP_TAPCELL_ROW_104_1854
*15067 TAP_TAPCELL_ROW_104_1855
*15068 TAP_TAPCELL_ROW_104_1856
*15069 TAP_TAPCELL_ROW_104_1857
*15070 TAP_TAPCELL_ROW_104_1858
*15071 TAP_TAPCELL_ROW_104_1859
*15072 TAP_TAPCELL_ROW_104_1860
*15073 TAP_TAPCELL_ROW_104_1861
*15074 TAP_TAPCELL_ROW_104_1862
*15075 TAP_TAPCELL_ROW_104_1863
*15076 TAP_TAPCELL_ROW_104_1864
*15077 TAP_TAPCELL_ROW_104_1865
*15078 TAP_TAPCELL_ROW_104_1866
*15079 TAP_TAPCELL_ROW_104_1867
*15080 TAP_TAPCELL_ROW_105_1868
*15081 TAP_TAPCELL_ROW_105_1869
*15082 TAP_TAPCELL_ROW_105_1870
*15083 TAP_TAPCELL_ROW_105_1871
*15084 TAP_TAPCELL_ROW_105_1872
*15085 TAP_TAPCELL_ROW_105_1873
*15086 TAP_TAPCELL_ROW_105_1874
*15087 TAP_TAPCELL_ROW_105_1875
*15088 TAP_TAPCELL_ROW_105_1876
*15089 TAP_TAPCELL_ROW_105_1877
*15090 TAP_TAPCELL_ROW_105_1878
*15091 TAP_TAPCELL_ROW_105_1879
*15092 TAP_TAPCELL_ROW_105_1880
*15093 TAP_TAPCELL_ROW_105_1881
*15094 TAP_TAPCELL_ROW_105_1882
*15095 TAP_TAPCELL_ROW_106_1883
*15096 TAP_TAPCELL_ROW_106_1884
*15097 TAP_TAPCELL_ROW_106_1885
*15098 TAP_TAPCELL_ROW_106_1886
*15099 TAP_TAPCELL_ROW_106_1887
*15100 TAP_TAPCELL_ROW_106_1888
*15101 TAP_TAPCELL_ROW_106_1889
*15102 TAP_TAPCELL_ROW_106_1890
*15103 TAP_TAPCELL_ROW_106_1891
*15104 TAP_TAPCELL_ROW_106_1892
*15105 TAP_TAPCELL_ROW_106_1893
*15106 TAP_TAPCELL_ROW_106_1894
*15107 TAP_TAPCELL_ROW_106_1895
*15108 TAP_TAPCELL_ROW_106_1896
*15109 TAP_TAPCELL_ROW_106_1897
*15110 TAP_TAPCELL_ROW_107_1898
*15111 TAP_TAPCELL_ROW_107_1899
*15112 TAP_TAPCELL_ROW_107_1900
*15113 TAP_TAPCELL_ROW_107_1901
*15114 TAP_TAPCELL_ROW_107_1902
*15115 TAP_TAPCELL_ROW_107_1903
*15116 TAP_TAPCELL_ROW_107_1904
*15117 TAP_TAPCELL_ROW_107_1905
*15118 TAP_TAPCELL_ROW_107_1906
*15119 TAP_TAPCELL_ROW_107_1907
*15120 TAP_TAPCELL_ROW_107_1908
*15121 TAP_TAPCELL_ROW_107_1909
*15122 TAP_TAPCELL_ROW_107_1910
*15123 TAP_TAPCELL_ROW_107_1911
*15124 TAP_TAPCELL_ROW_107_1912
*15125 TAP_TAPCELL_ROW_108_1913
*15126 TAP_TAPCELL_ROW_108_1914
*15127 TAP_TAPCELL_ROW_108_1915
*15128 TAP_TAPCELL_ROW_108_1916
*15129 TAP_TAPCELL_ROW_108_1917
*15130 TAP_TAPCELL_ROW_108_1918
*15131 TAP_TAPCELL_ROW_108_1919
*15132 TAP_TAPCELL_ROW_108_1920
*15133 TAP_TAPCELL_ROW_108_1921
*15134 TAP_TAPCELL_ROW_108_1922
*15135 TAP_TAPCELL_ROW_108_1923
*15136 TAP_TAPCELL_ROW_108_1924
*15137 TAP_TAPCELL_ROW_108_1925
*15138 TAP_TAPCELL_ROW_108_1926
*15139 TAP_TAPCELL_ROW_108_1927
*15140 TAP_TAPCELL_ROW_109_1928
*15141 TAP_TAPCELL_ROW_109_1929
*15142 TAP_TAPCELL_ROW_109_1930
*15143 TAP_TAPCELL_ROW_109_1931
*15144 TAP_TAPCELL_ROW_109_1932
*15145 TAP_TAPCELL_ROW_109_1933
*15146 TAP_TAPCELL_ROW_109_1934
*15147 TAP_TAPCELL_ROW_109_1935
*15148 TAP_TAPCELL_ROW_109_1936
*15149 TAP_TAPCELL_ROW_109_1937
*15150 TAP_TAPCELL_ROW_109_1938
*15151 TAP_TAPCELL_ROW_109_1939
*15152 TAP_TAPCELL_ROW_109_1940
*15153 TAP_TAPCELL_ROW_109_1941
*15154 TAP_TAPCELL_ROW_109_1942
*15155 TAP_TAPCELL_ROW_10_443
*15156 TAP_TAPCELL_ROW_10_444
*15157 TAP_TAPCELL_ROW_10_445
*15158 TAP_TAPCELL_ROW_10_446
*15159 TAP_TAPCELL_ROW_10_447
*15160 TAP_TAPCELL_ROW_10_448
*15161 TAP_TAPCELL_ROW_10_449
*15162 TAP_TAPCELL_ROW_10_450
*15163 TAP_TAPCELL_ROW_10_451
*15164 TAP_TAPCELL_ROW_10_452
*15165 TAP_TAPCELL_ROW_10_453
*15166 TAP_TAPCELL_ROW_10_454
*15167 TAP_TAPCELL_ROW_10_455
*15168 TAP_TAPCELL_ROW_10_456
*15169 TAP_TAPCELL_ROW_10_457
*15170 TAP_TAPCELL_ROW_110_1943
*15171 TAP_TAPCELL_ROW_110_1944
*15172 TAP_TAPCELL_ROW_110_1945
*15173 TAP_TAPCELL_ROW_110_1946
*15174 TAP_TAPCELL_ROW_110_1947
*15175 TAP_TAPCELL_ROW_110_1948
*15176 TAP_TAPCELL_ROW_110_1949
*15177 TAP_TAPCELL_ROW_110_1950
*15178 TAP_TAPCELL_ROW_110_1951
*15179 TAP_TAPCELL_ROW_110_1952
*15180 TAP_TAPCELL_ROW_110_1953
*15181 TAP_TAPCELL_ROW_110_1954
*15182 TAP_TAPCELL_ROW_110_1955
*15183 TAP_TAPCELL_ROW_110_1956
*15184 TAP_TAPCELL_ROW_110_1957
*15185 TAP_TAPCELL_ROW_111_1958
*15186 TAP_TAPCELL_ROW_111_1959
*15187 TAP_TAPCELL_ROW_111_1960
*15188 TAP_TAPCELL_ROW_111_1961
*15189 TAP_TAPCELL_ROW_111_1962
*15190 TAP_TAPCELL_ROW_111_1963
*15191 TAP_TAPCELL_ROW_111_1964
*15192 TAP_TAPCELL_ROW_111_1965
*15193 TAP_TAPCELL_ROW_111_1966
*15194 TAP_TAPCELL_ROW_111_1967
*15195 TAP_TAPCELL_ROW_111_1968
*15196 TAP_TAPCELL_ROW_111_1969
*15197 TAP_TAPCELL_ROW_111_1970
*15198 TAP_TAPCELL_ROW_111_1971
*15199 TAP_TAPCELL_ROW_111_1972
*15200 TAP_TAPCELL_ROW_112_1973
*15201 TAP_TAPCELL_ROW_112_1974
*15202 TAP_TAPCELL_ROW_112_1975
*15203 TAP_TAPCELL_ROW_112_1976
*15204 TAP_TAPCELL_ROW_112_1977
*15205 TAP_TAPCELL_ROW_112_1978
*15206 TAP_TAPCELL_ROW_112_1979
*15207 TAP_TAPCELL_ROW_112_1980
*15208 TAP_TAPCELL_ROW_112_1981
*15209 TAP_TAPCELL_ROW_112_1982
*15210 TAP_TAPCELL_ROW_112_1983
*15211 TAP_TAPCELL_ROW_112_1984
*15212 TAP_TAPCELL_ROW_112_1985
*15213 TAP_TAPCELL_ROW_112_1986
*15214 TAP_TAPCELL_ROW_112_1987
*15215 TAP_TAPCELL_ROW_113_1988
*15216 TAP_TAPCELL_ROW_113_1989
*15217 TAP_TAPCELL_ROW_113_1990
*15218 TAP_TAPCELL_ROW_113_1991
*15219 TAP_TAPCELL_ROW_113_1992
*15220 TAP_TAPCELL_ROW_113_1993
*15221 TAP_TAPCELL_ROW_113_1994
*15222 TAP_TAPCELL_ROW_113_1995
*15223 TAP_TAPCELL_ROW_113_1996
*15224 TAP_TAPCELL_ROW_113_1997
*15225 TAP_TAPCELL_ROW_113_1998
*15226 TAP_TAPCELL_ROW_113_1999
*15227 TAP_TAPCELL_ROW_113_2000
*15228 TAP_TAPCELL_ROW_113_2001
*15229 TAP_TAPCELL_ROW_113_2002
*15230 TAP_TAPCELL_ROW_114_2003
*15231 TAP_TAPCELL_ROW_114_2004
*15232 TAP_TAPCELL_ROW_114_2005
*15233 TAP_TAPCELL_ROW_114_2006
*15234 TAP_TAPCELL_ROW_114_2007
*15235 TAP_TAPCELL_ROW_114_2008
*15236 TAP_TAPCELL_ROW_114_2009
*15237 TAP_TAPCELL_ROW_114_2010
*15238 TAP_TAPCELL_ROW_114_2011
*15239 TAP_TAPCELL_ROW_114_2012
*15240 TAP_TAPCELL_ROW_114_2013
*15241 TAP_TAPCELL_ROW_114_2014
*15242 TAP_TAPCELL_ROW_114_2015
*15243 TAP_TAPCELL_ROW_114_2016
*15244 TAP_TAPCELL_ROW_114_2017
*15245 TAP_TAPCELL_ROW_115_2018
*15246 TAP_TAPCELL_ROW_115_2019
*15247 TAP_TAPCELL_ROW_115_2020
*15248 TAP_TAPCELL_ROW_115_2021
*15249 TAP_TAPCELL_ROW_115_2022
*15250 TAP_TAPCELL_ROW_115_2023
*15251 TAP_TAPCELL_ROW_115_2024
*15252 TAP_TAPCELL_ROW_115_2025
*15253 TAP_TAPCELL_ROW_115_2026
*15254 TAP_TAPCELL_ROW_115_2027
*15255 TAP_TAPCELL_ROW_115_2028
*15256 TAP_TAPCELL_ROW_115_2029
*15257 TAP_TAPCELL_ROW_115_2030
*15258 TAP_TAPCELL_ROW_115_2031
*15259 TAP_TAPCELL_ROW_115_2032
*15260 TAP_TAPCELL_ROW_116_2033
*15261 TAP_TAPCELL_ROW_116_2034
*15262 TAP_TAPCELL_ROW_116_2035
*15263 TAP_TAPCELL_ROW_116_2036
*15264 TAP_TAPCELL_ROW_116_2037
*15265 TAP_TAPCELL_ROW_116_2038
*15266 TAP_TAPCELL_ROW_116_2039
*15267 TAP_TAPCELL_ROW_116_2040
*15268 TAP_TAPCELL_ROW_116_2041
*15269 TAP_TAPCELL_ROW_116_2042
*15270 TAP_TAPCELL_ROW_116_2043
*15271 TAP_TAPCELL_ROW_116_2044
*15272 TAP_TAPCELL_ROW_116_2045
*15273 TAP_TAPCELL_ROW_116_2046
*15274 TAP_TAPCELL_ROW_116_2047
*15275 TAP_TAPCELL_ROW_117_2048
*15276 TAP_TAPCELL_ROW_117_2049
*15277 TAP_TAPCELL_ROW_117_2050
*15278 TAP_TAPCELL_ROW_117_2051
*15279 TAP_TAPCELL_ROW_117_2052
*15280 TAP_TAPCELL_ROW_117_2053
*15281 TAP_TAPCELL_ROW_117_2054
*15282 TAP_TAPCELL_ROW_117_2055
*15283 TAP_TAPCELL_ROW_117_2056
*15284 TAP_TAPCELL_ROW_117_2057
*15285 TAP_TAPCELL_ROW_117_2058
*15286 TAP_TAPCELL_ROW_117_2059
*15287 TAP_TAPCELL_ROW_117_2060
*15288 TAP_TAPCELL_ROW_117_2061
*15289 TAP_TAPCELL_ROW_117_2062
*15290 TAP_TAPCELL_ROW_118_2063
*15291 TAP_TAPCELL_ROW_118_2064
*15292 TAP_TAPCELL_ROW_118_2065
*15293 TAP_TAPCELL_ROW_118_2066
*15294 TAP_TAPCELL_ROW_118_2067
*15295 TAP_TAPCELL_ROW_118_2068
*15296 TAP_TAPCELL_ROW_118_2069
*15297 TAP_TAPCELL_ROW_118_2070
*15298 TAP_TAPCELL_ROW_118_2071
*15299 TAP_TAPCELL_ROW_118_2072
*15300 TAP_TAPCELL_ROW_118_2073
*15301 TAP_TAPCELL_ROW_118_2074
*15302 TAP_TAPCELL_ROW_118_2075
*15303 TAP_TAPCELL_ROW_118_2076
*15304 TAP_TAPCELL_ROW_118_2077
*15305 TAP_TAPCELL_ROW_119_2078
*15306 TAP_TAPCELL_ROW_119_2079
*15307 TAP_TAPCELL_ROW_119_2080
*15308 TAP_TAPCELL_ROW_119_2081
*15309 TAP_TAPCELL_ROW_119_2082
*15310 TAP_TAPCELL_ROW_119_2083
*15311 TAP_TAPCELL_ROW_119_2084
*15312 TAP_TAPCELL_ROW_119_2085
*15313 TAP_TAPCELL_ROW_119_2086
*15314 TAP_TAPCELL_ROW_119_2087
*15315 TAP_TAPCELL_ROW_119_2088
*15316 TAP_TAPCELL_ROW_119_2089
*15317 TAP_TAPCELL_ROW_119_2090
*15318 TAP_TAPCELL_ROW_119_2091
*15319 TAP_TAPCELL_ROW_119_2092
*15320 TAP_TAPCELL_ROW_11_458
*15321 TAP_TAPCELL_ROW_11_459
*15322 TAP_TAPCELL_ROW_11_460
*15323 TAP_TAPCELL_ROW_11_461
*15324 TAP_TAPCELL_ROW_11_462
*15325 TAP_TAPCELL_ROW_11_463
*15326 TAP_TAPCELL_ROW_11_464
*15327 TAP_TAPCELL_ROW_11_465
*15328 TAP_TAPCELL_ROW_11_466
*15329 TAP_TAPCELL_ROW_11_467
*15330 TAP_TAPCELL_ROW_11_468
*15331 TAP_TAPCELL_ROW_11_469
*15332 TAP_TAPCELL_ROW_11_470
*15333 TAP_TAPCELL_ROW_11_471
*15334 TAP_TAPCELL_ROW_11_472
*15335 TAP_TAPCELL_ROW_120_2093
*15336 TAP_TAPCELL_ROW_120_2094
*15337 TAP_TAPCELL_ROW_120_2095
*15338 TAP_TAPCELL_ROW_120_2096
*15339 TAP_TAPCELL_ROW_120_2097
*15340 TAP_TAPCELL_ROW_120_2098
*15341 TAP_TAPCELL_ROW_120_2099
*15342 TAP_TAPCELL_ROW_120_2100
*15343 TAP_TAPCELL_ROW_120_2101
*15344 TAP_TAPCELL_ROW_120_2102
*15345 TAP_TAPCELL_ROW_120_2103
*15346 TAP_TAPCELL_ROW_120_2104
*15347 TAP_TAPCELL_ROW_120_2105
*15348 TAP_TAPCELL_ROW_120_2106
*15349 TAP_TAPCELL_ROW_120_2107
*15350 TAP_TAPCELL_ROW_121_2108
*15351 TAP_TAPCELL_ROW_121_2109
*15352 TAP_TAPCELL_ROW_121_2110
*15353 TAP_TAPCELL_ROW_121_2111
*15354 TAP_TAPCELL_ROW_121_2112
*15355 TAP_TAPCELL_ROW_121_2113
*15356 TAP_TAPCELL_ROW_121_2114
*15357 TAP_TAPCELL_ROW_121_2115
*15358 TAP_TAPCELL_ROW_121_2116
*15359 TAP_TAPCELL_ROW_121_2117
*15360 TAP_TAPCELL_ROW_121_2118
*15361 TAP_TAPCELL_ROW_121_2119
*15362 TAP_TAPCELL_ROW_121_2120
*15363 TAP_TAPCELL_ROW_121_2121
*15364 TAP_TAPCELL_ROW_121_2122
*15365 TAP_TAPCELL_ROW_122_2123
*15366 TAP_TAPCELL_ROW_122_2124
*15367 TAP_TAPCELL_ROW_122_2125
*15368 TAP_TAPCELL_ROW_122_2126
*15369 TAP_TAPCELL_ROW_122_2127
*15370 TAP_TAPCELL_ROW_122_2128
*15371 TAP_TAPCELL_ROW_122_2129
*15372 TAP_TAPCELL_ROW_122_2130
*15373 TAP_TAPCELL_ROW_122_2131
*15374 TAP_TAPCELL_ROW_122_2132
*15375 TAP_TAPCELL_ROW_122_2133
*15376 TAP_TAPCELL_ROW_122_2134
*15377 TAP_TAPCELL_ROW_122_2135
*15378 TAP_TAPCELL_ROW_122_2136
*15379 TAP_TAPCELL_ROW_122_2137
*15380 TAP_TAPCELL_ROW_123_2138
*15381 TAP_TAPCELL_ROW_123_2139
*15382 TAP_TAPCELL_ROW_123_2140
*15383 TAP_TAPCELL_ROW_123_2141
*15384 TAP_TAPCELL_ROW_123_2142
*15385 TAP_TAPCELL_ROW_123_2143
*15386 TAP_TAPCELL_ROW_123_2144
*15387 TAP_TAPCELL_ROW_123_2145
*15388 TAP_TAPCELL_ROW_123_2146
*15389 TAP_TAPCELL_ROW_123_2147
*15390 TAP_TAPCELL_ROW_123_2148
*15391 TAP_TAPCELL_ROW_123_2149
*15392 TAP_TAPCELL_ROW_123_2150
*15393 TAP_TAPCELL_ROW_123_2151
*15394 TAP_TAPCELL_ROW_123_2152
*15395 TAP_TAPCELL_ROW_124_2153
*15396 TAP_TAPCELL_ROW_124_2154
*15397 TAP_TAPCELL_ROW_124_2155
*15398 TAP_TAPCELL_ROW_124_2156
*15399 TAP_TAPCELL_ROW_124_2157
*15400 TAP_TAPCELL_ROW_124_2158
*15401 TAP_TAPCELL_ROW_124_2159
*15402 TAP_TAPCELL_ROW_124_2160
*15403 TAP_TAPCELL_ROW_124_2161
*15404 TAP_TAPCELL_ROW_124_2162
*15405 TAP_TAPCELL_ROW_124_2163
*15406 TAP_TAPCELL_ROW_124_2164
*15407 TAP_TAPCELL_ROW_124_2165
*15408 TAP_TAPCELL_ROW_124_2166
*15409 TAP_TAPCELL_ROW_124_2167
*15410 TAP_TAPCELL_ROW_125_2168
*15411 TAP_TAPCELL_ROW_125_2169
*15412 TAP_TAPCELL_ROW_125_2170
*15413 TAP_TAPCELL_ROW_125_2171
*15414 TAP_TAPCELL_ROW_125_2172
*15415 TAP_TAPCELL_ROW_125_2173
*15416 TAP_TAPCELL_ROW_125_2174
*15417 TAP_TAPCELL_ROW_125_2175
*15418 TAP_TAPCELL_ROW_125_2176
*15419 TAP_TAPCELL_ROW_125_2177
*15420 TAP_TAPCELL_ROW_125_2178
*15421 TAP_TAPCELL_ROW_125_2179
*15422 TAP_TAPCELL_ROW_125_2180
*15423 TAP_TAPCELL_ROW_125_2181
*15424 TAP_TAPCELL_ROW_125_2182
*15425 TAP_TAPCELL_ROW_126_2183
*15426 TAP_TAPCELL_ROW_126_2184
*15427 TAP_TAPCELL_ROW_126_2185
*15428 TAP_TAPCELL_ROW_126_2186
*15429 TAP_TAPCELL_ROW_126_2187
*15430 TAP_TAPCELL_ROW_126_2188
*15431 TAP_TAPCELL_ROW_126_2189
*15432 TAP_TAPCELL_ROW_126_2190
*15433 TAP_TAPCELL_ROW_126_2191
*15434 TAP_TAPCELL_ROW_126_2192
*15435 TAP_TAPCELL_ROW_126_2193
*15436 TAP_TAPCELL_ROW_126_2194
*15437 TAP_TAPCELL_ROW_126_2195
*15438 TAP_TAPCELL_ROW_126_2196
*15439 TAP_TAPCELL_ROW_126_2197
*15440 TAP_TAPCELL_ROW_127_2198
*15441 TAP_TAPCELL_ROW_127_2199
*15442 TAP_TAPCELL_ROW_127_2200
*15443 TAP_TAPCELL_ROW_127_2201
*15444 TAP_TAPCELL_ROW_127_2202
*15445 TAP_TAPCELL_ROW_127_2203
*15446 TAP_TAPCELL_ROW_127_2204
*15447 TAP_TAPCELL_ROW_127_2205
*15448 TAP_TAPCELL_ROW_127_2206
*15449 TAP_TAPCELL_ROW_127_2207
*15450 TAP_TAPCELL_ROW_127_2208
*15451 TAP_TAPCELL_ROW_127_2209
*15452 TAP_TAPCELL_ROW_127_2210
*15453 TAP_TAPCELL_ROW_127_2211
*15454 TAP_TAPCELL_ROW_127_2212
*15455 TAP_TAPCELL_ROW_128_2213
*15456 TAP_TAPCELL_ROW_128_2214
*15457 TAP_TAPCELL_ROW_128_2215
*15458 TAP_TAPCELL_ROW_128_2216
*15459 TAP_TAPCELL_ROW_128_2217
*15460 TAP_TAPCELL_ROW_128_2218
*15461 TAP_TAPCELL_ROW_128_2219
*15462 TAP_TAPCELL_ROW_128_2220
*15463 TAP_TAPCELL_ROW_128_2221
*15464 TAP_TAPCELL_ROW_128_2222
*15465 TAP_TAPCELL_ROW_128_2223
*15466 TAP_TAPCELL_ROW_128_2224
*15467 TAP_TAPCELL_ROW_128_2225
*15468 TAP_TAPCELL_ROW_128_2226
*15469 TAP_TAPCELL_ROW_128_2227
*15470 TAP_TAPCELL_ROW_129_2228
*15471 TAP_TAPCELL_ROW_129_2229
*15472 TAP_TAPCELL_ROW_129_2230
*15473 TAP_TAPCELL_ROW_129_2231
*15474 TAP_TAPCELL_ROW_129_2232
*15475 TAP_TAPCELL_ROW_129_2233
*15476 TAP_TAPCELL_ROW_129_2234
*15477 TAP_TAPCELL_ROW_129_2235
*15478 TAP_TAPCELL_ROW_129_2236
*15479 TAP_TAPCELL_ROW_129_2237
*15480 TAP_TAPCELL_ROW_129_2238
*15481 TAP_TAPCELL_ROW_129_2239
*15482 TAP_TAPCELL_ROW_129_2240
*15483 TAP_TAPCELL_ROW_129_2241
*15484 TAP_TAPCELL_ROW_129_2242
*15485 TAP_TAPCELL_ROW_12_473
*15486 TAP_TAPCELL_ROW_12_474
*15487 TAP_TAPCELL_ROW_12_475
*15488 TAP_TAPCELL_ROW_12_476
*15489 TAP_TAPCELL_ROW_12_477
*15490 TAP_TAPCELL_ROW_12_478
*15491 TAP_TAPCELL_ROW_12_479
*15492 TAP_TAPCELL_ROW_12_480
*15493 TAP_TAPCELL_ROW_12_481
*15494 TAP_TAPCELL_ROW_12_482
*15495 TAP_TAPCELL_ROW_12_483
*15496 TAP_TAPCELL_ROW_12_484
*15497 TAP_TAPCELL_ROW_12_485
*15498 TAP_TAPCELL_ROW_12_486
*15499 TAP_TAPCELL_ROW_12_487
*15500 TAP_TAPCELL_ROW_130_2243
*15501 TAP_TAPCELL_ROW_130_2244
*15502 TAP_TAPCELL_ROW_130_2245
*15503 TAP_TAPCELL_ROW_130_2246
*15504 TAP_TAPCELL_ROW_130_2247
*15505 TAP_TAPCELL_ROW_130_2248
*15506 TAP_TAPCELL_ROW_130_2249
*15507 TAP_TAPCELL_ROW_130_2250
*15508 TAP_TAPCELL_ROW_130_2251
*15509 TAP_TAPCELL_ROW_130_2252
*15510 TAP_TAPCELL_ROW_130_2253
*15511 TAP_TAPCELL_ROW_130_2254
*15512 TAP_TAPCELL_ROW_130_2255
*15513 TAP_TAPCELL_ROW_130_2256
*15514 TAP_TAPCELL_ROW_130_2257
*15515 TAP_TAPCELL_ROW_131_2258
*15516 TAP_TAPCELL_ROW_131_2259
*15517 TAP_TAPCELL_ROW_131_2260
*15518 TAP_TAPCELL_ROW_131_2261
*15519 TAP_TAPCELL_ROW_131_2262
*15520 TAP_TAPCELL_ROW_131_2263
*15521 TAP_TAPCELL_ROW_131_2264
*15522 TAP_TAPCELL_ROW_131_2265
*15523 TAP_TAPCELL_ROW_131_2266
*15524 TAP_TAPCELL_ROW_131_2267
*15525 TAP_TAPCELL_ROW_131_2268
*15526 TAP_TAPCELL_ROW_131_2269
*15527 TAP_TAPCELL_ROW_131_2270
*15528 TAP_TAPCELL_ROW_131_2271
*15529 TAP_TAPCELL_ROW_131_2272
*15530 TAP_TAPCELL_ROW_132_2273
*15531 TAP_TAPCELL_ROW_132_2274
*15532 TAP_TAPCELL_ROW_132_2275
*15533 TAP_TAPCELL_ROW_132_2276
*15534 TAP_TAPCELL_ROW_132_2277
*15535 TAP_TAPCELL_ROW_132_2278
*15536 TAP_TAPCELL_ROW_132_2279
*15537 TAP_TAPCELL_ROW_132_2280
*15538 TAP_TAPCELL_ROW_132_2281
*15539 TAP_TAPCELL_ROW_132_2282
*15540 TAP_TAPCELL_ROW_132_2283
*15541 TAP_TAPCELL_ROW_132_2284
*15542 TAP_TAPCELL_ROW_132_2285
*15543 TAP_TAPCELL_ROW_132_2286
*15544 TAP_TAPCELL_ROW_132_2287
*15545 TAP_TAPCELL_ROW_133_2288
*15546 TAP_TAPCELL_ROW_133_2289
*15547 TAP_TAPCELL_ROW_133_2290
*15548 TAP_TAPCELL_ROW_133_2291
*15549 TAP_TAPCELL_ROW_133_2292
*15550 TAP_TAPCELL_ROW_133_2293
*15551 TAP_TAPCELL_ROW_133_2294
*15552 TAP_TAPCELL_ROW_133_2295
*15553 TAP_TAPCELL_ROW_133_2296
*15554 TAP_TAPCELL_ROW_133_2297
*15555 TAP_TAPCELL_ROW_133_2298
*15556 TAP_TAPCELL_ROW_133_2299
*15557 TAP_TAPCELL_ROW_133_2300
*15558 TAP_TAPCELL_ROW_133_2301
*15559 TAP_TAPCELL_ROW_133_2302
*15560 TAP_TAPCELL_ROW_134_2303
*15561 TAP_TAPCELL_ROW_134_2304
*15562 TAP_TAPCELL_ROW_134_2305
*15563 TAP_TAPCELL_ROW_134_2306
*15564 TAP_TAPCELL_ROW_134_2307
*15565 TAP_TAPCELL_ROW_134_2308
*15566 TAP_TAPCELL_ROW_134_2309
*15567 TAP_TAPCELL_ROW_134_2310
*15568 TAP_TAPCELL_ROW_134_2311
*15569 TAP_TAPCELL_ROW_134_2312
*15570 TAP_TAPCELL_ROW_134_2313
*15571 TAP_TAPCELL_ROW_134_2314
*15572 TAP_TAPCELL_ROW_134_2315
*15573 TAP_TAPCELL_ROW_134_2316
*15574 TAP_TAPCELL_ROW_134_2317
*15575 TAP_TAPCELL_ROW_135_2318
*15576 TAP_TAPCELL_ROW_135_2319
*15577 TAP_TAPCELL_ROW_135_2320
*15578 TAP_TAPCELL_ROW_135_2321
*15579 TAP_TAPCELL_ROW_135_2322
*15580 TAP_TAPCELL_ROW_135_2323
*15581 TAP_TAPCELL_ROW_135_2324
*15582 TAP_TAPCELL_ROW_135_2325
*15583 TAP_TAPCELL_ROW_135_2326
*15584 TAP_TAPCELL_ROW_135_2327
*15585 TAP_TAPCELL_ROW_135_2328
*15586 TAP_TAPCELL_ROW_135_2329
*15587 TAP_TAPCELL_ROW_135_2330
*15588 TAP_TAPCELL_ROW_135_2331
*15589 TAP_TAPCELL_ROW_135_2332
*15590 TAP_TAPCELL_ROW_136_2333
*15591 TAP_TAPCELL_ROW_136_2334
*15592 TAP_TAPCELL_ROW_136_2335
*15593 TAP_TAPCELL_ROW_136_2336
*15594 TAP_TAPCELL_ROW_136_2337
*15595 TAP_TAPCELL_ROW_136_2338
*15596 TAP_TAPCELL_ROW_136_2339
*15597 TAP_TAPCELL_ROW_136_2340
*15598 TAP_TAPCELL_ROW_136_2341
*15599 TAP_TAPCELL_ROW_136_2342
*15600 TAP_TAPCELL_ROW_136_2343
*15601 TAP_TAPCELL_ROW_136_2344
*15602 TAP_TAPCELL_ROW_136_2345
*15603 TAP_TAPCELL_ROW_136_2346
*15604 TAP_TAPCELL_ROW_136_2347
*15605 TAP_TAPCELL_ROW_137_2348
*15606 TAP_TAPCELL_ROW_137_2349
*15607 TAP_TAPCELL_ROW_137_2350
*15608 TAP_TAPCELL_ROW_137_2351
*15609 TAP_TAPCELL_ROW_137_2352
*15610 TAP_TAPCELL_ROW_137_2353
*15611 TAP_TAPCELL_ROW_137_2354
*15612 TAP_TAPCELL_ROW_137_2355
*15613 TAP_TAPCELL_ROW_137_2356
*15614 TAP_TAPCELL_ROW_137_2357
*15615 TAP_TAPCELL_ROW_137_2358
*15616 TAP_TAPCELL_ROW_137_2359
*15617 TAP_TAPCELL_ROW_137_2360
*15618 TAP_TAPCELL_ROW_137_2361
*15619 TAP_TAPCELL_ROW_137_2362
*15620 TAP_TAPCELL_ROW_138_2363
*15621 TAP_TAPCELL_ROW_138_2364
*15622 TAP_TAPCELL_ROW_138_2365
*15623 TAP_TAPCELL_ROW_138_2366
*15624 TAP_TAPCELL_ROW_138_2367
*15625 TAP_TAPCELL_ROW_138_2368
*15626 TAP_TAPCELL_ROW_138_2369
*15627 TAP_TAPCELL_ROW_138_2370
*15628 TAP_TAPCELL_ROW_138_2371
*15629 TAP_TAPCELL_ROW_138_2372
*15630 TAP_TAPCELL_ROW_138_2373
*15631 TAP_TAPCELL_ROW_138_2374
*15632 TAP_TAPCELL_ROW_138_2375
*15633 TAP_TAPCELL_ROW_138_2376
*15634 TAP_TAPCELL_ROW_138_2377
*15635 TAP_TAPCELL_ROW_138_2378
*15636 TAP_TAPCELL_ROW_138_2379
*15637 TAP_TAPCELL_ROW_138_2380
*15638 TAP_TAPCELL_ROW_138_2381
*15639 TAP_TAPCELL_ROW_138_2382
*15640 TAP_TAPCELL_ROW_138_2383
*15641 TAP_TAPCELL_ROW_138_2384
*15642 TAP_TAPCELL_ROW_138_2385
*15643 TAP_TAPCELL_ROW_138_2386
*15644 TAP_TAPCELL_ROW_138_2387
*15645 TAP_TAPCELL_ROW_138_2388
*15646 TAP_TAPCELL_ROW_138_2389
*15647 TAP_TAPCELL_ROW_138_2390
*15648 TAP_TAPCELL_ROW_138_2391
*15649 TAP_TAPCELL_ROW_138_2392
*15650 TAP_TAPCELL_ROW_13_488
*15651 TAP_TAPCELL_ROW_13_489
*15652 TAP_TAPCELL_ROW_13_490
*15653 TAP_TAPCELL_ROW_13_491
*15654 TAP_TAPCELL_ROW_13_492
*15655 TAP_TAPCELL_ROW_13_493
*15656 TAP_TAPCELL_ROW_13_494
*15657 TAP_TAPCELL_ROW_13_495
*15658 TAP_TAPCELL_ROW_13_496
*15659 TAP_TAPCELL_ROW_13_497
*15660 TAP_TAPCELL_ROW_13_498
*15661 TAP_TAPCELL_ROW_13_499
*15662 TAP_TAPCELL_ROW_13_500
*15663 TAP_TAPCELL_ROW_13_501
*15664 TAP_TAPCELL_ROW_13_502
*15665 TAP_TAPCELL_ROW_14_503
*15666 TAP_TAPCELL_ROW_14_504
*15667 TAP_TAPCELL_ROW_14_505
*15668 TAP_TAPCELL_ROW_14_506
*15669 TAP_TAPCELL_ROW_14_507
*15670 TAP_TAPCELL_ROW_14_508
*15671 TAP_TAPCELL_ROW_14_509
*15672 TAP_TAPCELL_ROW_14_510
*15673 TAP_TAPCELL_ROW_14_511
*15674 TAP_TAPCELL_ROW_14_512
*15675 TAP_TAPCELL_ROW_14_513
*15676 TAP_TAPCELL_ROW_14_514
*15677 TAP_TAPCELL_ROW_14_515
*15678 TAP_TAPCELL_ROW_14_516
*15679 TAP_TAPCELL_ROW_14_517
*15680 TAP_TAPCELL_ROW_15_518
*15681 TAP_TAPCELL_ROW_15_519
*15682 TAP_TAPCELL_ROW_15_520
*15683 TAP_TAPCELL_ROW_15_521
*15684 TAP_TAPCELL_ROW_15_522
*15685 TAP_TAPCELL_ROW_15_523
*15686 TAP_TAPCELL_ROW_15_524
*15687 TAP_TAPCELL_ROW_15_525
*15688 TAP_TAPCELL_ROW_15_526
*15689 TAP_TAPCELL_ROW_15_527
*15690 TAP_TAPCELL_ROW_15_528
*15691 TAP_TAPCELL_ROW_15_529
*15692 TAP_TAPCELL_ROW_15_530
*15693 TAP_TAPCELL_ROW_15_531
*15694 TAP_TAPCELL_ROW_15_532
*15695 TAP_TAPCELL_ROW_16_533
*15696 TAP_TAPCELL_ROW_16_534
*15697 TAP_TAPCELL_ROW_16_535
*15698 TAP_TAPCELL_ROW_16_536
*15699 TAP_TAPCELL_ROW_16_537
*15700 TAP_TAPCELL_ROW_16_538
*15701 TAP_TAPCELL_ROW_16_539
*15702 TAP_TAPCELL_ROW_16_540
*15703 TAP_TAPCELL_ROW_16_541
*15704 TAP_TAPCELL_ROW_16_542
*15705 TAP_TAPCELL_ROW_16_543
*15706 TAP_TAPCELL_ROW_16_544
*15707 TAP_TAPCELL_ROW_16_545
*15708 TAP_TAPCELL_ROW_16_546
*15709 TAP_TAPCELL_ROW_16_547
*15710 TAP_TAPCELL_ROW_17_548
*15711 TAP_TAPCELL_ROW_17_549
*15712 TAP_TAPCELL_ROW_17_550
*15713 TAP_TAPCELL_ROW_17_551
*15714 TAP_TAPCELL_ROW_17_552
*15715 TAP_TAPCELL_ROW_17_553
*15716 TAP_TAPCELL_ROW_17_554
*15717 TAP_TAPCELL_ROW_17_555
*15718 TAP_TAPCELL_ROW_17_556
*15719 TAP_TAPCELL_ROW_17_557
*15720 TAP_TAPCELL_ROW_17_558
*15721 TAP_TAPCELL_ROW_17_559
*15722 TAP_TAPCELL_ROW_17_560
*15723 TAP_TAPCELL_ROW_17_561
*15724 TAP_TAPCELL_ROW_17_562
*15725 TAP_TAPCELL_ROW_18_563
*15726 TAP_TAPCELL_ROW_18_564
*15727 TAP_TAPCELL_ROW_18_565
*15728 TAP_TAPCELL_ROW_18_566
*15729 TAP_TAPCELL_ROW_18_567
*15730 TAP_TAPCELL_ROW_18_568
*15731 TAP_TAPCELL_ROW_18_569
*15732 TAP_TAPCELL_ROW_18_570
*15733 TAP_TAPCELL_ROW_18_571
*15734 TAP_TAPCELL_ROW_18_572
*15735 TAP_TAPCELL_ROW_18_573
*15736 TAP_TAPCELL_ROW_18_574
*15737 TAP_TAPCELL_ROW_18_575
*15738 TAP_TAPCELL_ROW_18_576
*15739 TAP_TAPCELL_ROW_18_577
*15740 TAP_TAPCELL_ROW_19_578
*15741 TAP_TAPCELL_ROW_19_579
*15742 TAP_TAPCELL_ROW_19_580
*15743 TAP_TAPCELL_ROW_19_581
*15744 TAP_TAPCELL_ROW_19_582
*15745 TAP_TAPCELL_ROW_19_583
*15746 TAP_TAPCELL_ROW_19_584
*15747 TAP_TAPCELL_ROW_19_585
*15748 TAP_TAPCELL_ROW_19_586
*15749 TAP_TAPCELL_ROW_19_587
*15750 TAP_TAPCELL_ROW_19_588
*15751 TAP_TAPCELL_ROW_19_589
*15752 TAP_TAPCELL_ROW_19_590
*15753 TAP_TAPCELL_ROW_19_591
*15754 TAP_TAPCELL_ROW_19_592
*15755 TAP_TAPCELL_ROW_1_308
*15756 TAP_TAPCELL_ROW_1_309
*15757 TAP_TAPCELL_ROW_1_310
*15758 TAP_TAPCELL_ROW_1_311
*15759 TAP_TAPCELL_ROW_1_312
*15760 TAP_TAPCELL_ROW_1_313
*15761 TAP_TAPCELL_ROW_1_314
*15762 TAP_TAPCELL_ROW_1_315
*15763 TAP_TAPCELL_ROW_1_316
*15764 TAP_TAPCELL_ROW_1_317
*15765 TAP_TAPCELL_ROW_1_318
*15766 TAP_TAPCELL_ROW_1_319
*15767 TAP_TAPCELL_ROW_1_320
*15768 TAP_TAPCELL_ROW_1_321
*15769 TAP_TAPCELL_ROW_1_322
*15770 TAP_TAPCELL_ROW_20_593
*15771 TAP_TAPCELL_ROW_20_594
*15772 TAP_TAPCELL_ROW_20_595
*15773 TAP_TAPCELL_ROW_20_596
*15774 TAP_TAPCELL_ROW_20_597
*15775 TAP_TAPCELL_ROW_20_598
*15776 TAP_TAPCELL_ROW_20_599
*15777 TAP_TAPCELL_ROW_20_600
*15778 TAP_TAPCELL_ROW_20_601
*15779 TAP_TAPCELL_ROW_20_602
*15780 TAP_TAPCELL_ROW_20_603
*15781 TAP_TAPCELL_ROW_20_604
*15782 TAP_TAPCELL_ROW_20_605
*15783 TAP_TAPCELL_ROW_20_606
*15784 TAP_TAPCELL_ROW_20_607
*15785 TAP_TAPCELL_ROW_21_608
*15786 TAP_TAPCELL_ROW_21_609
*15787 TAP_TAPCELL_ROW_21_610
*15788 TAP_TAPCELL_ROW_21_611
*15789 TAP_TAPCELL_ROW_21_612
*15790 TAP_TAPCELL_ROW_21_613
*15791 TAP_TAPCELL_ROW_21_614
*15792 TAP_TAPCELL_ROW_21_615
*15793 TAP_TAPCELL_ROW_21_616
*15794 TAP_TAPCELL_ROW_21_617
*15795 TAP_TAPCELL_ROW_21_618
*15796 TAP_TAPCELL_ROW_21_619
*15797 TAP_TAPCELL_ROW_21_620
*15798 TAP_TAPCELL_ROW_21_621
*15799 TAP_TAPCELL_ROW_21_622
*15800 TAP_TAPCELL_ROW_22_623
*15801 TAP_TAPCELL_ROW_22_624
*15802 TAP_TAPCELL_ROW_22_625
*15803 TAP_TAPCELL_ROW_22_626
*15804 TAP_TAPCELL_ROW_22_627
*15805 TAP_TAPCELL_ROW_22_628
*15806 TAP_TAPCELL_ROW_22_629
*15807 TAP_TAPCELL_ROW_22_630
*15808 TAP_TAPCELL_ROW_22_631
*15809 TAP_TAPCELL_ROW_22_632
*15810 TAP_TAPCELL_ROW_22_633
*15811 TAP_TAPCELL_ROW_22_634
*15812 TAP_TAPCELL_ROW_22_635
*15813 TAP_TAPCELL_ROW_22_636
*15814 TAP_TAPCELL_ROW_22_637
*15815 TAP_TAPCELL_ROW_23_638
*15816 TAP_TAPCELL_ROW_23_639
*15817 TAP_TAPCELL_ROW_23_640
*15818 TAP_TAPCELL_ROW_23_641
*15819 TAP_TAPCELL_ROW_23_642
*15820 TAP_TAPCELL_ROW_23_643
*15821 TAP_TAPCELL_ROW_23_644
*15822 TAP_TAPCELL_ROW_23_645
*15823 TAP_TAPCELL_ROW_23_646
*15824 TAP_TAPCELL_ROW_23_647
*15825 TAP_TAPCELL_ROW_23_648
*15826 TAP_TAPCELL_ROW_23_649
*15827 TAP_TAPCELL_ROW_23_650
*15828 TAP_TAPCELL_ROW_23_651
*15829 TAP_TAPCELL_ROW_23_652
*15830 TAP_TAPCELL_ROW_24_653
*15831 TAP_TAPCELL_ROW_24_654
*15832 TAP_TAPCELL_ROW_24_655
*15833 TAP_TAPCELL_ROW_24_656
*15834 TAP_TAPCELL_ROW_24_657
*15835 TAP_TAPCELL_ROW_24_658
*15836 TAP_TAPCELL_ROW_24_659
*15837 TAP_TAPCELL_ROW_24_660
*15838 TAP_TAPCELL_ROW_24_661
*15839 TAP_TAPCELL_ROW_24_662
*15840 TAP_TAPCELL_ROW_24_663
*15841 TAP_TAPCELL_ROW_24_664
*15842 TAP_TAPCELL_ROW_24_665
*15843 TAP_TAPCELL_ROW_24_666
*15844 TAP_TAPCELL_ROW_24_667
*15845 TAP_TAPCELL_ROW_25_668
*15846 TAP_TAPCELL_ROW_25_669
*15847 TAP_TAPCELL_ROW_25_670
*15848 TAP_TAPCELL_ROW_25_671
*15849 TAP_TAPCELL_ROW_25_672
*15850 TAP_TAPCELL_ROW_25_673
*15851 TAP_TAPCELL_ROW_25_674
*15852 TAP_TAPCELL_ROW_25_675
*15853 TAP_TAPCELL_ROW_25_676
*15854 TAP_TAPCELL_ROW_25_677
*15855 TAP_TAPCELL_ROW_25_678
*15856 TAP_TAPCELL_ROW_25_679
*15857 TAP_TAPCELL_ROW_25_680
*15858 TAP_TAPCELL_ROW_25_681
*15859 TAP_TAPCELL_ROW_25_682
*15860 TAP_TAPCELL_ROW_26_683
*15861 TAP_TAPCELL_ROW_26_684
*15862 TAP_TAPCELL_ROW_26_685
*15863 TAP_TAPCELL_ROW_26_686
*15864 TAP_TAPCELL_ROW_26_687
*15865 TAP_TAPCELL_ROW_26_688
*15866 TAP_TAPCELL_ROW_26_689
*15867 TAP_TAPCELL_ROW_26_690
*15868 TAP_TAPCELL_ROW_26_691
*15869 TAP_TAPCELL_ROW_26_692
*15870 TAP_TAPCELL_ROW_26_693
*15871 TAP_TAPCELL_ROW_26_694
*15872 TAP_TAPCELL_ROW_26_695
*15873 TAP_TAPCELL_ROW_26_696
*15874 TAP_TAPCELL_ROW_26_697
*15875 TAP_TAPCELL_ROW_27_698
*15876 TAP_TAPCELL_ROW_27_699
*15877 TAP_TAPCELL_ROW_27_700
*15878 TAP_TAPCELL_ROW_27_701
*15879 TAP_TAPCELL_ROW_27_702
*15880 TAP_TAPCELL_ROW_27_703
*15881 TAP_TAPCELL_ROW_27_704
*15882 TAP_TAPCELL_ROW_27_705
*15883 TAP_TAPCELL_ROW_27_706
*15884 TAP_TAPCELL_ROW_27_707
*15885 TAP_TAPCELL_ROW_27_708
*15886 TAP_TAPCELL_ROW_27_709
*15887 TAP_TAPCELL_ROW_27_710
*15888 TAP_TAPCELL_ROW_27_711
*15889 TAP_TAPCELL_ROW_27_712
*15890 TAP_TAPCELL_ROW_28_713
*15891 TAP_TAPCELL_ROW_28_714
*15892 TAP_TAPCELL_ROW_28_715
*15893 TAP_TAPCELL_ROW_28_716
*15894 TAP_TAPCELL_ROW_28_717
*15895 TAP_TAPCELL_ROW_28_718
*15896 TAP_TAPCELL_ROW_28_719
*15897 TAP_TAPCELL_ROW_28_720
*15898 TAP_TAPCELL_ROW_28_721
*15899 TAP_TAPCELL_ROW_28_722
*15900 TAP_TAPCELL_ROW_28_723
*15901 TAP_TAPCELL_ROW_28_724
*15902 TAP_TAPCELL_ROW_28_725
*15903 TAP_TAPCELL_ROW_28_726
*15904 TAP_TAPCELL_ROW_28_727
*15905 TAP_TAPCELL_ROW_29_728
*15906 TAP_TAPCELL_ROW_29_729
*15907 TAP_TAPCELL_ROW_29_730
*15908 TAP_TAPCELL_ROW_29_731
*15909 TAP_TAPCELL_ROW_29_732
*15910 TAP_TAPCELL_ROW_29_733
*15911 TAP_TAPCELL_ROW_29_734
*15912 TAP_TAPCELL_ROW_29_735
*15913 TAP_TAPCELL_ROW_29_736
*15914 TAP_TAPCELL_ROW_29_737
*15915 TAP_TAPCELL_ROW_29_738
*15916 TAP_TAPCELL_ROW_29_739
*15917 TAP_TAPCELL_ROW_29_740
*15918 TAP_TAPCELL_ROW_29_741
*15919 TAP_TAPCELL_ROW_29_742
*15920 TAP_TAPCELL_ROW_2_323
*15921 TAP_TAPCELL_ROW_2_324
*15922 TAP_TAPCELL_ROW_2_325
*15923 TAP_TAPCELL_ROW_2_326
*15924 TAP_TAPCELL_ROW_2_327
*15925 TAP_TAPCELL_ROW_2_328
*15926 TAP_TAPCELL_ROW_2_329
*15927 TAP_TAPCELL_ROW_2_330
*15928 TAP_TAPCELL_ROW_2_331
*15929 TAP_TAPCELL_ROW_2_332
*15930 TAP_TAPCELL_ROW_2_333
*15931 TAP_TAPCELL_ROW_2_334
*15932 TAP_TAPCELL_ROW_2_335
*15933 TAP_TAPCELL_ROW_2_336
*15934 TAP_TAPCELL_ROW_2_337
*15935 TAP_TAPCELL_ROW_30_743
*15936 TAP_TAPCELL_ROW_30_744
*15937 TAP_TAPCELL_ROW_30_745
*15938 TAP_TAPCELL_ROW_30_746
*15939 TAP_TAPCELL_ROW_30_747
*15940 TAP_TAPCELL_ROW_30_748
*15941 TAP_TAPCELL_ROW_30_749
*15942 TAP_TAPCELL_ROW_30_750
*15943 TAP_TAPCELL_ROW_30_751
*15944 TAP_TAPCELL_ROW_30_752
*15945 TAP_TAPCELL_ROW_30_753
*15946 TAP_TAPCELL_ROW_30_754
*15947 TAP_TAPCELL_ROW_30_755
*15948 TAP_TAPCELL_ROW_30_756
*15949 TAP_TAPCELL_ROW_30_757
*15950 TAP_TAPCELL_ROW_31_758
*15951 TAP_TAPCELL_ROW_31_759
*15952 TAP_TAPCELL_ROW_31_760
*15953 TAP_TAPCELL_ROW_31_761
*15954 TAP_TAPCELL_ROW_31_762
*15955 TAP_TAPCELL_ROW_31_763
*15956 TAP_TAPCELL_ROW_31_764
*15957 TAP_TAPCELL_ROW_31_765
*15958 TAP_TAPCELL_ROW_31_766
*15959 TAP_TAPCELL_ROW_31_767
*15960 TAP_TAPCELL_ROW_31_768
*15961 TAP_TAPCELL_ROW_31_769
*15962 TAP_TAPCELL_ROW_31_770
*15963 TAP_TAPCELL_ROW_31_771
*15964 TAP_TAPCELL_ROW_31_772
*15965 TAP_TAPCELL_ROW_32_773
*15966 TAP_TAPCELL_ROW_32_774
*15967 TAP_TAPCELL_ROW_32_775
*15968 TAP_TAPCELL_ROW_32_776
*15969 TAP_TAPCELL_ROW_32_777
*15970 TAP_TAPCELL_ROW_32_778
*15971 TAP_TAPCELL_ROW_32_779
*15972 TAP_TAPCELL_ROW_32_780
*15973 TAP_TAPCELL_ROW_32_781
*15974 TAP_TAPCELL_ROW_32_782
*15975 TAP_TAPCELL_ROW_32_783
*15976 TAP_TAPCELL_ROW_32_784
*15977 TAP_TAPCELL_ROW_32_785
*15978 TAP_TAPCELL_ROW_32_786
*15979 TAP_TAPCELL_ROW_32_787
*15980 TAP_TAPCELL_ROW_33_788
*15981 TAP_TAPCELL_ROW_33_789
*15982 TAP_TAPCELL_ROW_33_790
*15983 TAP_TAPCELL_ROW_33_791
*15984 TAP_TAPCELL_ROW_33_792
*15985 TAP_TAPCELL_ROW_33_793
*15986 TAP_TAPCELL_ROW_33_794
*15987 TAP_TAPCELL_ROW_33_795
*15988 TAP_TAPCELL_ROW_33_796
*15989 TAP_TAPCELL_ROW_33_797
*15990 TAP_TAPCELL_ROW_33_798
*15991 TAP_TAPCELL_ROW_33_799
*15992 TAP_TAPCELL_ROW_33_800
*15993 TAP_TAPCELL_ROW_33_801
*15994 TAP_TAPCELL_ROW_33_802
*15995 TAP_TAPCELL_ROW_34_803
*15996 TAP_TAPCELL_ROW_34_804
*15997 TAP_TAPCELL_ROW_34_805
*15998 TAP_TAPCELL_ROW_34_806
*15999 TAP_TAPCELL_ROW_34_807
*16000 TAP_TAPCELL_ROW_34_808
*16001 TAP_TAPCELL_ROW_34_809
*16002 TAP_TAPCELL_ROW_34_810
*16003 TAP_TAPCELL_ROW_34_811
*16004 TAP_TAPCELL_ROW_34_812
*16005 TAP_TAPCELL_ROW_34_813
*16006 TAP_TAPCELL_ROW_34_814
*16007 TAP_TAPCELL_ROW_34_815
*16008 TAP_TAPCELL_ROW_34_816
*16009 TAP_TAPCELL_ROW_34_817
*16010 TAP_TAPCELL_ROW_35_818
*16011 TAP_TAPCELL_ROW_35_819
*16012 TAP_TAPCELL_ROW_35_820
*16013 TAP_TAPCELL_ROW_35_821
*16014 TAP_TAPCELL_ROW_35_822
*16015 TAP_TAPCELL_ROW_35_823
*16016 TAP_TAPCELL_ROW_35_824
*16017 TAP_TAPCELL_ROW_35_825
*16018 TAP_TAPCELL_ROW_35_826
*16019 TAP_TAPCELL_ROW_35_827
*16020 TAP_TAPCELL_ROW_35_828
*16021 TAP_TAPCELL_ROW_35_829
*16022 TAP_TAPCELL_ROW_35_830
*16023 TAP_TAPCELL_ROW_35_831
*16024 TAP_TAPCELL_ROW_35_832
*16025 TAP_TAPCELL_ROW_36_833
*16026 TAP_TAPCELL_ROW_36_834
*16027 TAP_TAPCELL_ROW_36_835
*16028 TAP_TAPCELL_ROW_36_836
*16029 TAP_TAPCELL_ROW_36_837
*16030 TAP_TAPCELL_ROW_36_838
*16031 TAP_TAPCELL_ROW_36_839
*16032 TAP_TAPCELL_ROW_36_840
*16033 TAP_TAPCELL_ROW_36_841
*16034 TAP_TAPCELL_ROW_36_842
*16035 TAP_TAPCELL_ROW_36_843
*16036 TAP_TAPCELL_ROW_36_844
*16037 TAP_TAPCELL_ROW_36_845
*16038 TAP_TAPCELL_ROW_36_846
*16039 TAP_TAPCELL_ROW_36_847
*16040 TAP_TAPCELL_ROW_37_848
*16041 TAP_TAPCELL_ROW_37_849
*16042 TAP_TAPCELL_ROW_37_850
*16043 TAP_TAPCELL_ROW_37_851
*16044 TAP_TAPCELL_ROW_37_852
*16045 TAP_TAPCELL_ROW_37_853
*16046 TAP_TAPCELL_ROW_37_854
*16047 TAP_TAPCELL_ROW_37_855
*16048 TAP_TAPCELL_ROW_37_856
*16049 TAP_TAPCELL_ROW_37_857
*16050 TAP_TAPCELL_ROW_37_858
*16051 TAP_TAPCELL_ROW_37_859
*16052 TAP_TAPCELL_ROW_37_860
*16053 TAP_TAPCELL_ROW_37_861
*16054 TAP_TAPCELL_ROW_37_862
*16055 TAP_TAPCELL_ROW_38_863
*16056 TAP_TAPCELL_ROW_38_864
*16057 TAP_TAPCELL_ROW_38_865
*16058 TAP_TAPCELL_ROW_38_866
*16059 TAP_TAPCELL_ROW_38_867
*16060 TAP_TAPCELL_ROW_38_868
*16061 TAP_TAPCELL_ROW_38_869
*16062 TAP_TAPCELL_ROW_38_870
*16063 TAP_TAPCELL_ROW_38_871
*16064 TAP_TAPCELL_ROW_38_872
*16065 TAP_TAPCELL_ROW_38_873
*16066 TAP_TAPCELL_ROW_38_874
*16067 TAP_TAPCELL_ROW_38_875
*16068 TAP_TAPCELL_ROW_38_876
*16069 TAP_TAPCELL_ROW_38_877
*16070 TAP_TAPCELL_ROW_39_878
*16071 TAP_TAPCELL_ROW_39_879
*16072 TAP_TAPCELL_ROW_39_880
*16073 TAP_TAPCELL_ROW_39_881
*16074 TAP_TAPCELL_ROW_39_882
*16075 TAP_TAPCELL_ROW_39_883
*16076 TAP_TAPCELL_ROW_39_884
*16077 TAP_TAPCELL_ROW_39_885
*16078 TAP_TAPCELL_ROW_39_886
*16079 TAP_TAPCELL_ROW_39_887
*16080 TAP_TAPCELL_ROW_39_888
*16081 TAP_TAPCELL_ROW_39_889
*16082 TAP_TAPCELL_ROW_39_890
*16083 TAP_TAPCELL_ROW_39_891
*16084 TAP_TAPCELL_ROW_39_892
*16085 TAP_TAPCELL_ROW_3_338
*16086 TAP_TAPCELL_ROW_3_339
*16087 TAP_TAPCELL_ROW_3_340
*16088 TAP_TAPCELL_ROW_3_341
*16089 TAP_TAPCELL_ROW_3_342
*16090 TAP_TAPCELL_ROW_3_343
*16091 TAP_TAPCELL_ROW_3_344
*16092 TAP_TAPCELL_ROW_3_345
*16093 TAP_TAPCELL_ROW_3_346
*16094 TAP_TAPCELL_ROW_3_347
*16095 TAP_TAPCELL_ROW_3_348
*16096 TAP_TAPCELL_ROW_3_349
*16097 TAP_TAPCELL_ROW_3_350
*16098 TAP_TAPCELL_ROW_3_351
*16099 TAP_TAPCELL_ROW_3_352
*16100 TAP_TAPCELL_ROW_40_893
*16101 TAP_TAPCELL_ROW_40_894
*16102 TAP_TAPCELL_ROW_40_895
*16103 TAP_TAPCELL_ROW_40_896
*16104 TAP_TAPCELL_ROW_40_897
*16105 TAP_TAPCELL_ROW_40_898
*16106 TAP_TAPCELL_ROW_40_899
*16107 TAP_TAPCELL_ROW_40_900
*16108 TAP_TAPCELL_ROW_40_901
*16109 TAP_TAPCELL_ROW_40_902
*16110 TAP_TAPCELL_ROW_40_903
*16111 TAP_TAPCELL_ROW_40_904
*16112 TAP_TAPCELL_ROW_40_905
*16113 TAP_TAPCELL_ROW_40_906
*16114 TAP_TAPCELL_ROW_40_907
*16115 TAP_TAPCELL_ROW_41_908
*16116 TAP_TAPCELL_ROW_41_909
*16117 TAP_TAPCELL_ROW_41_910
*16118 TAP_TAPCELL_ROW_41_911
*16119 TAP_TAPCELL_ROW_41_912
*16120 TAP_TAPCELL_ROW_41_913
*16121 TAP_TAPCELL_ROW_41_914
*16122 TAP_TAPCELL_ROW_41_915
*16123 TAP_TAPCELL_ROW_41_916
*16124 TAP_TAPCELL_ROW_41_917
*16125 TAP_TAPCELL_ROW_41_918
*16126 TAP_TAPCELL_ROW_41_919
*16127 TAP_TAPCELL_ROW_41_920
*16128 TAP_TAPCELL_ROW_41_921
*16129 TAP_TAPCELL_ROW_41_922
*16130 TAP_TAPCELL_ROW_42_923
*16131 TAP_TAPCELL_ROW_42_924
*16132 TAP_TAPCELL_ROW_42_925
*16133 TAP_TAPCELL_ROW_42_926
*16134 TAP_TAPCELL_ROW_42_927
*16135 TAP_TAPCELL_ROW_42_928
*16136 TAP_TAPCELL_ROW_42_929
*16137 TAP_TAPCELL_ROW_42_930
*16138 TAP_TAPCELL_ROW_42_931
*16139 TAP_TAPCELL_ROW_42_932
*16140 TAP_TAPCELL_ROW_42_933
*16141 TAP_TAPCELL_ROW_42_934
*16142 TAP_TAPCELL_ROW_42_935
*16143 TAP_TAPCELL_ROW_42_936
*16144 TAP_TAPCELL_ROW_42_937
*16145 TAP_TAPCELL_ROW_43_938
*16146 TAP_TAPCELL_ROW_43_939
*16147 TAP_TAPCELL_ROW_43_940
*16148 TAP_TAPCELL_ROW_43_941
*16149 TAP_TAPCELL_ROW_43_942
*16150 TAP_TAPCELL_ROW_43_943
*16151 TAP_TAPCELL_ROW_43_944
*16152 TAP_TAPCELL_ROW_43_945
*16153 TAP_TAPCELL_ROW_43_946
*16154 TAP_TAPCELL_ROW_43_947
*16155 TAP_TAPCELL_ROW_43_948
*16156 TAP_TAPCELL_ROW_43_949
*16157 TAP_TAPCELL_ROW_43_950
*16158 TAP_TAPCELL_ROW_43_951
*16159 TAP_TAPCELL_ROW_43_952
*16160 TAP_TAPCELL_ROW_44_953
*16161 TAP_TAPCELL_ROW_44_954
*16162 TAP_TAPCELL_ROW_44_955
*16163 TAP_TAPCELL_ROW_44_956
*16164 TAP_TAPCELL_ROW_44_957
*16165 TAP_TAPCELL_ROW_44_958
*16166 TAP_TAPCELL_ROW_44_959
*16167 TAP_TAPCELL_ROW_44_960
*16168 TAP_TAPCELL_ROW_44_961
*16169 TAP_TAPCELL_ROW_44_962
*16170 TAP_TAPCELL_ROW_44_963
*16171 TAP_TAPCELL_ROW_44_964
*16172 TAP_TAPCELL_ROW_44_965
*16173 TAP_TAPCELL_ROW_44_966
*16174 TAP_TAPCELL_ROW_44_967
*16175 TAP_TAPCELL_ROW_45_968
*16176 TAP_TAPCELL_ROW_45_969
*16177 TAP_TAPCELL_ROW_45_970
*16178 TAP_TAPCELL_ROW_45_971
*16179 TAP_TAPCELL_ROW_45_972
*16180 TAP_TAPCELL_ROW_45_973
*16181 TAP_TAPCELL_ROW_45_974
*16182 TAP_TAPCELL_ROW_45_975
*16183 TAP_TAPCELL_ROW_45_976
*16184 TAP_TAPCELL_ROW_45_977
*16185 TAP_TAPCELL_ROW_45_978
*16186 TAP_TAPCELL_ROW_45_979
*16187 TAP_TAPCELL_ROW_45_980
*16188 TAP_TAPCELL_ROW_45_981
*16189 TAP_TAPCELL_ROW_45_982
*16190 TAP_TAPCELL_ROW_46_983
*16191 TAP_TAPCELL_ROW_46_984
*16192 TAP_TAPCELL_ROW_46_985
*16193 TAP_TAPCELL_ROW_46_986
*16194 TAP_TAPCELL_ROW_46_987
*16195 TAP_TAPCELL_ROW_46_988
*16196 TAP_TAPCELL_ROW_46_989
*16197 TAP_TAPCELL_ROW_46_990
*16198 TAP_TAPCELL_ROW_46_991
*16199 TAP_TAPCELL_ROW_46_992
*16200 TAP_TAPCELL_ROW_46_993
*16201 TAP_TAPCELL_ROW_46_994
*16202 TAP_TAPCELL_ROW_46_995
*16203 TAP_TAPCELL_ROW_46_996
*16204 TAP_TAPCELL_ROW_46_997
*16205 TAP_TAPCELL_ROW_47_1000
*16206 TAP_TAPCELL_ROW_47_1001
*16207 TAP_TAPCELL_ROW_47_1002
*16208 TAP_TAPCELL_ROW_47_1003
*16209 TAP_TAPCELL_ROW_47_1004
*16210 TAP_TAPCELL_ROW_47_1005
*16211 TAP_TAPCELL_ROW_47_1006
*16212 TAP_TAPCELL_ROW_47_1007
*16213 TAP_TAPCELL_ROW_47_1008
*16214 TAP_TAPCELL_ROW_47_1009
*16215 TAP_TAPCELL_ROW_47_1010
*16216 TAP_TAPCELL_ROW_47_1011
*16217 TAP_TAPCELL_ROW_47_1012
*16218 TAP_TAPCELL_ROW_47_998
*16219 TAP_TAPCELL_ROW_47_999
*16220 TAP_TAPCELL_ROW_48_1013
*16221 TAP_TAPCELL_ROW_48_1014
*16222 TAP_TAPCELL_ROW_48_1015
*16223 TAP_TAPCELL_ROW_48_1016
*16224 TAP_TAPCELL_ROW_48_1017
*16225 TAP_TAPCELL_ROW_48_1018
*16226 TAP_TAPCELL_ROW_48_1019
*16227 TAP_TAPCELL_ROW_48_1020
*16228 TAP_TAPCELL_ROW_48_1021
*16229 TAP_TAPCELL_ROW_48_1022
*16230 TAP_TAPCELL_ROW_48_1023
*16231 TAP_TAPCELL_ROW_48_1024
*16232 TAP_TAPCELL_ROW_48_1025
*16233 TAP_TAPCELL_ROW_48_1026
*16234 TAP_TAPCELL_ROW_48_1027
*16235 TAP_TAPCELL_ROW_49_1028
*16236 TAP_TAPCELL_ROW_49_1029
*16237 TAP_TAPCELL_ROW_49_1030
*16238 TAP_TAPCELL_ROW_49_1031
*16239 TAP_TAPCELL_ROW_49_1032
*16240 TAP_TAPCELL_ROW_49_1033
*16241 TAP_TAPCELL_ROW_49_1034
*16242 TAP_TAPCELL_ROW_49_1035
*16243 TAP_TAPCELL_ROW_49_1036
*16244 TAP_TAPCELL_ROW_49_1037
*16245 TAP_TAPCELL_ROW_49_1038
*16246 TAP_TAPCELL_ROW_49_1039
*16247 TAP_TAPCELL_ROW_49_1040
*16248 TAP_TAPCELL_ROW_49_1041
*16249 TAP_TAPCELL_ROW_49_1042
*16250 TAP_TAPCELL_ROW_4_353
*16251 TAP_TAPCELL_ROW_4_354
*16252 TAP_TAPCELL_ROW_4_355
*16253 TAP_TAPCELL_ROW_4_356
*16254 TAP_TAPCELL_ROW_4_357
*16255 TAP_TAPCELL_ROW_4_358
*16256 TAP_TAPCELL_ROW_4_359
*16257 TAP_TAPCELL_ROW_4_360
*16258 TAP_TAPCELL_ROW_4_361
*16259 TAP_TAPCELL_ROW_4_362
*16260 TAP_TAPCELL_ROW_4_363
*16261 TAP_TAPCELL_ROW_4_364
*16262 TAP_TAPCELL_ROW_4_365
*16263 TAP_TAPCELL_ROW_4_366
*16264 TAP_TAPCELL_ROW_4_367
*16265 TAP_TAPCELL_ROW_50_1043
*16266 TAP_TAPCELL_ROW_50_1044
*16267 TAP_TAPCELL_ROW_50_1045
*16268 TAP_TAPCELL_ROW_50_1046
*16269 TAP_TAPCELL_ROW_50_1047
*16270 TAP_TAPCELL_ROW_50_1048
*16271 TAP_TAPCELL_ROW_50_1049
*16272 TAP_TAPCELL_ROW_50_1050
*16273 TAP_TAPCELL_ROW_50_1051
*16274 TAP_TAPCELL_ROW_50_1052
*16275 TAP_TAPCELL_ROW_50_1053
*16276 TAP_TAPCELL_ROW_50_1054
*16277 TAP_TAPCELL_ROW_50_1055
*16278 TAP_TAPCELL_ROW_50_1056
*16279 TAP_TAPCELL_ROW_50_1057
*16280 TAP_TAPCELL_ROW_51_1058
*16281 TAP_TAPCELL_ROW_51_1059
*16282 TAP_TAPCELL_ROW_51_1060
*16283 TAP_TAPCELL_ROW_51_1061
*16284 TAP_TAPCELL_ROW_51_1062
*16285 TAP_TAPCELL_ROW_51_1063
*16286 TAP_TAPCELL_ROW_51_1064
*16287 TAP_TAPCELL_ROW_51_1065
*16288 TAP_TAPCELL_ROW_51_1066
*16289 TAP_TAPCELL_ROW_51_1067
*16290 TAP_TAPCELL_ROW_51_1068
*16291 TAP_TAPCELL_ROW_51_1069
*16292 TAP_TAPCELL_ROW_51_1070
*16293 TAP_TAPCELL_ROW_51_1071
*16294 TAP_TAPCELL_ROW_51_1072
*16295 TAP_TAPCELL_ROW_52_1073
*16296 TAP_TAPCELL_ROW_52_1074
*16297 TAP_TAPCELL_ROW_52_1075
*16298 TAP_TAPCELL_ROW_52_1076
*16299 TAP_TAPCELL_ROW_52_1077
*16300 TAP_TAPCELL_ROW_52_1078
*16301 TAP_TAPCELL_ROW_52_1079
*16302 TAP_TAPCELL_ROW_52_1080
*16303 TAP_TAPCELL_ROW_52_1081
*16304 TAP_TAPCELL_ROW_52_1082
*16305 TAP_TAPCELL_ROW_52_1083
*16306 TAP_TAPCELL_ROW_52_1084
*16307 TAP_TAPCELL_ROW_52_1085
*16308 TAP_TAPCELL_ROW_52_1086
*16309 TAP_TAPCELL_ROW_52_1087
*16310 TAP_TAPCELL_ROW_53_1088
*16311 TAP_TAPCELL_ROW_53_1089
*16312 TAP_TAPCELL_ROW_53_1090
*16313 TAP_TAPCELL_ROW_53_1091
*16314 TAP_TAPCELL_ROW_53_1092
*16315 TAP_TAPCELL_ROW_53_1093
*16316 TAP_TAPCELL_ROW_53_1094
*16317 TAP_TAPCELL_ROW_53_1095
*16318 TAP_TAPCELL_ROW_53_1096
*16319 TAP_TAPCELL_ROW_53_1097
*16320 TAP_TAPCELL_ROW_53_1098
*16321 TAP_TAPCELL_ROW_53_1099
*16322 TAP_TAPCELL_ROW_53_1100
*16323 TAP_TAPCELL_ROW_53_1101
*16324 TAP_TAPCELL_ROW_53_1102
*16325 TAP_TAPCELL_ROW_54_1103
*16326 TAP_TAPCELL_ROW_54_1104
*16327 TAP_TAPCELL_ROW_54_1105
*16328 TAP_TAPCELL_ROW_54_1106
*16329 TAP_TAPCELL_ROW_54_1107
*16330 TAP_TAPCELL_ROW_54_1108
*16331 TAP_TAPCELL_ROW_54_1109
*16332 TAP_TAPCELL_ROW_54_1110
*16333 TAP_TAPCELL_ROW_54_1111
*16334 TAP_TAPCELL_ROW_54_1112
*16335 TAP_TAPCELL_ROW_54_1113
*16336 TAP_TAPCELL_ROW_54_1114
*16337 TAP_TAPCELL_ROW_54_1115
*16338 TAP_TAPCELL_ROW_54_1116
*16339 TAP_TAPCELL_ROW_54_1117
*16340 TAP_TAPCELL_ROW_55_1118
*16341 TAP_TAPCELL_ROW_55_1119
*16342 TAP_TAPCELL_ROW_55_1120
*16343 TAP_TAPCELL_ROW_55_1121
*16344 TAP_TAPCELL_ROW_55_1122
*16345 TAP_TAPCELL_ROW_55_1123
*16346 TAP_TAPCELL_ROW_55_1124
*16347 TAP_TAPCELL_ROW_55_1125
*16348 TAP_TAPCELL_ROW_55_1126
*16349 TAP_TAPCELL_ROW_55_1127
*16350 TAP_TAPCELL_ROW_55_1128
*16351 TAP_TAPCELL_ROW_55_1129
*16352 TAP_TAPCELL_ROW_55_1130
*16353 TAP_TAPCELL_ROW_55_1131
*16354 TAP_TAPCELL_ROW_55_1132
*16355 TAP_TAPCELL_ROW_56_1133
*16356 TAP_TAPCELL_ROW_56_1134
*16357 TAP_TAPCELL_ROW_56_1135
*16358 TAP_TAPCELL_ROW_56_1136
*16359 TAP_TAPCELL_ROW_56_1137
*16360 TAP_TAPCELL_ROW_56_1138
*16361 TAP_TAPCELL_ROW_56_1139
*16362 TAP_TAPCELL_ROW_56_1140
*16363 TAP_TAPCELL_ROW_56_1141
*16364 TAP_TAPCELL_ROW_56_1142
*16365 TAP_TAPCELL_ROW_56_1143
*16366 TAP_TAPCELL_ROW_56_1144
*16367 TAP_TAPCELL_ROW_56_1145
*16368 TAP_TAPCELL_ROW_56_1146
*16369 TAP_TAPCELL_ROW_56_1147
*16370 TAP_TAPCELL_ROW_57_1148
*16371 TAP_TAPCELL_ROW_57_1149
*16372 TAP_TAPCELL_ROW_57_1150
*16373 TAP_TAPCELL_ROW_57_1151
*16374 TAP_TAPCELL_ROW_57_1152
*16375 TAP_TAPCELL_ROW_57_1153
*16376 TAP_TAPCELL_ROW_57_1154
*16377 TAP_TAPCELL_ROW_57_1155
*16378 TAP_TAPCELL_ROW_57_1156
*16379 TAP_TAPCELL_ROW_57_1157
*16380 TAP_TAPCELL_ROW_57_1158
*16381 TAP_TAPCELL_ROW_57_1159
*16382 TAP_TAPCELL_ROW_57_1160
*16383 TAP_TAPCELL_ROW_57_1161
*16384 TAP_TAPCELL_ROW_57_1162
*16385 TAP_TAPCELL_ROW_58_1163
*16386 TAP_TAPCELL_ROW_58_1164
*16387 TAP_TAPCELL_ROW_58_1165
*16388 TAP_TAPCELL_ROW_58_1166
*16389 TAP_TAPCELL_ROW_58_1167
*16390 TAP_TAPCELL_ROW_58_1168
*16391 TAP_TAPCELL_ROW_58_1169
*16392 TAP_TAPCELL_ROW_58_1170
*16393 TAP_TAPCELL_ROW_58_1171
*16394 TAP_TAPCELL_ROW_58_1172
*16395 TAP_TAPCELL_ROW_58_1173
*16396 TAP_TAPCELL_ROW_58_1174
*16397 TAP_TAPCELL_ROW_58_1175
*16398 TAP_TAPCELL_ROW_58_1176
*16399 TAP_TAPCELL_ROW_58_1177
*16400 TAP_TAPCELL_ROW_59_1178
*16401 TAP_TAPCELL_ROW_59_1179
*16402 TAP_TAPCELL_ROW_59_1180
*16403 TAP_TAPCELL_ROW_59_1181
*16404 TAP_TAPCELL_ROW_59_1182
*16405 TAP_TAPCELL_ROW_59_1183
*16406 TAP_TAPCELL_ROW_59_1184
*16407 TAP_TAPCELL_ROW_59_1185
*16408 TAP_TAPCELL_ROW_59_1186
*16409 TAP_TAPCELL_ROW_59_1187
*16410 TAP_TAPCELL_ROW_59_1188
*16411 TAP_TAPCELL_ROW_59_1189
*16412 TAP_TAPCELL_ROW_59_1190
*16413 TAP_TAPCELL_ROW_59_1191
*16414 TAP_TAPCELL_ROW_59_1192
*16415 TAP_TAPCELL_ROW_5_368
*16416 TAP_TAPCELL_ROW_5_369
*16417 TAP_TAPCELL_ROW_5_370
*16418 TAP_TAPCELL_ROW_5_371
*16419 TAP_TAPCELL_ROW_5_372
*16420 TAP_TAPCELL_ROW_5_373
*16421 TAP_TAPCELL_ROW_5_374
*16422 TAP_TAPCELL_ROW_5_375
*16423 TAP_TAPCELL_ROW_5_376
*16424 TAP_TAPCELL_ROW_5_377
*16425 TAP_TAPCELL_ROW_5_378
*16426 TAP_TAPCELL_ROW_5_379
*16427 TAP_TAPCELL_ROW_5_380
*16428 TAP_TAPCELL_ROW_5_381
*16429 TAP_TAPCELL_ROW_5_382
*16430 TAP_TAPCELL_ROW_60_1193
*16431 TAP_TAPCELL_ROW_60_1194
*16432 TAP_TAPCELL_ROW_60_1195
*16433 TAP_TAPCELL_ROW_60_1196
*16434 TAP_TAPCELL_ROW_60_1197
*16435 TAP_TAPCELL_ROW_60_1198
*16436 TAP_TAPCELL_ROW_60_1199
*16437 TAP_TAPCELL_ROW_60_1200
*16438 TAP_TAPCELL_ROW_60_1201
*16439 TAP_TAPCELL_ROW_60_1202
*16440 TAP_TAPCELL_ROW_60_1203
*16441 TAP_TAPCELL_ROW_60_1204
*16442 TAP_TAPCELL_ROW_60_1205
*16443 TAP_TAPCELL_ROW_60_1206
*16444 TAP_TAPCELL_ROW_60_1207
*16445 TAP_TAPCELL_ROW_61_1208
*16446 TAP_TAPCELL_ROW_61_1209
*16447 TAP_TAPCELL_ROW_61_1210
*16448 TAP_TAPCELL_ROW_61_1211
*16449 TAP_TAPCELL_ROW_61_1212
*16450 TAP_TAPCELL_ROW_61_1213
*16451 TAP_TAPCELL_ROW_61_1214
*16452 TAP_TAPCELL_ROW_61_1215
*16453 TAP_TAPCELL_ROW_61_1216
*16454 TAP_TAPCELL_ROW_61_1217
*16455 TAP_TAPCELL_ROW_61_1218
*16456 TAP_TAPCELL_ROW_61_1219
*16457 TAP_TAPCELL_ROW_61_1220
*16458 TAP_TAPCELL_ROW_61_1221
*16459 TAP_TAPCELL_ROW_61_1222
*16460 TAP_TAPCELL_ROW_62_1223
*16461 TAP_TAPCELL_ROW_62_1224
*16462 TAP_TAPCELL_ROW_62_1225
*16463 TAP_TAPCELL_ROW_62_1226
*16464 TAP_TAPCELL_ROW_62_1227
*16465 TAP_TAPCELL_ROW_62_1228
*16466 TAP_TAPCELL_ROW_62_1229
*16467 TAP_TAPCELL_ROW_62_1230
*16468 TAP_TAPCELL_ROW_62_1231
*16469 TAP_TAPCELL_ROW_62_1232
*16470 TAP_TAPCELL_ROW_62_1233
*16471 TAP_TAPCELL_ROW_62_1234
*16472 TAP_TAPCELL_ROW_62_1235
*16473 TAP_TAPCELL_ROW_62_1236
*16474 TAP_TAPCELL_ROW_62_1237
*16475 TAP_TAPCELL_ROW_63_1238
*16476 TAP_TAPCELL_ROW_63_1239
*16477 TAP_TAPCELL_ROW_63_1240
*16478 TAP_TAPCELL_ROW_63_1241
*16479 TAP_TAPCELL_ROW_63_1242
*16480 TAP_TAPCELL_ROW_63_1243
*16481 TAP_TAPCELL_ROW_63_1244
*16482 TAP_TAPCELL_ROW_63_1245
*16483 TAP_TAPCELL_ROW_63_1246
*16484 TAP_TAPCELL_ROW_63_1247
*16485 TAP_TAPCELL_ROW_63_1248
*16486 TAP_TAPCELL_ROW_63_1249
*16487 TAP_TAPCELL_ROW_63_1250
*16488 TAP_TAPCELL_ROW_63_1251
*16489 TAP_TAPCELL_ROW_63_1252
*16490 TAP_TAPCELL_ROW_64_1253
*16491 TAP_TAPCELL_ROW_64_1254
*16492 TAP_TAPCELL_ROW_64_1255
*16493 TAP_TAPCELL_ROW_64_1256
*16494 TAP_TAPCELL_ROW_64_1257
*16495 TAP_TAPCELL_ROW_64_1258
*16496 TAP_TAPCELL_ROW_64_1259
*16497 TAP_TAPCELL_ROW_64_1260
*16498 TAP_TAPCELL_ROW_64_1261
*16499 TAP_TAPCELL_ROW_64_1262
*16500 TAP_TAPCELL_ROW_64_1263
*16501 TAP_TAPCELL_ROW_64_1264
*16502 TAP_TAPCELL_ROW_64_1265
*16503 TAP_TAPCELL_ROW_64_1266
*16504 TAP_TAPCELL_ROW_64_1267
*16505 TAP_TAPCELL_ROW_65_1268
*16506 TAP_TAPCELL_ROW_65_1269
*16507 TAP_TAPCELL_ROW_65_1270
*16508 TAP_TAPCELL_ROW_65_1271
*16509 TAP_TAPCELL_ROW_65_1272
*16510 TAP_TAPCELL_ROW_65_1273
*16511 TAP_TAPCELL_ROW_65_1274
*16512 TAP_TAPCELL_ROW_65_1275
*16513 TAP_TAPCELL_ROW_65_1276
*16514 TAP_TAPCELL_ROW_65_1277
*16515 TAP_TAPCELL_ROW_65_1278
*16516 TAP_TAPCELL_ROW_65_1279
*16517 TAP_TAPCELL_ROW_65_1280
*16518 TAP_TAPCELL_ROW_65_1281
*16519 TAP_TAPCELL_ROW_65_1282
*16520 TAP_TAPCELL_ROW_66_1283
*16521 TAP_TAPCELL_ROW_66_1284
*16522 TAP_TAPCELL_ROW_66_1285
*16523 TAP_TAPCELL_ROW_66_1286
*16524 TAP_TAPCELL_ROW_66_1287
*16525 TAP_TAPCELL_ROW_66_1288
*16526 TAP_TAPCELL_ROW_66_1289
*16527 TAP_TAPCELL_ROW_66_1290
*16528 TAP_TAPCELL_ROW_66_1291
*16529 TAP_TAPCELL_ROW_66_1292
*16530 TAP_TAPCELL_ROW_66_1293
*16531 TAP_TAPCELL_ROW_66_1294
*16532 TAP_TAPCELL_ROW_66_1295
*16533 TAP_TAPCELL_ROW_66_1296
*16534 TAP_TAPCELL_ROW_66_1297
*16535 TAP_TAPCELL_ROW_67_1298
*16536 TAP_TAPCELL_ROW_67_1299
*16537 TAP_TAPCELL_ROW_67_1300
*16538 TAP_TAPCELL_ROW_67_1301
*16539 TAP_TAPCELL_ROW_67_1302
*16540 TAP_TAPCELL_ROW_67_1303
*16541 TAP_TAPCELL_ROW_67_1304
*16542 TAP_TAPCELL_ROW_67_1305
*16543 TAP_TAPCELL_ROW_67_1306
*16544 TAP_TAPCELL_ROW_67_1307
*16545 TAP_TAPCELL_ROW_67_1308
*16546 TAP_TAPCELL_ROW_67_1309
*16547 TAP_TAPCELL_ROW_67_1310
*16548 TAP_TAPCELL_ROW_67_1311
*16549 TAP_TAPCELL_ROW_67_1312
*16550 TAP_TAPCELL_ROW_68_1313
*16551 TAP_TAPCELL_ROW_68_1314
*16552 TAP_TAPCELL_ROW_68_1315
*16553 TAP_TAPCELL_ROW_68_1316
*16554 TAP_TAPCELL_ROW_68_1317
*16555 TAP_TAPCELL_ROW_68_1318
*16556 TAP_TAPCELL_ROW_68_1319
*16557 TAP_TAPCELL_ROW_68_1320
*16558 TAP_TAPCELL_ROW_68_1321
*16559 TAP_TAPCELL_ROW_68_1322
*16560 TAP_TAPCELL_ROW_68_1323
*16561 TAP_TAPCELL_ROW_68_1324
*16562 TAP_TAPCELL_ROW_68_1325
*16563 TAP_TAPCELL_ROW_68_1326
*16564 TAP_TAPCELL_ROW_68_1327
*16565 TAP_TAPCELL_ROW_69_1328
*16566 TAP_TAPCELL_ROW_69_1329
*16567 TAP_TAPCELL_ROW_69_1330
*16568 TAP_TAPCELL_ROW_69_1331
*16569 TAP_TAPCELL_ROW_69_1332
*16570 TAP_TAPCELL_ROW_69_1333
*16571 TAP_TAPCELL_ROW_69_1334
*16572 TAP_TAPCELL_ROW_69_1335
*16573 TAP_TAPCELL_ROW_69_1336
*16574 TAP_TAPCELL_ROW_69_1337
*16575 TAP_TAPCELL_ROW_69_1338
*16576 TAP_TAPCELL_ROW_69_1339
*16577 TAP_TAPCELL_ROW_69_1340
*16578 TAP_TAPCELL_ROW_69_1341
*16579 TAP_TAPCELL_ROW_69_1342
*16580 TAP_TAPCELL_ROW_6_383
*16581 TAP_TAPCELL_ROW_6_384
*16582 TAP_TAPCELL_ROW_6_385
*16583 TAP_TAPCELL_ROW_6_386
*16584 TAP_TAPCELL_ROW_6_387
*16585 TAP_TAPCELL_ROW_6_388
*16586 TAP_TAPCELL_ROW_6_389
*16587 TAP_TAPCELL_ROW_6_390
*16588 TAP_TAPCELL_ROW_6_391
*16589 TAP_TAPCELL_ROW_6_392
*16590 TAP_TAPCELL_ROW_6_393
*16591 TAP_TAPCELL_ROW_6_394
*16592 TAP_TAPCELL_ROW_6_395
*16593 TAP_TAPCELL_ROW_6_396
*16594 TAP_TAPCELL_ROW_6_397
*16595 TAP_TAPCELL_ROW_70_1343
*16596 TAP_TAPCELL_ROW_70_1344
*16597 TAP_TAPCELL_ROW_70_1345
*16598 TAP_TAPCELL_ROW_70_1346
*16599 TAP_TAPCELL_ROW_70_1347
*16600 TAP_TAPCELL_ROW_70_1348
*16601 TAP_TAPCELL_ROW_70_1349
*16602 TAP_TAPCELL_ROW_70_1350
*16603 TAP_TAPCELL_ROW_70_1351
*16604 TAP_TAPCELL_ROW_70_1352
*16605 TAP_TAPCELL_ROW_70_1353
*16606 TAP_TAPCELL_ROW_70_1354
*16607 TAP_TAPCELL_ROW_70_1355
*16608 TAP_TAPCELL_ROW_70_1356
*16609 TAP_TAPCELL_ROW_70_1357
*16610 TAP_TAPCELL_ROW_71_1358
*16611 TAP_TAPCELL_ROW_71_1359
*16612 TAP_TAPCELL_ROW_71_1360
*16613 TAP_TAPCELL_ROW_71_1361
*16614 TAP_TAPCELL_ROW_71_1362
*16615 TAP_TAPCELL_ROW_71_1363
*16616 TAP_TAPCELL_ROW_71_1364
*16617 TAP_TAPCELL_ROW_71_1365
*16618 TAP_TAPCELL_ROW_71_1366
*16619 TAP_TAPCELL_ROW_71_1367
*16620 TAP_TAPCELL_ROW_71_1368
*16621 TAP_TAPCELL_ROW_71_1369
*16622 TAP_TAPCELL_ROW_71_1370
*16623 TAP_TAPCELL_ROW_71_1371
*16624 TAP_TAPCELL_ROW_71_1372
*16625 TAP_TAPCELL_ROW_72_1373
*16626 TAP_TAPCELL_ROW_72_1374
*16627 TAP_TAPCELL_ROW_72_1375
*16628 TAP_TAPCELL_ROW_72_1376
*16629 TAP_TAPCELL_ROW_72_1377
*16630 TAP_TAPCELL_ROW_72_1378
*16631 TAP_TAPCELL_ROW_72_1379
*16632 TAP_TAPCELL_ROW_72_1380
*16633 TAP_TAPCELL_ROW_72_1381
*16634 TAP_TAPCELL_ROW_72_1382
*16635 TAP_TAPCELL_ROW_72_1383
*16636 TAP_TAPCELL_ROW_72_1384
*16637 TAP_TAPCELL_ROW_72_1385
*16638 TAP_TAPCELL_ROW_72_1386
*16639 TAP_TAPCELL_ROW_72_1387
*16640 TAP_TAPCELL_ROW_73_1388
*16641 TAP_TAPCELL_ROW_73_1389
*16642 TAP_TAPCELL_ROW_73_1390
*16643 TAP_TAPCELL_ROW_73_1391
*16644 TAP_TAPCELL_ROW_73_1392
*16645 TAP_TAPCELL_ROW_73_1393
*16646 TAP_TAPCELL_ROW_73_1394
*16647 TAP_TAPCELL_ROW_73_1395
*16648 TAP_TAPCELL_ROW_73_1396
*16649 TAP_TAPCELL_ROW_73_1397
*16650 TAP_TAPCELL_ROW_73_1398
*16651 TAP_TAPCELL_ROW_73_1399
*16652 TAP_TAPCELL_ROW_73_1400
*16653 TAP_TAPCELL_ROW_73_1401
*16654 TAP_TAPCELL_ROW_73_1402
*16655 TAP_TAPCELL_ROW_74_1403
*16656 TAP_TAPCELL_ROW_74_1404
*16657 TAP_TAPCELL_ROW_74_1405
*16658 TAP_TAPCELL_ROW_74_1406
*16659 TAP_TAPCELL_ROW_74_1407
*16660 TAP_TAPCELL_ROW_74_1408
*16661 TAP_TAPCELL_ROW_74_1409
*16662 TAP_TAPCELL_ROW_74_1410
*16663 TAP_TAPCELL_ROW_74_1411
*16664 TAP_TAPCELL_ROW_74_1412
*16665 TAP_TAPCELL_ROW_74_1413
*16666 TAP_TAPCELL_ROW_74_1414
*16667 TAP_TAPCELL_ROW_74_1415
*16668 TAP_TAPCELL_ROW_74_1416
*16669 TAP_TAPCELL_ROW_74_1417
*16670 TAP_TAPCELL_ROW_75_1418
*16671 TAP_TAPCELL_ROW_75_1419
*16672 TAP_TAPCELL_ROW_75_1420
*16673 TAP_TAPCELL_ROW_75_1421
*16674 TAP_TAPCELL_ROW_75_1422
*16675 TAP_TAPCELL_ROW_75_1423
*16676 TAP_TAPCELL_ROW_75_1424
*16677 TAP_TAPCELL_ROW_75_1425
*16678 TAP_TAPCELL_ROW_75_1426
*16679 TAP_TAPCELL_ROW_75_1427
*16680 TAP_TAPCELL_ROW_75_1428
*16681 TAP_TAPCELL_ROW_75_1429
*16682 TAP_TAPCELL_ROW_75_1430
*16683 TAP_TAPCELL_ROW_75_1431
*16684 TAP_TAPCELL_ROW_75_1432
*16685 TAP_TAPCELL_ROW_76_1433
*16686 TAP_TAPCELL_ROW_76_1434
*16687 TAP_TAPCELL_ROW_76_1435
*16688 TAP_TAPCELL_ROW_76_1436
*16689 TAP_TAPCELL_ROW_76_1437
*16690 TAP_TAPCELL_ROW_76_1438
*16691 TAP_TAPCELL_ROW_76_1439
*16692 TAP_TAPCELL_ROW_76_1440
*16693 TAP_TAPCELL_ROW_76_1441
*16694 TAP_TAPCELL_ROW_76_1442
*16695 TAP_TAPCELL_ROW_76_1443
*16696 TAP_TAPCELL_ROW_76_1444
*16697 TAP_TAPCELL_ROW_76_1445
*16698 TAP_TAPCELL_ROW_76_1446
*16699 TAP_TAPCELL_ROW_76_1447
*16700 TAP_TAPCELL_ROW_77_1448
*16701 TAP_TAPCELL_ROW_77_1449
*16702 TAP_TAPCELL_ROW_77_1450
*16703 TAP_TAPCELL_ROW_77_1451
*16704 TAP_TAPCELL_ROW_77_1452
*16705 TAP_TAPCELL_ROW_77_1453
*16706 TAP_TAPCELL_ROW_77_1454
*16707 TAP_TAPCELL_ROW_77_1455
*16708 TAP_TAPCELL_ROW_77_1456
*16709 TAP_TAPCELL_ROW_77_1457
*16710 TAP_TAPCELL_ROW_77_1458
*16711 TAP_TAPCELL_ROW_77_1459
*16712 TAP_TAPCELL_ROW_77_1460
*16713 TAP_TAPCELL_ROW_77_1461
*16714 TAP_TAPCELL_ROW_77_1462
*16715 TAP_TAPCELL_ROW_78_1463
*16716 TAP_TAPCELL_ROW_78_1464
*16717 TAP_TAPCELL_ROW_78_1465
*16718 TAP_TAPCELL_ROW_78_1466
*16719 TAP_TAPCELL_ROW_78_1467
*16720 TAP_TAPCELL_ROW_78_1468
*16721 TAP_TAPCELL_ROW_78_1469
*16722 TAP_TAPCELL_ROW_78_1470
*16723 TAP_TAPCELL_ROW_78_1471
*16724 TAP_TAPCELL_ROW_78_1472
*16725 TAP_TAPCELL_ROW_78_1473
*16726 TAP_TAPCELL_ROW_78_1474
*16727 TAP_TAPCELL_ROW_78_1475
*16728 TAP_TAPCELL_ROW_78_1476
*16729 TAP_TAPCELL_ROW_78_1477
*16730 TAP_TAPCELL_ROW_79_1478
*16731 TAP_TAPCELL_ROW_79_1479
*16732 TAP_TAPCELL_ROW_79_1480
*16733 TAP_TAPCELL_ROW_79_1481
*16734 TAP_TAPCELL_ROW_79_1482
*16735 TAP_TAPCELL_ROW_79_1483
*16736 TAP_TAPCELL_ROW_79_1484
*16737 TAP_TAPCELL_ROW_79_1485
*16738 TAP_TAPCELL_ROW_79_1486
*16739 TAP_TAPCELL_ROW_79_1487
*16740 TAP_TAPCELL_ROW_79_1488
*16741 TAP_TAPCELL_ROW_79_1489
*16742 TAP_TAPCELL_ROW_79_1490
*16743 TAP_TAPCELL_ROW_79_1491
*16744 TAP_TAPCELL_ROW_79_1492
*16745 TAP_TAPCELL_ROW_7_398
*16746 TAP_TAPCELL_ROW_7_399
*16747 TAP_TAPCELL_ROW_7_400
*16748 TAP_TAPCELL_ROW_7_401
*16749 TAP_TAPCELL_ROW_7_402
*16750 TAP_TAPCELL_ROW_7_403
*16751 TAP_TAPCELL_ROW_7_404
*16752 TAP_TAPCELL_ROW_7_405
*16753 TAP_TAPCELL_ROW_7_406
*16754 TAP_TAPCELL_ROW_7_407
*16755 TAP_TAPCELL_ROW_7_408
*16756 TAP_TAPCELL_ROW_7_409
*16757 TAP_TAPCELL_ROW_7_410
*16758 TAP_TAPCELL_ROW_7_411
*16759 TAP_TAPCELL_ROW_7_412
*16760 TAP_TAPCELL_ROW_80_1493
*16761 TAP_TAPCELL_ROW_80_1494
*16762 TAP_TAPCELL_ROW_80_1495
*16763 TAP_TAPCELL_ROW_80_1496
*16764 TAP_TAPCELL_ROW_80_1497
*16765 TAP_TAPCELL_ROW_80_1498
*16766 TAP_TAPCELL_ROW_80_1499
*16767 TAP_TAPCELL_ROW_80_1500
*16768 TAP_TAPCELL_ROW_80_1501
*16769 TAP_TAPCELL_ROW_80_1502
*16770 TAP_TAPCELL_ROW_80_1503
*16771 TAP_TAPCELL_ROW_80_1504
*16772 TAP_TAPCELL_ROW_80_1505
*16773 TAP_TAPCELL_ROW_80_1506
*16774 TAP_TAPCELL_ROW_80_1507
*16775 TAP_TAPCELL_ROW_81_1508
*16776 TAP_TAPCELL_ROW_81_1509
*16777 TAP_TAPCELL_ROW_81_1510
*16778 TAP_TAPCELL_ROW_81_1511
*16779 TAP_TAPCELL_ROW_81_1512
*16780 TAP_TAPCELL_ROW_81_1513
*16781 TAP_TAPCELL_ROW_81_1514
*16782 TAP_TAPCELL_ROW_81_1515
*16783 TAP_TAPCELL_ROW_81_1516
*16784 TAP_TAPCELL_ROW_81_1517
*16785 TAP_TAPCELL_ROW_81_1518
*16786 TAP_TAPCELL_ROW_81_1519
*16787 TAP_TAPCELL_ROW_81_1520
*16788 TAP_TAPCELL_ROW_81_1521
*16789 TAP_TAPCELL_ROW_81_1522
*16790 TAP_TAPCELL_ROW_82_1523
*16791 TAP_TAPCELL_ROW_82_1524
*16792 TAP_TAPCELL_ROW_82_1525
*16793 TAP_TAPCELL_ROW_82_1526
*16794 TAP_TAPCELL_ROW_82_1527
*16795 TAP_TAPCELL_ROW_82_1528
*16796 TAP_TAPCELL_ROW_82_1529
*16797 TAP_TAPCELL_ROW_82_1530
*16798 TAP_TAPCELL_ROW_82_1531
*16799 TAP_TAPCELL_ROW_82_1532
*16800 TAP_TAPCELL_ROW_82_1533
*16801 TAP_TAPCELL_ROW_82_1534
*16802 TAP_TAPCELL_ROW_82_1535
*16803 TAP_TAPCELL_ROW_82_1536
*16804 TAP_TAPCELL_ROW_82_1537
*16805 TAP_TAPCELL_ROW_83_1538
*16806 TAP_TAPCELL_ROW_83_1539
*16807 TAP_TAPCELL_ROW_83_1540
*16808 TAP_TAPCELL_ROW_83_1541
*16809 TAP_TAPCELL_ROW_83_1542
*16810 TAP_TAPCELL_ROW_83_1543
*16811 TAP_TAPCELL_ROW_83_1544
*16812 TAP_TAPCELL_ROW_83_1545
*16813 TAP_TAPCELL_ROW_83_1546
*16814 TAP_TAPCELL_ROW_83_1547
*16815 TAP_TAPCELL_ROW_83_1548
*16816 TAP_TAPCELL_ROW_83_1549
*16817 TAP_TAPCELL_ROW_83_1550
*16818 TAP_TAPCELL_ROW_83_1551
*16819 TAP_TAPCELL_ROW_83_1552
*16820 TAP_TAPCELL_ROW_84_1553
*16821 TAP_TAPCELL_ROW_84_1554
*16822 TAP_TAPCELL_ROW_84_1555
*16823 TAP_TAPCELL_ROW_84_1556
*16824 TAP_TAPCELL_ROW_84_1557
*16825 TAP_TAPCELL_ROW_84_1558
*16826 TAP_TAPCELL_ROW_84_1559
*16827 TAP_TAPCELL_ROW_84_1560
*16828 TAP_TAPCELL_ROW_84_1561
*16829 TAP_TAPCELL_ROW_84_1562
*16830 TAP_TAPCELL_ROW_84_1563
*16831 TAP_TAPCELL_ROW_84_1564
*16832 TAP_TAPCELL_ROW_84_1565
*16833 TAP_TAPCELL_ROW_84_1566
*16834 TAP_TAPCELL_ROW_84_1567
*16835 TAP_TAPCELL_ROW_85_1568
*16836 TAP_TAPCELL_ROW_85_1569
*16837 TAP_TAPCELL_ROW_85_1570
*16838 TAP_TAPCELL_ROW_85_1571
*16839 TAP_TAPCELL_ROW_85_1572
*16840 TAP_TAPCELL_ROW_85_1573
*16841 TAP_TAPCELL_ROW_85_1574
*16842 TAP_TAPCELL_ROW_85_1575
*16843 TAP_TAPCELL_ROW_85_1576
*16844 TAP_TAPCELL_ROW_85_1577
*16845 TAP_TAPCELL_ROW_85_1578
*16846 TAP_TAPCELL_ROW_85_1579
*16847 TAP_TAPCELL_ROW_85_1580
*16848 TAP_TAPCELL_ROW_85_1581
*16849 TAP_TAPCELL_ROW_85_1582
*16850 TAP_TAPCELL_ROW_86_1583
*16851 TAP_TAPCELL_ROW_86_1584
*16852 TAP_TAPCELL_ROW_86_1585
*16853 TAP_TAPCELL_ROW_86_1586
*16854 TAP_TAPCELL_ROW_86_1587
*16855 TAP_TAPCELL_ROW_86_1588
*16856 TAP_TAPCELL_ROW_86_1589
*16857 TAP_TAPCELL_ROW_86_1590
*16858 TAP_TAPCELL_ROW_86_1591
*16859 TAP_TAPCELL_ROW_86_1592
*16860 TAP_TAPCELL_ROW_86_1593
*16861 TAP_TAPCELL_ROW_86_1594
*16862 TAP_TAPCELL_ROW_86_1595
*16863 TAP_TAPCELL_ROW_86_1596
*16864 TAP_TAPCELL_ROW_86_1597
*16865 TAP_TAPCELL_ROW_87_1598
*16866 TAP_TAPCELL_ROW_87_1599
*16867 TAP_TAPCELL_ROW_87_1600
*16868 TAP_TAPCELL_ROW_87_1601
*16869 TAP_TAPCELL_ROW_87_1602
*16870 TAP_TAPCELL_ROW_87_1603
*16871 TAP_TAPCELL_ROW_87_1604
*16872 TAP_TAPCELL_ROW_87_1605
*16873 TAP_TAPCELL_ROW_87_1606
*16874 TAP_TAPCELL_ROW_87_1607
*16875 TAP_TAPCELL_ROW_87_1608
*16876 TAP_TAPCELL_ROW_87_1609
*16877 TAP_TAPCELL_ROW_87_1610
*16878 TAP_TAPCELL_ROW_87_1611
*16879 TAP_TAPCELL_ROW_87_1612
*16880 TAP_TAPCELL_ROW_88_1613
*16881 TAP_TAPCELL_ROW_88_1614
*16882 TAP_TAPCELL_ROW_88_1615
*16883 TAP_TAPCELL_ROW_88_1616
*16884 TAP_TAPCELL_ROW_88_1617
*16885 TAP_TAPCELL_ROW_88_1618
*16886 TAP_TAPCELL_ROW_88_1619
*16887 TAP_TAPCELL_ROW_88_1620
*16888 TAP_TAPCELL_ROW_88_1621
*16889 TAP_TAPCELL_ROW_88_1622
*16890 TAP_TAPCELL_ROW_88_1623
*16891 TAP_TAPCELL_ROW_88_1624
*16892 TAP_TAPCELL_ROW_88_1625
*16893 TAP_TAPCELL_ROW_88_1626
*16894 TAP_TAPCELL_ROW_88_1627
*16895 TAP_TAPCELL_ROW_89_1628
*16896 TAP_TAPCELL_ROW_89_1629
*16897 TAP_TAPCELL_ROW_89_1630
*16898 TAP_TAPCELL_ROW_89_1631
*16899 TAP_TAPCELL_ROW_89_1632
*16900 TAP_TAPCELL_ROW_89_1633
*16901 TAP_TAPCELL_ROW_89_1634
*16902 TAP_TAPCELL_ROW_89_1635
*16903 TAP_TAPCELL_ROW_89_1636
*16904 TAP_TAPCELL_ROW_89_1637
*16905 TAP_TAPCELL_ROW_89_1638
*16906 TAP_TAPCELL_ROW_89_1639
*16907 TAP_TAPCELL_ROW_89_1640
*16908 TAP_TAPCELL_ROW_89_1641
*16909 TAP_TAPCELL_ROW_89_1642
*16910 TAP_TAPCELL_ROW_8_413
*16911 TAP_TAPCELL_ROW_8_414
*16912 TAP_TAPCELL_ROW_8_415
*16913 TAP_TAPCELL_ROW_8_416
*16914 TAP_TAPCELL_ROW_8_417
*16915 TAP_TAPCELL_ROW_8_418
*16916 TAP_TAPCELL_ROW_8_419
*16917 TAP_TAPCELL_ROW_8_420
*16918 TAP_TAPCELL_ROW_8_421
*16919 TAP_TAPCELL_ROW_8_422
*16920 TAP_TAPCELL_ROW_8_423
*16921 TAP_TAPCELL_ROW_8_424
*16922 TAP_TAPCELL_ROW_8_425
*16923 TAP_TAPCELL_ROW_8_426
*16924 TAP_TAPCELL_ROW_8_427
*16925 TAP_TAPCELL_ROW_90_1643
*16926 TAP_TAPCELL_ROW_90_1644
*16927 TAP_TAPCELL_ROW_90_1645
*16928 TAP_TAPCELL_ROW_90_1646
*16929 TAP_TAPCELL_ROW_90_1647
*16930 TAP_TAPCELL_ROW_90_1648
*16931 TAP_TAPCELL_ROW_90_1649
*16932 TAP_TAPCELL_ROW_90_1650
*16933 TAP_TAPCELL_ROW_90_1651
*16934 TAP_TAPCELL_ROW_90_1652
*16935 TAP_TAPCELL_ROW_90_1653
*16936 TAP_TAPCELL_ROW_90_1654
*16937 TAP_TAPCELL_ROW_90_1655
*16938 TAP_TAPCELL_ROW_90_1656
*16939 TAP_TAPCELL_ROW_90_1657
*16940 TAP_TAPCELL_ROW_91_1658
*16941 TAP_TAPCELL_ROW_91_1659
*16942 TAP_TAPCELL_ROW_91_1660
*16943 TAP_TAPCELL_ROW_91_1661
*16944 TAP_TAPCELL_ROW_91_1662
*16945 TAP_TAPCELL_ROW_91_1663
*16946 TAP_TAPCELL_ROW_91_1664
*16947 TAP_TAPCELL_ROW_91_1665
*16948 TAP_TAPCELL_ROW_91_1666
*16949 TAP_TAPCELL_ROW_91_1667
*16950 TAP_TAPCELL_ROW_91_1668
*16951 TAP_TAPCELL_ROW_91_1669
*16952 TAP_TAPCELL_ROW_91_1670
*16953 TAP_TAPCELL_ROW_91_1671
*16954 TAP_TAPCELL_ROW_91_1672
*16955 TAP_TAPCELL_ROW_92_1673
*16956 TAP_TAPCELL_ROW_92_1674
*16957 TAP_TAPCELL_ROW_92_1675
*16958 TAP_TAPCELL_ROW_92_1676
*16959 TAP_TAPCELL_ROW_92_1677
*16960 TAP_TAPCELL_ROW_92_1678
*16961 TAP_TAPCELL_ROW_92_1679
*16962 TAP_TAPCELL_ROW_92_1680
*16963 TAP_TAPCELL_ROW_92_1681
*16964 TAP_TAPCELL_ROW_92_1682
*16965 TAP_TAPCELL_ROW_92_1683
*16966 TAP_TAPCELL_ROW_92_1684
*16967 TAP_TAPCELL_ROW_92_1685
*16968 TAP_TAPCELL_ROW_92_1686
*16969 TAP_TAPCELL_ROW_92_1687
*16970 TAP_TAPCELL_ROW_93_1688
*16971 TAP_TAPCELL_ROW_93_1689
*16972 TAP_TAPCELL_ROW_93_1690
*16973 TAP_TAPCELL_ROW_93_1691
*16974 TAP_TAPCELL_ROW_93_1692
*16975 TAP_TAPCELL_ROW_93_1693
*16976 TAP_TAPCELL_ROW_93_1694
*16977 TAP_TAPCELL_ROW_93_1695
*16978 TAP_TAPCELL_ROW_93_1696
*16979 TAP_TAPCELL_ROW_93_1697
*16980 TAP_TAPCELL_ROW_93_1698
*16981 TAP_TAPCELL_ROW_93_1699
*16982 TAP_TAPCELL_ROW_93_1700
*16983 TAP_TAPCELL_ROW_93_1701
*16984 TAP_TAPCELL_ROW_93_1702
*16985 TAP_TAPCELL_ROW_94_1703
*16986 TAP_TAPCELL_ROW_94_1704
*16987 TAP_TAPCELL_ROW_94_1705
*16988 TAP_TAPCELL_ROW_94_1706
*16989 TAP_TAPCELL_ROW_94_1707
*16990 TAP_TAPCELL_ROW_94_1708
*16991 TAP_TAPCELL_ROW_94_1709
*16992 TAP_TAPCELL_ROW_94_1710
*16993 TAP_TAPCELL_ROW_94_1711
*16994 TAP_TAPCELL_ROW_94_1712
*16995 TAP_TAPCELL_ROW_94_1713
*16996 TAP_TAPCELL_ROW_94_1714
*16997 TAP_TAPCELL_ROW_94_1715
*16998 TAP_TAPCELL_ROW_94_1716
*16999 TAP_TAPCELL_ROW_94_1717
*17000 TAP_TAPCELL_ROW_95_1718
*17001 TAP_TAPCELL_ROW_95_1719
*17002 TAP_TAPCELL_ROW_95_1720
*17003 TAP_TAPCELL_ROW_95_1721
*17004 TAP_TAPCELL_ROW_95_1722
*17005 TAP_TAPCELL_ROW_95_1723
*17006 TAP_TAPCELL_ROW_95_1724
*17007 TAP_TAPCELL_ROW_95_1725
*17008 TAP_TAPCELL_ROW_95_1726
*17009 TAP_TAPCELL_ROW_95_1727
*17010 TAP_TAPCELL_ROW_95_1728
*17011 TAP_TAPCELL_ROW_95_1729
*17012 TAP_TAPCELL_ROW_95_1730
*17013 TAP_TAPCELL_ROW_95_1731
*17014 TAP_TAPCELL_ROW_95_1732
*17015 TAP_TAPCELL_ROW_96_1733
*17016 TAP_TAPCELL_ROW_96_1734
*17017 TAP_TAPCELL_ROW_96_1735
*17018 TAP_TAPCELL_ROW_96_1736
*17019 TAP_TAPCELL_ROW_96_1737
*17020 TAP_TAPCELL_ROW_96_1738
*17021 TAP_TAPCELL_ROW_96_1739
*17022 TAP_TAPCELL_ROW_96_1740
*17023 TAP_TAPCELL_ROW_96_1741
*17024 TAP_TAPCELL_ROW_96_1742
*17025 TAP_TAPCELL_ROW_96_1743
*17026 TAP_TAPCELL_ROW_96_1744
*17027 TAP_TAPCELL_ROW_96_1745
*17028 TAP_TAPCELL_ROW_96_1746
*17029 TAP_TAPCELL_ROW_96_1747
*17030 TAP_TAPCELL_ROW_97_1748
*17031 TAP_TAPCELL_ROW_97_1749
*17032 TAP_TAPCELL_ROW_97_1750
*17033 TAP_TAPCELL_ROW_97_1751
*17034 TAP_TAPCELL_ROW_97_1752
*17035 TAP_TAPCELL_ROW_97_1753
*17036 TAP_TAPCELL_ROW_97_1754
*17037 TAP_TAPCELL_ROW_97_1755
*17038 TAP_TAPCELL_ROW_97_1756
*17039 TAP_TAPCELL_ROW_97_1757
*17040 TAP_TAPCELL_ROW_97_1758
*17041 TAP_TAPCELL_ROW_97_1759
*17042 TAP_TAPCELL_ROW_97_1760
*17043 TAP_TAPCELL_ROW_97_1761
*17044 TAP_TAPCELL_ROW_97_1762
*17045 TAP_TAPCELL_ROW_98_1763
*17046 TAP_TAPCELL_ROW_98_1764
*17047 TAP_TAPCELL_ROW_98_1765
*17048 TAP_TAPCELL_ROW_98_1766
*17049 TAP_TAPCELL_ROW_98_1767
*17050 TAP_TAPCELL_ROW_98_1768
*17051 TAP_TAPCELL_ROW_98_1769
*17052 TAP_TAPCELL_ROW_98_1770
*17053 TAP_TAPCELL_ROW_98_1771
*17054 TAP_TAPCELL_ROW_98_1772
*17055 TAP_TAPCELL_ROW_98_1773
*17056 TAP_TAPCELL_ROW_98_1774
*17057 TAP_TAPCELL_ROW_98_1775
*17058 TAP_TAPCELL_ROW_98_1776
*17059 TAP_TAPCELL_ROW_98_1777
*17060 TAP_TAPCELL_ROW_99_1778
*17061 TAP_TAPCELL_ROW_99_1779
*17062 TAP_TAPCELL_ROW_99_1780
*17063 TAP_TAPCELL_ROW_99_1781
*17064 TAP_TAPCELL_ROW_99_1782
*17065 TAP_TAPCELL_ROW_99_1783
*17066 TAP_TAPCELL_ROW_99_1784
*17067 TAP_TAPCELL_ROW_99_1785
*17068 TAP_TAPCELL_ROW_99_1786
*17069 TAP_TAPCELL_ROW_99_1787
*17070 TAP_TAPCELL_ROW_99_1788
*17071 TAP_TAPCELL_ROW_99_1789
*17072 TAP_TAPCELL_ROW_99_1790
*17073 TAP_TAPCELL_ROW_99_1791
*17074 TAP_TAPCELL_ROW_99_1792
*17075 TAP_TAPCELL_ROW_9_428
*17076 TAP_TAPCELL_ROW_9_429
*17077 TAP_TAPCELL_ROW_9_430
*17078 TAP_TAPCELL_ROW_9_431
*17079 TAP_TAPCELL_ROW_9_432
*17080 TAP_TAPCELL_ROW_9_433
*17081 TAP_TAPCELL_ROW_9_434
*17082 TAP_TAPCELL_ROW_9_435
*17083 TAP_TAPCELL_ROW_9_436
*17084 TAP_TAPCELL_ROW_9_437
*17085 TAP_TAPCELL_ROW_9_438
*17086 TAP_TAPCELL_ROW_9_439
*17087 TAP_TAPCELL_ROW_9_440
*17088 TAP_TAPCELL_ROW_9_441
*17089 TAP_TAPCELL_ROW_9_442
*17090 _045_
*17091 _046_
*17092 _047_
*17093 _048_
*17094 _049_
*17095 _050_
*17096 _051_
*17097 _052_
*17098 _053_
*17099 _054_
*17100 _055_
*17101 _056_
*17102 _057_
*17103 _058_
*17104 _059_
*17105 _060_
*17106 _061_
*17107 _062_
*17108 _063_
*17109 _064_
*17110 _065_
*17111 _066_
*17112 _067_
*17113 _068_
*17114 _069_
*17115 _070_
*17116 _071_
*17117 _072_
*17118 _073_
*17119 _074_
*17120 _075_
*17121 _076_
*17122 _077_
*17123 _078_
*17124 _079_
*17125 _080_
*17126 _081_
*17127 _082_
*17128 _083_
*17129 _084_
*17130 _085_
*17131 _086_
*17132 _087_
*17133 _088_
*17134 _089_
*17135 _090_
*17136 _091_
*17137 _092_
*17138 _093_
*17139 _094_
*17140 _095_
*17141 _096_
*17142 _097_
*17143 _098_
*17144 _099_
*17145 _100_
*17146 _101_
*17147 _102_
*17148 _103_
*17149 _104_
*17150 _105_
*17151 clkbuf_0_clk
*17152 clkbuf_1_0__f_clk
*17153 clkbuf_1_1__f_clk
*17154 counter_macro_18
*17155 counter_macro_19
*17156 counter_macro_20
*17157 counter_macro_21
*17158 counter_macro_22
*17159 counter_macro_23
*17160 counter_macro_24
*17161 counter_macro_25
*17162 counter_macro_26
*17163 counter_macro_27
*17164 counter_macro_28
*17165 counter_macro_29
*17166 counter_macro_30
*17167 counter_macro_31
*17168 counter_macro_32
*17169 counter_macro_33
*17170 hold1
*17171 hold10
*17172 hold11
*17173 hold12
*17174 hold13
*17175 hold14
*17176 hold2
*17177 hold3
*17178 hold4
*17179 hold5
*17180 hold6
*17181 hold7
*17182 hold8
*17183 hold9
*17184 input1
*17185 output10
*17186 output11
*17187 output12
*17188 output13
*17189 output14
*17190 output15
*17191 output16
*17192 output17
*17193 output2
*17194 output3
*17195 output4
*17196 output5
*17197 output6
*17198 output7
*17199 output8
*17200 output9

*PORTS
clk I
count[0] O
count[10] O
count[11] O
count[12] O
count[13] O
count[14] O
count[15] O
count[1] O
count[2] O
count[3] O
count[4] O
count[5] O
count[6] O
count[7] O
count[8] O
count[9] O
count_oeb[0] O
count_oeb[10] O
count_oeb[11] O
count_oeb[12] O
count_oeb[13] O
count_oeb[14] O
count_oeb[15] O
count_oeb[1] O
count_oeb[2] O
count_oeb[3] O
count_oeb[4] O
count_oeb[5] O
count_oeb[6] O
count_oeb[7] O
count_oeb[8] O
count_oeb[9] O
resetb I

*D_NET *3 0.0383166
*CONN
*P clk I
*I *17151:A I *D sky130_fd_sc_hd__clkbuf_16
*I *117:DIODE I *D sky130_fd_sc_hd__diode_2
*CAP
1 clk 0.0182419
2 *17151:A 2.26944e-05
3 *117:DIODE 0.00028911
4 *3:9 0.000355031
5 *3:5 0.0182851
6 *117:DIODE *17115:B 0
7 *117:DIODE *54:26 0.000126639
8 *17151:A *17153:A 0.000186669
9 *17151:A *85:63 0.000175251
10 *3:5 *17180:A 0
11 *3:9 *17153:A 0.000316184
12 *3:9 *85:63 0.000318107
*RES
1 clk *3:5 337.482 
2 *3:5 *3:9 7.5 
3 *3:9 *117:DIODE 22.7286 
4 *3:9 *17151:A 11.0679 
*END

*D_NET *4 0.000797123
*CONN
*P count[0] O
*I *17193:X O *D sky130_fd_sc_hd__buf_1
*CAP
1 count[0] 0.000398562
2 *17193:X 0.000398562
*RES
1 *17193:X count[0] 21.2286 
*END

*D_NET *5 0.000819132
*CONN
*P count[10] O
*I *17194:X O *D sky130_fd_sc_hd__buf_1
*CAP
1 count[10] 0.000398478
2 *17194:X 0.000398478
3 count[10] *17177:A 3.69047e-06
4 count[10] *17194:A 1.84865e-05
*RES
1 *17194:X count[10] 21.2286 
*END

*D_NET *6 0.000797123
*CONN
*P count[11] O
*I *17195:X O *D sky130_fd_sc_hd__buf_1
*CAP
1 count[11] 0.000398562
2 *17195:X 0.000398562
*RES
1 *17195:X count[11] 21.2286 
*END

*D_NET *7 0.00082416
*CONN
*P count[12] O
*I *17196:X O *D sky130_fd_sc_hd__buf_1
*CAP
1 count[12] 0.000404653
2 *17196:X 0.000404653
3 count[12] *112:26 1.48543e-05
*RES
1 *17196:X count[12] 21.2286 
*END

*D_NET *8 0.00104413
*CONN
*P count[13] O
*I *17197:X O *D sky130_fd_sc_hd__buf_1
*CAP
1 count[13] 0.000482569
2 *17197:X 0.000482569
3 count[13] *17199:A 5.4959e-05
4 count[13] *112:26 1.04766e-05
5 count[13] *114:31 1.35553e-05
*RES
1 *17197:X count[13] 22.4607 
*END

*D_NET *9 0.000811137
*CONN
*P count[14] O
*I *17198:X O *D sky130_fd_sc_hd__buf_1
*CAP
1 count[14] 0.000390014
2 *17198:X 0.000390014
3 count[14] *17199:A 3.11088e-05
*RES
1 *17198:X count[14] 21.2286 
*END

*D_NET *10 0.000811137
*CONN
*P count[15] O
*I *17199:X O *D sky130_fd_sc_hd__buf_1
*CAP
1 count[15] 0.000390014
2 *17199:X 0.000390014
3 count[15] *17199:A 3.11088e-05
*RES
1 *17199:X count[15] 21.2286 
*END

*D_NET *11 0.000799478
*CONN
*P count[1] O
*I *17200:X O *D sky130_fd_sc_hd__buf_1
*CAP
1 count[1] 0.000392138
2 *17200:X 0.000392138
3 count[1] *17193:A 1.52013e-05
*RES
1 *17200:X count[1] 21.2286 
*END

*D_NET *12 0.000797123
*CONN
*P count[2] O
*I *17185:X O *D sky130_fd_sc_hd__buf_1
*CAP
1 count[2] 0.000398562
2 *17185:X 0.000398562
*RES
1 *17185:X count[2] 21.2286 
*END

*D_NET *13 0.000797123
*CONN
*P count[3] O
*I *17186:X O *D sky130_fd_sc_hd__buf_1
*CAP
1 count[3] 0.000398562
2 *17186:X 0.000398562
*RES
1 *17186:X count[3] 21.2286 
*END

*D_NET *14 0.00086606
*CONN
*P count[4] O
*I *17187:X O *D sky130_fd_sc_hd__buf_1
*CAP
1 count[4] 0.00043303
2 *17187:X 0.00043303
*RES
1 *17187:X count[4] 21.6393 
*END

*D_NET *15 0.000934996
*CONN
*P count[5] O
*I *17188:X O *D sky130_fd_sc_hd__buf_1
*CAP
1 count[5] 0.000467498
2 *17188:X 0.000467498
*RES
1 *17188:X count[5] 22.05 
*END

*D_NET *16 0.00100393
*CONN
*P count[6] O
*I *17189:X O *D sky130_fd_sc_hd__buf_1
*CAP
1 count[6] 0.000501966
2 *17189:X 0.000501966
*RES
1 *17189:X count[6] 22.4607 
*END

*D_NET *17 0.000797123
*CONN
*P count[7] O
*I *17190:X O *D sky130_fd_sc_hd__buf_1
*CAP
1 count[7] 0.000398562
2 *17190:X 0.000398562
*RES
1 *17190:X count[7] 21.2286 
*END

*D_NET *18 0.000797123
*CONN
*P count[8] O
*I *17191:X O *D sky130_fd_sc_hd__buf_1
*CAP
1 count[8] 0.000398562
2 *17191:X 0.000398562
*RES
1 *17191:X count[8] 21.2286 
*END

*D_NET *19 0.000797123
*CONN
*P count[9] O
*I *17192:X O *D sky130_fd_sc_hd__buf_1
*CAP
1 count[9] 0.000398562
2 *17192:X 0.000398562
*RES
1 *17192:X count[9] 21.2286 
*END

*D_NET *20 0.000797123
*CONN
*P count_oeb[0] O
*I *17154:LO O *D sky130_fd_sc_hd__conb_1
*CAP
1 count_oeb[0] 0.000398562
2 *17154:LO 0.000398562
*RES
1 *17154:LO count_oeb[0] 21.2286 
*END

*D_NET *21 0.000797123
*CONN
*P count_oeb[10] O
*I *17164:LO O *D sky130_fd_sc_hd__conb_1
*CAP
1 count_oeb[10] 0.000398562
2 *17164:LO 0.000398562
*RES
1 *17164:LO count_oeb[10] 21.2286 
*END

*D_NET *22 0.000797123
*CONN
*P count_oeb[11] O
*I *17165:LO O *D sky130_fd_sc_hd__conb_1
*CAP
1 count_oeb[11] 0.000398562
2 *17165:LO 0.000398562
*RES
1 *17165:LO count_oeb[11] 21.2286 
*END

*D_NET *23 0.000797123
*CONN
*P count_oeb[12] O
*I *17166:LO O *D sky130_fd_sc_hd__conb_1
*CAP
1 count_oeb[12] 0.000398562
2 *17166:LO 0.000398562
*RES
1 *17166:LO count_oeb[12] 21.2286 
*END

*D_NET *24 0.000797123
*CONN
*P count_oeb[13] O
*I *17167:LO O *D sky130_fd_sc_hd__conb_1
*CAP
1 count_oeb[13] 0.000398562
2 *17167:LO 0.000398562
*RES
1 *17167:LO count_oeb[13] 21.2286 
*END

*D_NET *25 0.000798098
*CONN
*P count_oeb[14] O
*I *17168:LO O *D sky130_fd_sc_hd__conb_1
*CAP
1 count_oeb[14] 0.000399049
2 *17168:LO 0.000399049
*RES
1 *17168:LO count_oeb[14] 21.2286 
*END

*D_NET *26 0.000797135
*CONN
*P count_oeb[15] O
*I *17169:LO O *D sky130_fd_sc_hd__conb_1
*CAP
1 count_oeb[15] 0.000398567
2 *17169:LO 0.000398567
*RES
1 *17169:LO count_oeb[15] 21.2286 
*END

*D_NET *27 0.000797123
*CONN
*P count_oeb[1] O
*I *17155:LO O *D sky130_fd_sc_hd__conb_1
*CAP
1 count_oeb[1] 0.000398562
2 *17155:LO 0.000398562
*RES
1 *17155:LO count_oeb[1] 21.2286 
*END

*D_NET *28 0.000797123
*CONN
*P count_oeb[2] O
*I *17156:LO O *D sky130_fd_sc_hd__conb_1
*CAP
1 count_oeb[2] 0.000398562
2 *17156:LO 0.000398562
*RES
1 *17156:LO count_oeb[2] 21.2286 
*END

*D_NET *29 0.000797123
*CONN
*P count_oeb[3] O
*I *17157:LO O *D sky130_fd_sc_hd__conb_1
*CAP
1 count_oeb[3] 0.000398562
2 *17157:LO 0.000398562
*RES
1 *17157:LO count_oeb[3] 21.2286 
*END

*D_NET *30 0.000797123
*CONN
*P count_oeb[4] O
*I *17158:LO O *D sky130_fd_sc_hd__conb_1
*CAP
1 count_oeb[4] 0.000398562
2 *17158:LO 0.000398562
*RES
1 *17158:LO count_oeb[4] 21.2286 
*END

*D_NET *31 0.000797123
*CONN
*P count_oeb[5] O
*I *17159:LO O *D sky130_fd_sc_hd__conb_1
*CAP
1 count_oeb[5] 0.000398562
2 *17159:LO 0.000398562
*RES
1 *17159:LO count_oeb[5] 21.2286 
*END

*D_NET *32 0.000797123
*CONN
*P count_oeb[6] O
*I *17160:LO O *D sky130_fd_sc_hd__conb_1
*CAP
1 count_oeb[6] 0.000398562
2 *17160:LO 0.000398562
*RES
1 *17160:LO count_oeb[6] 21.2286 
*END

*D_NET *33 0.000797123
*CONN
*P count_oeb[7] O
*I *17161:LO O *D sky130_fd_sc_hd__conb_1
*CAP
1 count_oeb[7] 0.000398562
2 *17161:LO 0.000398562
*RES
1 *17161:LO count_oeb[7] 21.2286 
*END

*D_NET *34 0.000797123
*CONN
*P count_oeb[8] O
*I *17162:LO O *D sky130_fd_sc_hd__conb_1
*CAP
1 count_oeb[8] 0.000398562
2 *17162:LO 0.000398562
*RES
1 *17162:LO count_oeb[8] 21.2286 
*END

*D_NET *35 0.000797123
*CONN
*P count_oeb[9] O
*I *17163:LO O *D sky130_fd_sc_hd__conb_1
*CAP
1 count_oeb[9] 0.000398562
2 *17163:LO 0.000398562
*RES
1 *17163:LO count_oeb[9] 21.2286 
*END

*D_NET *36 0.00121231
*CONN
*P resetb I
*I *17184:A I *D sky130_fd_sc_hd__clkbuf_8
*I *118:DIODE I *D sky130_fd_sc_hd__diode_2
*CAP
1 resetb 0.000475368
2 *17184:A 0.000130787
3 *118:DIODE 0
4 *36:9 0.000606156
*RES
1 resetb *36:9 12.75 
2 *36:9 *118:DIODE 9.3 
3 *36:9 *17184:A 11.0857 
*END

*D_NET *37 0.00059769
*CONN
*I *17135:D I *D sky130_fd_sc_hd__dfxtp_2
*I *17092:Y O *D sky130_fd_sc_hd__nor2_1
*CAP
1 *17135:D 0.000236921
2 *17092:Y 0.000236921
3 *17135:D *17135:CLK 0.000122332
4 *17135:D *94:10 1.51611e-06
*RES
1 *17092:Y *17135:D 32.0464 
*END

*D_NET *38 0.000744892
*CONN
*I *17179:A I *D sky130_fd_sc_hd__dlygate4sd3_1
*I *17094:Y O *D sky130_fd_sc_hd__a21oi_1
*CAP
1 *17179:A 0.000206011
2 *17094:Y 0.000206011
3 *17179:A *17094:B1 7.13011e-05
4 *17179:A *17200:A 0.000186765
5 *17179:A *115:33 7.48035e-05
*RES
1 *17094:Y *17179:A 22.85 
*END

*D_NET *39 0.000585849
*CONN
*I *17137:D I *D sky130_fd_sc_hd__dfxtp_1
*I *17097:Y O *D sky130_fd_sc_hd__nor2_1
*CAP
1 *17137:D 0.000214806
2 *17097:Y 0.000214806
3 *17137:D *17093:B1 3.63866e-05
4 *17137:D *17097:A 7.43578e-06
5 *17137:D *17097:B 1.92789e-05
6 *17137:D *83:51 8.95186e-05
7 *17137:D *86:10 0
8 *17137:D *115:60 3.61629e-06
*RES
1 *17097:Y *17137:D 31.0464 
*END

*D_NET *40 0.00100563
*CONN
*I *17138:D I *D sky130_fd_sc_hd__dfxtp_1
*I *17100:X O *D sky130_fd_sc_hd__and3b_1
*CAP
1 *17138:D 0.000361406
2 *17100:X 0.000361406
3 *17138:D *17098:B1 0
4 *17138:D *17100:A_N 0
5 *17138:D *17100:B 5.80706e-06
6 *17138:D *17186:A 5.65962e-05
7 *17138:D *59:6 6.62783e-05
8 *17138:D *59:19 0.000125607
9 *17138:D *87:8 2.85321e-05
*RES
1 *17100:X *17138:D 35.0509 
*END

*D_NET *41 0.000495025
*CONN
*I *17139:D I *D sky130_fd_sc_hd__dfxtp_1
*I *17102:X O *D sky130_fd_sc_hd__o21a_1
*CAP
1 *17139:D 0.000123998
2 *17102:X 0.000123998
3 *17139:D *54:40 0.00012801
4 *17139:D *83:24 5.95099e-05
5 *17139:D *85:98 5.95099e-05
*RES
1 *17102:X *17139:D 30.0509 
*END

*D_NET *42 0.000367411
*CONN
*I *17140:D I *D sky130_fd_sc_hd__dfxtp_1
*I *17106:X O *D sky130_fd_sc_hd__and3b_1
*CAP
1 *17140:D 0.000161038
2 *17106:X 0.000161038
3 *17140:D *17102:A1 0
4 *17140:D *83:14 1.64343e-05
5 *17140:D *85:98 2.89016e-05
6 *17140:D *89:10 0
*RES
1 *17106:X *17140:D 29.9438 
*END

*D_NET *43 0.00107339
*CONN
*I *17141:D I *D sky130_fd_sc_hd__dfxtp_1
*I *17109:X O *D sky130_fd_sc_hd__and3b_1
*CAP
1 *17141:D 0.000281144
2 *17109:X 0.000281144
3 *17141:D *17107:A 0
4 *17141:D *17109:C 3.92854e-05
5 *17141:D *17141:CLK 2.08464e-05
6 *17141:D *17142:CLK 0.000108432
7 *17141:D *83:94 0.000342539
*RES
1 *17109:X *17141:D 34.9036 
*END

*D_NET *44 0.000658337
*CONN
*I *17142:D I *D sky130_fd_sc_hd__dfxtp_1
*I *17112:Y O *D sky130_fd_sc_hd__nor2_1
*CAP
1 *17142:D 0.000247524
2 *17112:Y 0.000247524
3 *17142:D *17142:CLK 1.19402e-05
4 *17142:D *17152:A 1.64343e-05
5 *17142:D *54:26 6.05161e-06
6 *17142:D *66:8 0.00010096
7 *17142:D *66:19 1.02821e-05
8 *17142:D *85:63 1.76204e-05
9 *17142:D *85:84 0
*RES
1 *17112:Y *17142:D 31.3723 
*END

*D_NET *45 0.00126295
*CONN
*I *17143:D I *D sky130_fd_sc_hd__dfxtp_1
*I *17115:Y O *D sky130_fd_sc_hd__nor2_1
*CAP
1 *17143:D 0.000356323
2 *17115:Y 0.000356323
3 *17143:D *17113:B 0.000103329
4 *17143:D *17115:B 0
5 *17143:D *17153:A 0.000275638
6 *17143:D *17191:A 7.6644e-05
7 *17143:D *54:26 9.46929e-05
8 *17143:D *66:23 0
*RES
1 *17115:Y *17143:D 34.2473 
*END

*D_NET *46 0.000393552
*CONN
*I *17144:D I *D sky130_fd_sc_hd__dfxtp_1
*I *17118:Y O *D sky130_fd_sc_hd__nor2_1
*CAP
1 *17144:D 0.000196776
2 *17118:Y 0.000196776
3 *17144:D *17144:CLK 0
4 *17144:D *93:8 0
*RES
1 *17118:Y *17144:D 30.8366 
*END

*D_NET *47 0.000390637
*CONN
*I *17145:D I *D sky130_fd_sc_hd__dfxtp_1
*I *17121:Y O *D sky130_fd_sc_hd__nor2_1
*CAP
1 *17145:D 6.35643e-05
2 *17121:Y 6.35643e-05
3 *17145:D *17119:C 0.000215101
4 *17145:D *84:18 4.84073e-05
*RES
1 *17121:Y *17145:D 20.6402 
*END

*D_NET *48 0.000503196
*CONN
*I *17146:D I *D sky130_fd_sc_hd__dfxtp_2
*I *17123:X O *D sky130_fd_sc_hd__o21a_1
*CAP
1 *17146:D 0.000242796
2 *17123:X 0.000242796
3 *17146:D *17123:A1 0
4 *17146:D *17146:CLK 0
5 *17146:D *84:60 1.76039e-05
*RES
1 *17123:X *17146:D 31.658 
*END

*D_NET *49 0.000623566
*CONN
*I *17147:D I *D sky130_fd_sc_hd__dfxtp_1
*I *17126:Y O *D sky130_fd_sc_hd__nor2_1
*CAP
1 *17147:D 0.000258277
2 *17126:Y 0.000258277
3 *17147:D *17124:A1 6.05161e-06
4 *17147:D *17124:B1 0.00010096
*RES
1 *17126:Y *17147:D 31.283 
*END

*D_NET *50 0.000612356
*CONN
*I *17148:D I *D sky130_fd_sc_hd__dfxtp_1
*I *17129:X O *D sky130_fd_sc_hd__and3b_1
*CAP
1 *17148:D 0.000238488
2 *17129:X 0.000238488
3 *17148:D *17128:D 0
4 *17148:D *78:10 0.00013538
*RES
1 *17129:X *17148:D 31.8009 
*END

*D_NET *51 0.000809164
*CONN
*I *17149:D I *D sky130_fd_sc_hd__dfxtp_1
*I *17132:X O *D sky130_fd_sc_hd__o211a_1
*CAP
1 *17149:D 0.000205014
2 *17132:X 0.000205014
3 *17149:D *17133:A2 3.52992e-05
4 *17149:D *17149:CLK 0.000363837
*RES
1 *17132:X *17149:D 23.1045 
*END

*D_NET *52 0.00118349
*CONN
*I *17150:D I *D sky130_fd_sc_hd__dfxtp_1
*I *17134:Y O *D sky130_fd_sc_hd__a21oi_1
*CAP
1 *17150:D 0.000401046
2 *17134:Y 0.000401046
3 *17150:D *17090:A 2.85234e-05
4 *17150:D *17130:C 4.82181e-05
5 *17150:D *17134:A1 0.0001871
6 *17150:D *17150:CLK 0.000117554
*RES
1 *17134:Y *17150:D 25.2741 
*END

*D_NET *53 0.000341367
*CONN
*I *17134:A1 I *D sky130_fd_sc_hd__a21oi_1
*I *17090:Y O *D sky130_fd_sc_hd__inv_2
*CAP
1 *17134:A1 3.8232e-05
2 *17090:Y 3.8232e-05
3 *17134:A1 *17130:C 2.07382e-05
4 *17134:A1 *17134:A2 2.85321e-05
5 *17134:A1 *17150:CLK 2.85321e-05
6 *17150:D *17134:A1 0.0001871
*RES
1 *17090:Y *17134:A1 20.3679 
*END

*D_NET *54 0.0212094
*CONN
*I *17133:B1 I *D sky130_fd_sc_hd__a41o_1
*I *17122:B1 I *D sky130_fd_sc_hd__a21oi_1
*I *17125:B1 I *D sky130_fd_sc_hd__a31o_1
*I *17101:B1 I *D sky130_fd_sc_hd__a21oi_1
*I *17092:B I *D sky130_fd_sc_hd__nor2_1
*I *17096:B1 I *D sky130_fd_sc_hd__a31o_1
*I *17091:Y O *D sky130_fd_sc_hd__inv_2
*CAP
1 *17133:B1 0.000196955
2 *17122:B1 1.17665e-05
3 *17125:B1 0.000168233
4 *17101:B1 2.18569e-05
5 *17092:B 0
6 *17096:B1 0.000505589
7 *17091:Y 0
8 *54:86 0.000368907
9 *54:73 0.000898412
10 *54:40 0.00148173
11 *54:28 0.0018411
12 *54:26 0.00169523
13 *54:18 0.00235219
14 *54:4 0.00207005
15 *17096:B1 *17093:B1 0
16 *17096:B1 *17098:B1 0.000190462
17 *17096:B1 *17099:B 0
18 *17096:B1 *17100:B 0
19 *17096:B1 *17135:CLK 2.84494e-05
20 *17096:B1 *83:32 0.000114601
21 *17096:B1 *115:66 0.000206649
22 *17101:B1 *59:21 1.03921e-05
23 *17101:B1 *59:32 3.49456e-06
24 *17122:B1 *72:102 5.49995e-05
25 *17122:B1 *102:32 5.49995e-05
26 *17125:B1 *17125:A2 0
27 *17125:B1 *72:53 0
28 *17125:B1 *72:65 0
29 *17125:B1 *84:77 9.90367e-05
30 *17125:B1 *102:73 0.00010096
31 *17133:B1 *17133:A3 0.000274036
32 *17133:B1 *17134:B1 0.000100165
33 *17133:B1 *102:43 9.28237e-05
34 *54:18 *17115:A 0.000191541
35 *54:18 *17117:A2 0.000128161
36 *54:18 *17120:A1 0.000171023
37 *54:18 *17153:A 0.000832078
38 *54:18 *17175:A 2.88424e-05
39 *54:18 *72:26 7.49387e-06
40 *54:18 *84:18 0.000181107
41 *54:18 *85:39 0.000223195
42 *54:18 *92:40 5.21026e-05
43 *54:26 *17115:A 0.000290576
44 *54:26 *66:19 0.00119018
45 *54:28 *17104:A 1.4796e-05
46 *54:28 *17105:B 2.85321e-05
47 *54:28 *17106:C 0.000151071
48 *54:28 *17107:A 0.000576618
49 *54:28 *17110:B 2.4652e-05
50 *54:28 *17110:C 9.67754e-05
51 *54:28 *17112:B 0.000185408
52 *54:28 *59:32 0.000713645
53 *54:28 *62:21 0.000464399
54 *54:28 *66:8 0.000185408
55 *54:28 *85:84 5.81579e-05
56 *54:28 *90:28 0.000139338
57 *54:40 *17093:B1 0.000102197
58 *54:40 *17102:A2 0.000296323
59 *54:40 *17102:B1 3.77419e-05
60 *54:40 *59:32 4.84073e-05
61 *54:40 *88:14 2.13968e-05
62 *54:73 *17123:B1 0.000707238
63 *54:73 *72:26 0.00029324
64 *54:73 *72:57 0.000316184
65 *54:86 *17123:B1 0.000153054
66 *54:86 *72:102 0
67 *54:86 *102:45 0
68 *54:86 *102:51 0
69 *117:DIODE *54:26 0.000126639
70 *17139:D *54:40 0.00012801
71 *17142:D *54:26 6.05161e-06
72 *17143:D *54:26 9.46929e-05
*RES
1 *17091:Y *54:4 9.3 
2 *54:4 *54:18 32.8839 
3 *54:18 *54:26 29.1696 
4 *54:26 *54:28 26 
5 *54:28 *54:40 27.6071 
6 *54:40 *17096:B1 28.4071 
7 *54:40 *17092:B 9.3 
8 *54:28 *17101:B1 9.72857 
9 *54:4 *54:73 18.1786 
10 *54:73 *17125:B1 16.9964 
11 *54:73 *54:86 3.16071 
12 *54:86 *17122:B1 14.3357 
13 *54:86 *17133:B1 18.6036 
*END

*D_NET *55 0.00174027
*CONN
*I *17094:B1 I *D sky130_fd_sc_hd__a21oi_1
*I *17093:Y O *D sky130_fd_sc_hd__o21ai_1
*CAP
1 *17094:B1 0.000279012
2 *17093:Y 0.000279012
3 *17094:B1 *17093:A1 0.00031294
4 *17094:B1 *17093:A2 0.000197929
5 *17094:B1 *17094:A1 0.000249145
6 *17094:B1 *17094:A2 5.66971e-05
7 *17094:B1 *17193:A 4.48383e-05
8 *17094:B1 *17200:A 0.000165398
9 *17094:B1 *115:33 8.39976e-05
10 *17179:A *17094:B1 7.13011e-05
*RES
1 *17093:Y *17094:B1 36.6536 
*END

*D_NET *56 0.000725831
*CONN
*I *17171:A I *D sky130_fd_sc_hd__dlygate4sd3_1
*I *17095:Y O *D sky130_fd_sc_hd__a21oi_1
*CAP
1 *17171:A 0.000172795
2 *17095:Y 0.000172795
3 *17171:A *17095:B1 0.0002245
4 *17171:A *17097:A 9.90431e-05
5 *17171:A *94:53 5.66971e-05
*RES
1 *17095:Y *17171:A 22.975 
*END

*D_NET *57 0.000344997
*CONN
*I *17097:B I *D sky130_fd_sc_hd__nor2_1
*I *17096:X O *D sky130_fd_sc_hd__a31o_1
*CAP
1 *17097:B 9.80617e-05
2 *17096:X 9.80617e-05
3 *17097:B *115:60 0.000129595
4 *17137:D *17097:B 1.92789e-05
*RES
1 *17096:X *17097:B 21.2071 
*END

*D_NET *58 0.000582732
*CONN
*I *17100:C I *D sky130_fd_sc_hd__and3b_1
*I *17098:X O *D sky130_fd_sc_hd__a31o_1
*CAP
1 *17100:C 0.000146767
2 *17098:X 0.000146767
3 *17100:C *17098:A3 1.97695e-05
4 *17100:C *83:32 0.000269428
*RES
1 *17098:X *17100:C 21.6179 
*END

*D_NET *59 0.00989742
*CONN
*I *17102:A2 I *D sky130_fd_sc_hd__o21a_1
*I *17103:A2 I *D sky130_fd_sc_hd__a21o_1
*I *17108:B I *D sky130_fd_sc_hd__and3_1
*I *17110:C I *D sky130_fd_sc_hd__and4_1
*I *17105:A I *D sky130_fd_sc_hd__and2_1
*I *17101:A2 I *D sky130_fd_sc_hd__a21oi_1
*I *17100:A_N I *D sky130_fd_sc_hd__and3b_1
*I *17099:X O *D sky130_fd_sc_hd__and4_2
*CAP
1 *17102:A2 0.000245304
2 *17103:A2 0
3 *17108:B 0
4 *17110:C 0.000132448
5 *17105:A 0.000163213
6 *17101:A2 0
7 *17100:A_N 8.29669e-05
8 *17099:X 0.000268628
9 *59:55 0.000543357
10 *59:36 0.000689057
11 *59:32 0.000402293
12 *59:21 0.000341373
13 *59:19 0.00104003
14 *59:6 0.00109231
15 *17100:A_N *17100:B 0
16 *17100:A_N *17138:CLK 0
17 *17102:A2 *17102:B1 0.000290993
18 *17105:A *17105:B 0
19 *17105:A *83:12 9.91086e-05
20 *17105:A *83:14 5.52302e-05
21 *17105:A *83:94 4.38128e-05
22 *17105:A *89:10 6.26559e-05
23 *17110:C *17189:A 2.07809e-05
24 *17110:C *62:21 9.67754e-05
25 *17110:C *90:24 4.75008e-05
26 *59:6 *17186:A 4.38128e-05
27 *59:6 *87:8 0.000185643
28 *59:32 *17101:A1 5.49995e-05
29 *59:32 *17104:A 7.85423e-05
30 *59:32 *88:25 0.00130054
31 *59:36 *17104:B 3.67279e-06
32 *59:36 *17105:B 0
33 *59:36 *89:10 5.49114e-05
34 *59:36 *89:21 3.67279e-06
35 *59:55 *17106:A_N 0.000143566
36 *59:55 *17109:A_N 3.18676e-05
37 *59:55 *17111:A2 5.62995e-05
38 *59:55 *17152:A 0.000110779
39 *59:55 *65:6 0
40 *59:55 *85:86 0.00075035
41 *17101:B1 *59:21 1.03921e-05
42 *17101:B1 *59:32 3.49456e-06
43 *17138:D *17100:A_N 0
44 *17138:D *59:6 6.62783e-05
45 *17138:D *59:19 0.000125607
46 *54:28 *17110:C 9.67754e-05
47 *54:28 *59:32 0.000713645
48 *54:40 *17102:A2 0.000296323
49 *54:40 *59:32 4.84073e-05
*RES
1 *17099:X *59:6 13.1214 
2 *59:6 *17100:A_N 19.6393 
3 *59:6 *59:19 9.16071 
4 *59:19 *59:21 1.03571 
5 *59:21 *17101:A2 9.3 
6 *59:21 *59:32 14.5357 
7 *59:32 *59:36 6.75 
8 *59:36 *17105:A 17.6036 
9 *59:36 *59:55 15.0357 
10 *59:55 *17110:C 21.1929 
11 *59:55 *17108:B 9.3 
12 *59:32 *17103:A2 9.3 
13 *59:19 *17102:A2 24.3893 
*END

*D_NET *60 0.000827741
*CONN
*I *17102:B1 I *D sky130_fd_sc_hd__o21a_1
*I *17101:Y O *D sky130_fd_sc_hd__a21oi_1
*CAP
1 *17102:B1 0.000210323
2 *17101:Y 0.000210323
3 *17102:B1 *17102:A1 0
4 *17102:B1 *83:24 0
5 *17102:B1 *88:14 7.83587e-05
6 *17102:A2 *17102:B1 0.000290993
7 *54:40 *17102:B1 3.77419e-05
*RES
1 *17101:Y *17102:B1 32.2071 
*END

*D_NET *61 0.000851199
*CONN
*I *17106:C I *D sky130_fd_sc_hd__and3b_1
*I *17103:X O *D sky130_fd_sc_hd__a21o_1
*CAP
1 *17106:C 0.000350064
2 *17103:X 0.000350064
3 *17106:C *89:10 0
4 *54:28 *17106:C 0.000151071
*RES
1 *17103:X *17106:C 32.4393 
*END

*D_NET *62 0.00329314
*CONN
*I *17110:D I *D sky130_fd_sc_hd__and4_1
*I *17108:C I *D sky130_fd_sc_hd__and3_1
*I *17105:B I *D sky130_fd_sc_hd__and2_1
*I *17104:X O *D sky130_fd_sc_hd__and2_1
*CAP
1 *17110:D 0
2 *17108:C 0.00023197
3 *17105:B 0.000302219
4 *17104:X 0
5 *62:21 0.000665207
6 *62:4 0.000735456
7 *17105:B *17104:B 3.45899e-05
8 *17105:B *17106:A_N 6.1684e-05
9 *17105:B *17107:A 0
10 *17105:B *17107:B 3.07555e-05
11 *17105:B *83:12 3.34672e-05
12 *17108:C *17109:C 0
13 *17108:C *17112:B 0.000123369
14 *17108:C *17152:A 8.17629e-05
15 *17108:C *17189:A 5.36422e-05
16 *17108:C *90:20 5.80504e-05
17 *17108:C *90:24 0.00019369
18 *62:21 *17110:B 9.75679e-05
19 *17105:A *17105:B 0
20 *17110:C *62:21 9.67754e-05
21 *54:28 *17105:B 2.85321e-05
22 *54:28 *62:21 0.000464399
23 *59:36 *17105:B 0
*RES
1 *17104:X *62:4 9.3 
2 *62:4 *17105:B 24.1214 
3 *62:4 *62:21 9.58929 
4 *62:21 *17108:C 23.1929 
5 *62:21 *17110:D 9.3 
*END

*D_NET *63 0.00126413
*CONN
*I *17106:A_N I *D sky130_fd_sc_hd__and3b_1
*I *17107:B I *D sky130_fd_sc_hd__or2_1
*I *17105:X O *D sky130_fd_sc_hd__and2_1
*CAP
1 *17106:A_N 0.000325952
2 *17107:B 6.81683e-05
3 *17105:X 0
4 *63:6 0.00039412
5 *17106:A_N *17107:A 0
6 *17106:A_N *83:12 2.59355e-05
7 *17106:A_N *85:86 0.000114902
8 *17107:B *17107:A 0
9 *17107:B *83:94 9.90431e-05
10 *17105:B *17106:A_N 6.1684e-05
11 *17105:B *17107:B 3.07555e-05
12 *59:55 *17106:A_N 0.000143566
*RES
1 *17105:X *63:6 13.8 
2 *63:6 *17107:B 15.4786 
3 *63:6 *17106:A_N 20.9071 
*END

*D_NET *64 0.000676139
*CONN
*I *17109:C I *D sky130_fd_sc_hd__and3b_1
*I *17107:X O *D sky130_fd_sc_hd__or2_1
*CAP
1 *17109:C 0.000203699
2 *17107:X 0.000203699
3 *17109:C *83:94 0.000229456
4 *17108:C *17109:C 0
5 *17141:D *17109:C 3.92854e-05
*RES
1 *17107:X *17109:C 30.8143 
*END

*D_NET *65 0.000839883
*CONN
*I *17111:A2 I *D sky130_fd_sc_hd__o21ai_1
*I *17109:A_N I *D sky130_fd_sc_hd__and3b_1
*I *17108:X O *D sky130_fd_sc_hd__and3_1
*CAP
1 *17111:A2 0.000206606
2 *17109:A_N 9.04722e-06
3 *17108:X 1.63023e-05
4 *65:6 0.000231956
5 *17109:A_N *17152:A 3.18676e-05
6 *17111:A2 *17111:B1 9.71197e-05
7 *17111:A2 *17152:A 0.000158818
8 *59:55 *17109:A_N 3.18676e-05
9 *59:55 *17111:A2 5.62995e-05
10 *59:55 *65:6 0
*RES
1 *17108:X *65:6 9.72857 
2 *65:6 *17109:A_N 9.83571 
3 *65:6 *17111:A2 14.1036 
*END

*D_NET *66 0.00832641
*CONN
*I *17119:D I *D sky130_fd_sc_hd__and4_2
*I *17116:C I *D sky130_fd_sc_hd__and3_1
*I *17113:B I *D sky130_fd_sc_hd__and2_1
*I *17114:A2 I *D sky130_fd_sc_hd__o21ai_1
*I *17112:A I *D sky130_fd_sc_hd__nor2_1
*I *17110:X O *D sky130_fd_sc_hd__and4_1
*CAP
1 *17119:D 0.000182156
2 *17116:C 0
3 *17113:B 0.000263959
4 *17114:A2 0.000274291
5 *17112:A 0
6 *17110:X 0.000129482
7 *66:51 0.000630234
8 *66:23 0.000795311
9 *66:19 0.00143888
10 *66:8 0.00086322
11 *17113:B *17153:A 0.000286208
12 *17114:A2 *17115:B 0
13 *17114:A2 *17144:CLK 0
14 *17114:A2 *85:51 0.000318101
15 *17114:A2 *85:63 0
16 *17119:D *17119:A 6.74025e-05
17 *17119:D *84:18 0.000152307
18 *17119:D *93:23 9.84729e-05
19 *66:8 *17110:B 1.97617e-05
20 *66:8 *17112:B 2.38501e-05
21 *66:8 *85:84 9.71197e-05
22 *66:19 *17110:B 0.000314725
23 *66:19 *17115:A 0.000269741
24 *66:23 *17115:B 0
25 *66:23 *17191:A 0
26 *66:23 *84:18 0
27 *66:51 *17115:A 0.000143373
28 *66:51 *17119:A 5.18481e-05
29 *66:51 *92:40 0.000315812
30 *17142:D *66:8 0.00010096
31 *17142:D *66:19 1.02821e-05
32 *17143:D *17113:B 0.000103329
33 *17143:D *66:23 0
34 *54:26 *66:19 0.00119018
35 *54:28 *66:8 0.000185408
*RES
1 *17110:X *66:8 13.0321 
2 *66:8 *17112:A 9.3 
3 *66:8 *66:19 19.1607 
4 *66:19 *66:23 8.26786 
5 *66:23 *17114:A2 19.05 
6 *66:23 *17113:B 17.9429 
7 *66:19 *66:51 6.91071 
8 *66:51 *17116:C 9.3 
9 *66:51 *17119:D 13.0857 
*END

*D_NET *67 0.000881183
*CONN
*I *17112:B I *D sky130_fd_sc_hd__nor2_1
*I *17111:Y O *D sky130_fd_sc_hd__o21ai_1
*CAP
1 *17112:B 0.000169364
2 *17111:Y 0.000169364
3 *17112:B *17110:B 0.000123932
4 *17112:B *85:63 2.84398e-05
5 *17112:B *85:84 5.74562e-05
6 *17108:C *17112:B 0.000123369
7 *54:28 *17112:B 0.000185408
8 *66:8 *17112:B 2.38501e-05
*RES
1 *17111:Y *17112:B 32.9393 
*END

*D_NET *68 0.00238021
*CONN
*I *17115:A I *D sky130_fd_sc_hd__nor2_1
*I *17117:A2 I *D sky130_fd_sc_hd__o21ai_1
*I *17113:X O *D sky130_fd_sc_hd__and2_1
*CAP
1 *17115:A 0.000222767
2 *17117:A2 0.000207949
3 *17113:X 0
4 *68:6 0.000430716
5 *17115:A *84:18 0.000224575
6 *17115:A *92:40 0.000183711
7 *17117:A2 *17118:B 5.52302e-05
8 *17117:A2 *17175:A 0
9 *17117:A2 *85:49 3.18676e-05
10 *54:18 *17115:A 0.000191541
11 *54:18 *17117:A2 0.000128161
12 *54:26 *17115:A 0.000290576
13 *66:19 *17115:A 0.000269741
14 *66:51 *17115:A 0.000143373
*RES
1 *17113:X *68:6 13.8 
2 *68:6 *17117:A2 18.1571 
3 *68:6 *17115:A 22.4429 
*END

*D_NET *69 0.000692181
*CONN
*I *17115:B I *D sky130_fd_sc_hd__nor2_1
*I *17114:Y O *D sky130_fd_sc_hd__o21ai_1
*CAP
1 *17115:B 0.00027474
2 *17114:Y 0.00027474
3 *17115:B *17191:A 4.67673e-05
4 *17115:B *85:51 1.92905e-05
5 *17115:B *85:63 7.6644e-05
6 *117:DIODE *17115:B 0
7 *17114:A2 *17115:B 0
8 *17143:D *17115:B 0
9 *66:23 *17115:B 0
*RES
1 *17114:Y *17115:B 32.5107 
*END

*D_NET *70 0.00178449
*CONN
*I *17120:A2 I *D sky130_fd_sc_hd__o21ai_1
*I *17118:A I *D sky130_fd_sc_hd__nor2_1
*I *17116:X O *D sky130_fd_sc_hd__and3_1
*CAP
1 *17120:A2 0
2 *17118:A 0.000273891
3 *17116:X 0.000225682
4 *70:10 0.000499572
5 *17118:A *17117:A1 0.000135815
6 *17118:A *17118:B 1.97695e-05
7 *17118:A *85:49 0.000118274
8 *17118:A *93:19 0.000218026
9 *70:10 *17116:B 0.000144773
10 *70:10 *84:18 7.03295e-05
11 *70:10 *93:19 7.83587e-05
*RES
1 *17116:X *70:10 17.425 
2 *70:10 *17118:A 20.0857 
3 *70:10 *17120:A2 13.8 
*END

*D_NET *71 0.000355829
*CONN
*I *17118:B I *D sky130_fd_sc_hd__nor2_1
*I *17117:Y O *D sky130_fd_sc_hd__o21ai_1
*CAP
1 *17118:B 0.000103423
2 *17117:Y 0.000103423
3 *17118:B *17117:A1 4.22908e-05
4 *17118:B *85:49 2.42577e-05
5 *17118:B *85:51 7.43578e-06
6 *17117:A2 *17118:B 5.52302e-05
7 *17118:A *17118:B 1.97695e-05
*RES
1 *17117:Y *17118:B 20.7964 
*END

*D_NET *72 0.0116188
*CONN
*I *17121:A I *D sky130_fd_sc_hd__nor2_1
*I *17123:A2 I *D sky130_fd_sc_hd__o21a_1
*I *17125:A3 I *D sky130_fd_sc_hd__a31o_1
*I *17122:A2 I *D sky130_fd_sc_hd__a21oi_1
*I *17133:A3 I *D sky130_fd_sc_hd__a41o_1
*I *17131:B I *D sky130_fd_sc_hd__nand3_1
*I *17128:D I *D sky130_fd_sc_hd__and4_1
*I *17127:A3 I *D sky130_fd_sc_hd__a31o_1
*I *17124:A2 I *D sky130_fd_sc_hd__a21oi_1
*I *17119:X O *D sky130_fd_sc_hd__and4_2
*CAP
1 *17121:A 3.05035e-05
2 *17123:A2 0
3 *17125:A3 1.30422e-05
4 *17122:A2 2.59886e-05
5 *17133:A3 0.000281339
6 *17131:B 9.8151e-05
7 *17128:D 0.000151547
8 *17127:A3 2.03441e-05
9 *17124:A2 0.000361114
10 *17119:X 0.000222099
11 *72:102 0.000607052
12 *72:65 0.000513346
13 *72:57 0.000966475
14 *72:53 0.000922441
15 *72:49 0.000221929
16 *72:32 0.000590173
17 *72:26 0.000465841
18 *72:8 0.000602425
19 *17121:A *17121:B 3.65022e-05
20 *17121:A *84:12 5.59938e-05
21 *17122:A2 *102:32 9.33013e-06
22 *17122:A2 *102:43 3.06561e-05
23 *17124:A2 *17147:CLK 0.000201127
24 *17124:A2 *84:77 9.66977e-05
25 *17124:A2 *85:30 1.21258e-05
26 *17125:A3 *17124:A1 8.76257e-05
27 *17125:A3 *84:77 9.90431e-05
28 *17127:A3 *17129:C 5.7661e-06
29 *17128:D *17128:C 7.43578e-06
30 *17128:D *111:43 2.59355e-05
31 *17128:D *112:34 0.000101545
32 *17131:B *80:10 3.51247e-05
33 *17133:A3 *17134:B1 8.74903e-05
34 *17133:A3 *79:8 1.87331e-05
35 *17133:A3 *102:43 1.12713e-05
36 *17133:A3 *112:34 1.24368e-05
37 *72:8 *84:18 0.000167998
38 *72:26 *17120:A1 0
39 *72:26 *17121:B 5.10822e-05
40 *72:26 *17123:B1 9.45929e-05
41 *72:26 *84:12 0.000526879
42 *72:26 *84:43 0.00061338
43 *72:26 *84:60 0.000359529
44 *72:26 *85:39 0.00075521
45 *72:32 *17147:CLK 1.41642e-05
46 *72:32 *84:60 9.03121e-05
47 *72:49 *17124:A1 9.90431e-05
48 *72:49 *84:77 0.000357883
49 *72:53 *17125:A2 2.8266e-06
50 *72:65 *17127:B1 3.34366e-05
51 *72:65 *102:51 8.24047e-05
52 *72:65 *102:53 8.66324e-05
53 *72:65 *111:14 6.57032e-05
54 *72:65 *111:43 1.98839e-05
55 *72:102 *17123:A1 6.75007e-05
56 *72:102 *17123:B1 0
57 *72:102 *102:8 6.05161e-06
58 *72:102 *102:23 9.40308e-05
59 *72:102 *102:32 5.56632e-05
60 *17122:B1 *72:102 5.49995e-05
61 *17125:B1 *72:53 0
62 *17125:B1 *72:65 0
63 *17133:B1 *17133:A3 0.000274036
64 *17148:D *17128:D 0
65 *54:18 *72:26 7.49387e-06
66 *54:73 *72:26 0.00029324
67 *54:73 *72:57 0.000316184
68 *54:86 *72:102 0
*RES
1 *17119:X *72:8 16.8 
2 *72:8 *72:26 22.4107 
3 *72:26 *72:32 11.8571 
4 *72:32 *17124:A2 25.2107 
5 *72:32 *72:49 3.41071 
6 *72:49 *72:53 6.44643 
7 *72:53 *72:57 11.1964 
8 *72:57 *72:65 15.4464 
9 *72:65 *17127:A3 9.72857 
10 *72:65 *17128:D 20.7107 
11 *72:57 *17131:B 10.675 
12 *72:53 *72:102 11.0714 
13 *72:102 *17133:A3 15.2107 
14 *72:102 *17122:A2 10.3446 
15 *72:49 *17125:A3 10.2464 
16 *72:26 *17123:A2 9.3 
17 *72:8 *17121:A 14.8357 
*END

*D_NET *73 0.000916405
*CONN
*I *17121:B I *D sky130_fd_sc_hd__nor2_1
*I *17120:Y O *D sky130_fd_sc_hd__o21ai_1
*CAP
1 *17121:B 0.000257344
2 *17120:Y 0.000257344
3 *17121:B *85:39 0.000314132
4 *17121:B *93:19 0
5 *17121:A *17121:B 3.65022e-05
6 *72:26 *17121:B 5.10822e-05
*RES
1 *17120:Y *17121:B 32.85 
*END

*D_NET *74 0.00173047
*CONN
*I *17123:B1 I *D sky130_fd_sc_hd__o21a_1
*I *17122:Y O *D sky130_fd_sc_hd__a21oi_1
*CAP
1 *17123:B1 0.000272576
2 *17122:Y 0.000272576
3 *17123:B1 *17123:A1 0.000230432
4 *54:73 *17123:B1 0.000707238
5 *54:86 *17123:B1 0.000153054
6 *72:26 *17123:B1 9.45929e-05
7 *72:102 *17123:B1 0
*RES
1 *17122:Y *17123:B1 36.6446 
*END

*D_NET *75 0.000276395
*CONN
*I *17126:A I *D sky130_fd_sc_hd__nor2_1
*I *17124:Y O *D sky130_fd_sc_hd__a21oi_1
*CAP
1 *17126:A 9.78316e-05
2 *17124:Y 9.78316e-05
3 *17126:A *17124:B1 8.07313e-05
*RES
1 *17124:Y *17126:A 20.8143 
*END

*D_NET *76 0.000300527
*CONN
*I *17126:B I *D sky130_fd_sc_hd__nor2_1
*I *17125:X O *D sky130_fd_sc_hd__a31o_1
*CAP
1 *17126:B 8.65849e-05
2 *17125:X 8.65849e-05
3 *17126:B *17124:A1 8.16036e-05
4 *17126:B *17125:A2 4.57538e-05
*RES
1 *17125:X *17126:B 29.5464 
*END

*D_NET *77 0.000553806
*CONN
*I *17129:C I *D sky130_fd_sc_hd__and3b_1
*I *17127:X O *D sky130_fd_sc_hd__a31o_1
*CAP
1 *17129:C 0.000187594
2 *17127:X 0.000187594
3 *17129:C *111:43 0.000172852
4 *17127:A3 *17129:C 5.7661e-06
*RES
1 *17127:X *17129:C 22.0286 
*END

*D_NET *78 0.00246014
*CONN
*I *17132:A2 I *D sky130_fd_sc_hd__o211a_1
*I *17129:A_N I *D sky130_fd_sc_hd__and3b_1
*I *17128:X O *D sky130_fd_sc_hd__and4_1
*CAP
1 *17132:A2 0.000155551
2 *17129:A_N 8.892e-05
3 *17128:X 0.000401417
4 *78:10 0.000645888
5 *17129:A_N *85:12 0.000169817
6 *17129:A_N *85:14 0.000186765
7 *17129:A_N *111:43 0.000228508
8 *17132:A2 *17132:A1 0.000129868
9 *17132:A2 *17134:A2 1.02504e-05
10 *17132:A2 *17148:CLK 9.01238e-05
11 *17132:A2 *84:88 2.14474e-05
12 *17132:A2 *111:43 9.46298e-05
13 *78:10 *17148:CLK 9.33907e-05
14 *78:10 *111:43 8.18233e-06
15 *17148:D *78:10 0.00013538
*RES
1 *17128:X *78:10 19.8714 
2 *78:10 *17129:A_N 17.2107 
3 *78:10 *17132:A2 18.175 
*END

*D_NET *79 0.000706683
*CONN
*I *17131:C I *D sky130_fd_sc_hd__nand3_1
*I *17133:A4 I *D sky130_fd_sc_hd__a41o_1
*I *17130:X O *D sky130_fd_sc_hd__and3_1
*CAP
1 *17131:C 0.00012027
2 *17133:A4 0
3 *17130:X 3.60639e-05
4 *79:8 0.000156334
5 *17131:C *17132:C1 9.25014e-06
6 *17131:C *17133:A2 3.98352e-05
7 *17131:C *80:10 5.52302e-05
8 *17131:C *111:43 0
9 *17131:C *112:26 3.9031e-05
10 *17131:C *112:34 0.000148903
11 *79:8 *17134:B1 5.41888e-05
12 *79:8 *112:34 2.88431e-05
13 *17133:A3 *79:8 1.87331e-05
*RES
1 *17130:X *79:8 10.2732 
2 *79:8 *17133:A4 9.3 
3 *79:8 *17131:C 21.3893 
*END

*D_NET *80 0.00169337
*CONN
*I *17132:B1 I *D sky130_fd_sc_hd__o211a_1
*I *17134:A2 I *D sky130_fd_sc_hd__a21oi_1
*I *17131:Y O *D sky130_fd_sc_hd__nand3_1
*CAP
1 *17132:B1 0
2 *17134:A2 0.000136951
3 *17131:Y 0.000340867
4 *80:10 0.000477818
5 *17134:A2 *17130:C 4.73724e-05
6 *17134:A2 *17150:CLK 6.37275e-05
7 *17134:A2 *111:43 9.85397e-05
8 *80:10 *17132:C1 0.000357037
9 *80:10 *17133:A2 4.19206e-05
10 *17131:B *80:10 3.51247e-05
11 *17131:C *80:10 5.52302e-05
12 *17132:A2 *17134:A2 1.02504e-05
13 *17134:A1 *17134:A2 2.85321e-05
*RES
1 *17131:Y *80:10 15.6214 
2 *80:10 *17134:A2 21.8179 
3 *80:10 *17132:B1 9.3 
*END

*D_NET *81 0.00117951
*CONN
*I *17134:B1 I *D sky130_fd_sc_hd__a21oi_1
*I *17133:X O *D sky130_fd_sc_hd__a41o_1
*CAP
1 *17134:B1 0.000266695
2 *17133:X 0.000266695
3 *17134:B1 *17130:A 0.000143375
4 *17134:B1 *17130:B 1.83136e-05
5 *17134:B1 *17130:C 7.90297e-05
6 *17134:B1 *102:43 0.000141935
7 *17134:B1 *112:34 2.16266e-05
8 *17133:A3 *17134:B1 8.74903e-05
9 *17133:B1 *17134:B1 0.000100165
10 *79:8 *17134:B1 5.41888e-05
*RES
1 *17133:X *17134:B1 25.2964 
*END

*D_NET *82 0.00691581
*CONN
*I *17153:A I *D sky130_fd_sc_hd__clkbuf_16
*I *17152:A I *D sky130_fd_sc_hd__clkbuf_16
*I *17151:X O *D sky130_fd_sc_hd__clkbuf_16
*CAP
1 *17153:A 0.000855884
2 *17152:A 0.000677426
3 *17151:X 0
4 *82:4 0.00153331
5 *17152:A *17111:B1 7.6696e-05
6 *17152:A *85:63 0.000601135
7 *17152:A *90:20 0.000158139
8 *17153:A *17120:A1 0.000186669
9 *17153:A *85:39 6.42095e-05
10 *17153:A *85:63 0.000207903
11 *17153:A *92:6 8.71847e-05
12 *17153:A *92:21 0.000170819
13 *17108:C *17152:A 8.17629e-05
14 *17109:A_N *17152:A 3.18676e-05
15 *17111:A2 *17152:A 0.000158818
16 *17113:B *17153:A 0.000286208
17 *17142:D *17152:A 1.64343e-05
18 *17143:D *17153:A 0.000275638
19 *17151:A *17153:A 0.000186669
20 *3:9 *17153:A 0.000316184
21 *54:18 *17153:A 0.000832078
22 *59:55 *17152:A 0.000110779
*RES
1 *17151:X *82:4 9.3 
2 *82:4 *17152:A 26.6929 
3 *82:4 *17153:A 35.1036 
*END

*D_NET *83 0.0113698
*CONN
*I *17142:CLK I *D sky130_fd_sc_hd__dfxtp_1
*I *17141:CLK I *D sky130_fd_sc_hd__dfxtp_1
*I *17140:CLK I *D sky130_fd_sc_hd__dfxtp_1
*I *17139:CLK I *D sky130_fd_sc_hd__dfxtp_1
*I *17138:CLK I *D sky130_fd_sc_hd__dfxtp_1
*I *17137:CLK I *D sky130_fd_sc_hd__dfxtp_1
*I *17136:CLK I *D sky130_fd_sc_hd__dfxtp_1
*I *17135:CLK I *D sky130_fd_sc_hd__dfxtp_2
*I *17152:X O *D sky130_fd_sc_hd__clkbuf_16
*CAP
1 *17142:CLK 0.000318951
2 *17141:CLK 1.7586e-05
3 *17140:CLK 2.23854e-05
4 *17139:CLK 0
5 *17138:CLK 0.000148051
6 *17137:CLK 0
7 *17136:CLK 0.000323352
8 *17135:CLK 0.000233941
9 *17152:X 9.72046e-05
10 *83:94 0.000780473
11 *83:51 0.000770147
12 *83:32 0.00109061
13 *83:26 0.000669037
14 *83:24 0.00073195
15 *83:14 0.00102921
16 *83:12 0.000927134
17 *17135:CLK *17093:B1 0
18 *17135:CLK *94:10 0
19 *17135:CLK *94:21 0
20 *17136:CLK *17093:A1 0
21 *17136:CLK *17093:B1 0.000197094
22 *17136:CLK *17097:A 0
23 *17136:CLK *17136:D 9.25014e-06
24 *17142:CLK *17111:A1 0.000159994
25 *17142:CLK *90:20 0.000186669
26 *83:14 *89:10 0.00014285
27 *83:24 *17102:A1 0.000126629
28 *83:24 *85:98 0.000216311
29 *83:24 *88:14 5.41494e-05
30 *83:26 *85:98 0.000171023
31 *83:32 *17099:B 4.1331e-06
32 *83:32 *85:98 0.00032505
33 *83:32 *94:21 0
34 *83:51 *17092:A 5.52238e-05
35 *83:51 *17093:B1 0.00017871
36 *83:51 *17094:A1 0.000227539
37 *83:51 *17170:A 2.44318e-05
38 *83:51 *86:10 0.000360601
39 *17096:B1 *17135:CLK 2.84494e-05
40 *17096:B1 *83:32 0.000114601
41 *17100:A_N *17138:CLK 0
42 *17100:C *83:32 0.000269428
43 *17102:B1 *83:24 0
44 *17105:A *83:12 9.91086e-05
45 *17105:A *83:14 5.52302e-05
46 *17105:A *83:94 4.38128e-05
47 *17105:B *83:12 3.34672e-05
48 *17106:A_N *83:12 2.59355e-05
49 *17107:B *83:94 9.90431e-05
50 *17109:C *83:94 0.000229456
51 *17135:D *17135:CLK 0.000122332
52 *17137:D *83:51 8.95186e-05
53 *17139:D *83:24 5.95099e-05
54 *17140:D *83:14 1.64343e-05
55 *17141:D *17141:CLK 2.08464e-05
56 *17141:D *17142:CLK 0.000108432
57 *17141:D *83:94 0.000342539
58 *17142:D *17142:CLK 1.19402e-05
*RES
1 *17152:X *83:12 20.175 
2 *83:12 *83:14 6.69643 
3 *83:14 *83:24 20.6429 
4 *83:24 *83:26 3 
5 *83:26 *83:32 14.4821 
6 *83:32 *17135:CLK 17.4964 
7 *83:32 *83:51 15.3393 
8 *83:51 *17136:CLK 25.1929 
9 *83:51 *17137:CLK 9.3 
10 *83:26 *17138:CLK 20.8536 
11 *83:24 *17139:CLK 9.3 
12 *83:14 *17140:CLK 9.72857 
13 *83:12 *83:94 9.16071 
14 *83:94 *17141:CLK 9.72857 
15 *83:94 *17142:CLK 24.8893 
*END

*D_NET *84 0.014235
*CONN
*I *17150:CLK I *D sky130_fd_sc_hd__dfxtp_1
*I *17149:CLK I *D sky130_fd_sc_hd__dfxtp_1
*I *17148:CLK I *D sky130_fd_sc_hd__dfxtp_1
*I *17147:CLK I *D sky130_fd_sc_hd__dfxtp_1
*I *17146:CLK I *D sky130_fd_sc_hd__dfxtp_2
*I *17145:CLK I *D sky130_fd_sc_hd__dfxtp_1
*I *17143:CLK I *D sky130_fd_sc_hd__dfxtp_1
*I *17144:CLK I *D sky130_fd_sc_hd__dfxtp_1
*I *17153:X O *D sky130_fd_sc_hd__clkbuf_16
*CAP
1 *17150:CLK 0.000192459
2 *17149:CLK 9.62503e-05
3 *17148:CLK 0.000231438
4 *17147:CLK 0.000338741
5 *17146:CLK 9.70657e-05
6 *17145:CLK 0
7 *17143:CLK 0
8 *17144:CLK 0.000367019
9 *17153:X 0
10 *84:88 0.000381243
11 *84:77 0.00098686
12 *84:60 0.00144766
13 *84:43 0.000926455
14 *84:18 0.000790683
15 *84:12 0.00076313
16 *84:4 0.000722825
17 *17144:CLK *17175:A 0.00017309
18 *17149:CLK *17133:A2 0.000176208
19 *17150:CLK *17090:A 5.66971e-05
20 *17150:CLK *17130:C 0.000199934
21 *84:12 *17120:A1 4.18541e-05
22 *84:18 *17116:B 0.00022887
23 *84:18 *17119:A 0.000230568
24 *84:18 *17119:C 8.68147e-05
25 *84:18 *17175:A 3.51442e-05
26 *84:18 *92:40 0.000225374
27 *84:18 *93:23 4.51148e-05
28 *84:77 *17124:A1 4.43256e-05
29 *84:77 *17132:A1 2.89016e-05
30 *84:77 *85:30 0.000751502
31 *84:77 *102:73 0.000285678
32 *84:88 *17132:A1 0.000128154
33 *17114:A2 *17144:CLK 0
34 *17115:A *84:18 0.000224575
35 *17119:D *84:18 0.000152307
36 *17121:A *84:12 5.59938e-05
37 *17124:A2 *17147:CLK 0.000201127
38 *17124:A2 *84:77 9.66977e-05
39 *17125:A3 *84:77 9.90431e-05
40 *17125:B1 *84:77 9.90367e-05
41 *17132:A2 *17148:CLK 9.01238e-05
42 *17132:A2 *84:88 2.14474e-05
43 *17134:A1 *17150:CLK 2.85321e-05
44 *17134:A2 *17150:CLK 6.37275e-05
45 *17144:D *17144:CLK 0
46 *17145:D *84:18 4.84073e-05
47 *17146:D *17146:CLK 0
48 *17146:D *84:60 1.76039e-05
49 *17149:D *17149:CLK 0.000363837
50 *17150:D *17150:CLK 0.000117554
51 *54:18 *84:18 0.000181107
52 *66:23 *84:18 0
53 *70:10 *84:18 7.03295e-05
54 *72:8 *84:18 0.000167998
55 *72:26 *84:12 0.000526879
56 *72:26 *84:43 0.00061338
57 *72:26 *84:60 0.000359529
58 *72:32 *17147:CLK 1.41642e-05
59 *72:32 *84:60 9.03121e-05
60 *72:49 *84:77 0.000357883
61 *78:10 *17148:CLK 9.33907e-05
*RES
1 *17153:X *84:4 9.3 
2 *84:4 *84:12 14.875 
3 *84:12 *84:18 18.2679 
4 *84:18 *17144:CLK 20.2464 
5 *84:18 *17143:CLK 13.8 
6 *84:12 *17145:CLK 9.3 
7 *84:4 *84:43 5.875 
8 *84:43 *17146:CLK 19.9429 
9 *84:43 *84:60 11.4821 
10 *84:60 *17147:CLK 20.1393 
11 *84:60 *84:77 27.6071 
12 *84:77 *17148:CLK 18.7821 
13 *84:77 *84:88 2.25 
14 *84:88 *17149:CLK 18.0321 
15 *84:88 *17150:CLK 19.7643 
*END

*D_NET *85 0.085513
*CONN
*I *17129:B I *D sky130_fd_sc_hd__and3b_1
*I *116:DIODE I *D sky130_fd_sc_hd__diode_2
*I *17132:C1 I *D sky130_fd_sc_hd__o211a_1
*I *17120:B1 I *D sky130_fd_sc_hd__o21ai_1
*I *17117:B1 I *D sky130_fd_sc_hd__o21ai_1
*I *17114:B1 I *D sky130_fd_sc_hd__o21ai_1
*I *17109:B I *D sky130_fd_sc_hd__and3b_1
*I *17106:B I *D sky130_fd_sc_hd__and3b_1
*I *17100:B I *D sky130_fd_sc_hd__and3b_1
*I *17093:B1 I *D sky130_fd_sc_hd__o21ai_1
*I *17111:B1 I *D sky130_fd_sc_hd__o21ai_1
*I *17091:A I *D sky130_fd_sc_hd__inv_2
*I *17184:X O *D sky130_fd_sc_hd__clkbuf_8
*CAP
1 *17129:B 0
2 *116:DIODE 0
3 *17132:C1 0.000161193
4 *17120:B1 0
5 *17117:B1 0
6 *17114:B1 0
7 *17109:B 0
8 *17106:B 0
9 *17100:B 9.13786e-05
10 *17093:B1 0.00161557
11 *17111:B1 2.38731e-05
12 *17091:A 0
13 *17184:X 0
14 *85:98 0.00309439
15 *85:86 0.00222182
16 *85:84 0.00143159
17 *85:63 0.00193238
18 *85:51 0.00165875
19 *85:49 0.000744083
20 *85:39 0.000641669
21 *85:30 0.0019332
22 *85:20 0.0020313
23 *85:14 0.000327155
24 *85:12 0.0114777
25 *85:10 0.0113325
26 *85:8 0.0176451
27 *85:6 0.0176451
28 *17093:B1 *17092:A 1.39726e-05
29 *17093:B1 *17093:A1 1.60759e-05
30 *17093:B1 *17094:A1 5.04705e-05
31 *17093:B1 *17170:A 7.77652e-05
32 *17100:B *17098:B1 0
33 *17132:C1 *17133:A2 0.000127392
34 *17132:C1 *112:34 5.29944e-05
35 *85:14 *111:43 1.64621e-05
36 *85:20 *111:43 5.45307e-05
37 *85:20 *112:34 0.000106542
38 *85:39 *17120:A1 0.000491435
39 *85:49 *17117:A1 0.000241446
40 *85:49 *93:8 1.19402e-05
41 *85:49 *93:19 1.50087e-05
42 *85:51 *17114:A1 0.000188586
43 *85:51 *17175:A 5.52302e-05
44 *85:63 *17111:A1 5.59013e-05
45 *85:63 *90:20 9.25014e-06
46 *85:84 *17107:A 0.000274294
47 *85:84 *90:28 0.000126572
48 *85:98 *17172:A 0.000122047
49 *85:98 *88:14 3.60186e-05
50 *17096:B1 *17093:B1 0
51 *17096:B1 *17100:B 0
52 *17100:A_N *17100:B 0
53 *17106:A_N *85:86 0.000114902
54 *17111:A2 *17111:B1 9.71197e-05
55 *17112:B *85:63 2.84398e-05
56 *17112:B *85:84 5.74562e-05
57 *17114:A2 *85:51 0.000318101
58 *17114:A2 *85:63 0
59 *17115:B *85:51 1.92905e-05
60 *17115:B *85:63 7.6644e-05
61 *17117:A2 *85:49 3.18676e-05
62 *17118:A *85:49 0.000118274
63 *17118:B *85:49 2.42577e-05
64 *17118:B *85:51 7.43578e-06
65 *17121:B *85:39 0.000314132
66 *17124:A2 *85:30 1.21258e-05
67 *17129:A_N *85:12 0.000169817
68 *17129:A_N *85:14 0.000186765
69 *17131:C *17132:C1 9.25014e-06
70 *17135:CLK *17093:B1 0
71 *17136:CLK *17093:B1 0.000197094
72 *17137:D *17093:B1 3.63866e-05
73 *17138:D *17100:B 5.80706e-06
74 *17139:D *85:98 5.95099e-05
75 *17140:D *85:98 2.89016e-05
76 *17142:D *85:63 1.76204e-05
77 *17142:D *85:84 0
78 *17151:A *85:63 0.000175251
79 *17152:A *17111:B1 7.6696e-05
80 *17152:A *85:63 0.000601135
81 *17153:A *85:39 6.42095e-05
82 *17153:A *85:63 0.000207903
83 *3:9 *85:63 0.000318107
84 *54:18 *85:39 0.000223195
85 *54:28 *85:84 5.81579e-05
86 *54:40 *17093:B1 0.000102197
87 *59:55 *85:86 0.00075035
88 *66:8 *85:84 9.71197e-05
89 *72:26 *85:39 0.00075521
90 *80:10 *17132:C1 0.000357037
91 *83:24 *85:98 0.000216311
92 *83:26 *85:98 0.000171023
93 *83:32 *85:98 0.00032505
94 *83:51 *17093:B1 0.00017871
95 *84:77 *85:30 0.000751502
*RES
1 *17184:X *85:6 13.8 
2 *85:6 *85:8 326.161 
3 *85:8 *85:10 4.5 
4 *85:10 *85:12 132.375 
5 *85:12 *85:14 2.17857 
6 *85:14 *85:20 8 
7 *85:20 *85:30 35.3929 
8 *85:30 *17091:A 9.3 
9 *85:30 *85:39 11.6429 
10 *85:39 *85:49 17.2321 
11 *85:49 *85:51 7.92857 
12 *85:51 *85:63 33.4464 
13 *85:63 *17111:B1 14.7464 
14 *85:63 *85:84 22.0536 
15 *85:84 *85:86 11.625 
16 *85:86 *85:98 26.3571 
17 *85:98 *17093:B1 37.175 
18 *85:98 *17100:B 15.4429 
19 *85:86 *17106:B 9.3 
20 *85:84 *17109:B 9.3 
21 *85:51 *17114:B1 9.3 
22 *85:49 *17117:B1 9.3 
23 *85:39 *17120:B1 9.3 
24 *85:20 *17132:C1 18.8536 
25 *85:14 *116:DIODE 9.3 
26 *85:12 *17129:B 9.3 
*END

*D_NET *86 0.00389551
*CONN
*I *17098:A3 I *D sky130_fd_sc_hd__a31o_1
*I *17099:C I *D sky130_fd_sc_hd__and4_2
*I *17183:A I *D sky130_fd_sc_hd__dlygate4sd3_1
*I *17185:A I *D sky130_fd_sc_hd__buf_1
*I *17096:A3 I *D sky130_fd_sc_hd__a31o_1
*I *17137:Q O *D sky130_fd_sc_hd__dfxtp_1
*CAP
1 *17098:A3 0.000280801
2 *17099:C 0.000181582
3 *17183:A 0
4 *17185:A 0.000260035
5 *17096:A3 0
6 *17137:Q 0
7 *86:36 0.000353573
8 *86:19 0.000549995
9 *86:10 0.00047294
10 *86:4 0.000635772
11 *17098:A3 *17094:A1 2.34204e-05
12 *17098:A3 *17098:B1 1.74352e-05
13 *17098:A3 *115:66 0.000304146
14 *17099:C *17094:A1 7.62237e-05
15 *17099:C *94:34 2.85234e-05
16 *17099:C *94:43 9.86486e-06
17 *17185:A *17096:A1 3.42301e-05
18 *86:10 *17096:A1 5.37741e-06
19 *86:10 *17097:A 0
20 *86:19 *17096:A1 8.54714e-05
21 *86:19 *17097:A 0
22 *86:36 *17094:A1 0.000140804
23 *86:36 *17095:B1 5.49489e-05
24 *17100:C *17098:A3 1.97695e-05
25 *17137:D *86:10 0
26 *83:51 *86:10 0.000360601
*RES
1 *17137:Q *86:4 9.3 
2 *86:4 *86:10 9.85714 
3 *86:10 *17096:A3 13.8 
4 *86:10 *86:19 2.25 
5 *86:19 *17185:A 18.1214 
6 *86:19 *86:36 8.03571 
7 *86:36 *17183:A 9.3 
8 *86:36 *17099:C 12.7286 
9 *86:4 *17098:A3 23.0679 
*END

*D_NET *87 0.00159543
*CONN
*I *17186:A I *D sky130_fd_sc_hd__buf_1
*I *17099:D I *D sky130_fd_sc_hd__and4_2
*I *17098:B1 I *D sky130_fd_sc_hd__a31o_1
*I *17138:Q O *D sky130_fd_sc_hd__dfxtp_1
*CAP
1 *17186:A 0.000162536
2 *17099:D 4.43664e-05
3 *17098:B1 0.000139123
4 *17138:Q 0
5 *87:8 0.000297216
6 *87:4 0.000276262
7 *17098:B1 *17099:B 7.78928e-05
8 *17098:B1 *115:66 5.17614e-05
9 *17099:D *17099:B 2.37944e-05
10 *17096:B1 *17098:B1 0.000190462
11 *17098:A3 *17098:B1 1.74352e-05
12 *17100:B *17098:B1 0
13 *17138:D *17098:B1 0
14 *17138:D *17186:A 5.65962e-05
15 *17138:D *87:8 2.85321e-05
16 *59:6 *17186:A 4.38128e-05
17 *59:6 *87:8 0.000185643
*RES
1 *17138:Q *87:4 9.3 
2 *87:4 *87:8 7.08929 
3 *87:8 *17098:B1 17.5143 
4 *87:8 *17099:D 14.5321 
5 *87:4 *17186:A 21.6929 
*END

*D_NET *88 0.00514897
*CONN
*I *17172:A I *D sky130_fd_sc_hd__dlygate4sd3_1
*I *17187:A I *D sky130_fd_sc_hd__buf_1
*I *17104:A I *D sky130_fd_sc_hd__and2_1
*I *17103:A1 I *D sky130_fd_sc_hd__a21o_1
*I *17101:A1 I *D sky130_fd_sc_hd__a21oi_1
*I *17139:Q O *D sky130_fd_sc_hd__dfxtp_1
*CAP
1 *17172:A 0.000245471
2 *17187:A 9.59764e-05
3 *17104:A 9.39492e-05
4 *17103:A1 0
5 *17101:A1 3.92662e-05
6 *17139:Q 0
7 *88:25 0.000914454
8 *88:16 0.000859771
9 *88:14 0.000494872
10 *88:4 0.000644367
11 *17102:B1 *88:14 7.83587e-05
12 *54:28 *17104:A 1.4796e-05
13 *54:40 *88:14 2.13968e-05
14 *59:32 *17101:A1 5.49995e-05
15 *59:32 *17104:A 7.85423e-05
16 *59:32 *88:25 0.00130054
17 *83:24 *88:14 5.41494e-05
18 *85:98 *17172:A 0.000122047
19 *85:98 *88:14 3.60186e-05
*RES
1 *17139:Q *88:4 9.3 
2 *88:4 *88:14 10.7143 
3 *88:14 *88:16 4.5 
4 *88:16 *17101:A1 9.83571 
5 *88:16 *88:25 12.4464 
6 *88:25 *17103:A1 9.3 
7 *88:25 *17104:A 10.9786 
8 *88:14 *17187:A 15.4429 
9 *88:4 *17172:A 13.0321 
*END

*D_NET *89 0.00162479
*CONN
*I *17104:B I *D sky130_fd_sc_hd__and2_1
*I *17188:A I *D sky130_fd_sc_hd__buf_1
*I *17103:B1 I *D sky130_fd_sc_hd__a21o_1
*I *17140:Q O *D sky130_fd_sc_hd__dfxtp_1
*CAP
1 *17104:B 0.000250912
2 *17188:A 0
3 *17103:B1 0
4 *17140:Q 0.000306848
5 *89:21 0.000354369
6 *89:10 0.000410304
7 *17105:A *89:10 6.26559e-05
8 *17105:B *17104:B 3.45899e-05
9 *17106:C *89:10 0
10 *17140:D *89:10 0
11 *59:36 *17104:B 3.67279e-06
12 *59:36 *89:10 5.49114e-05
13 *59:36 *89:21 3.67279e-06
14 *83:14 *89:10 0.00014285
*RES
1 *17140:Q *89:10 19.5321 
2 *89:10 *17103:B1 13.8 
3 *89:10 *89:21 6.75 
4 *89:21 *17188:A 9.3 
5 *89:21 *17104:B 23.1393 
*END

*D_NET *90 0.00431065
*CONN
*I *17108:A I *D sky130_fd_sc_hd__and3_1
*I *17189:A I *D sky130_fd_sc_hd__buf_1
*I *17110:A I *D sky130_fd_sc_hd__and4_1
*I *17107:A I *D sky130_fd_sc_hd__or2_1
*I *17141:Q O *D sky130_fd_sc_hd__dfxtp_1
*CAP
1 *17108:A 0
2 *17189:A 0.000207102
3 *17110:A 0
4 *17107:A 0.00043693
5 *17141:Q 0.000368766
6 *90:28 0.000465806
7 *90:24 0.000361088
8 *90:20 0.000493876
9 *90:20 *17111:A1 0.000132541
10 *17105:B *17107:A 0
11 *17106:A_N *17107:A 0
12 *17107:B *17107:A 0
13 *17108:C *17189:A 5.36422e-05
14 *17108:C *90:20 5.80504e-05
15 *17108:C *90:24 0.00019369
16 *17110:C *17189:A 2.07809e-05
17 *17110:C *90:24 4.75008e-05
18 *17141:D *17107:A 0
19 *17142:CLK *90:20 0.000186669
20 *17152:A *90:20 0.000158139
21 *54:28 *17107:A 0.000576618
22 *54:28 *90:28 0.000139338
23 *85:63 *90:20 9.25014e-06
24 *85:84 *17107:A 0.000274294
25 *85:84 *90:28 0.000126572
*RES
1 *17141:Q *90:20 26.4071 
2 *90:20 *90:24 7.05357 
3 *90:24 *90:28 5.85714 
4 *90:28 *17107:A 28.1393 
5 *90:28 *17110:A 9.3 
6 *90:24 *17189:A 17.1929 
7 *90:20 *17108:A 9.3 
*END

*D_NET *91 0.00298646
*CONN
*I *17190:A I *D sky130_fd_sc_hd__buf_1
*I *17110:B I *D sky130_fd_sc_hd__and4_1
*I *17180:A I *D sky130_fd_sc_hd__dlygate4sd3_1
*I *17142:Q O *D sky130_fd_sc_hd__dfxtp_1
*CAP
1 *17190:A 9.59764e-05
2 *17110:B 0.000699964
3 *17180:A 0.000243763
4 *17142:Q 0
5 *91:19 0.000959149
6 *91:6 0.000406972
7 *17112:B *17110:B 0.000123932
8 *3:5 *17180:A 0
9 *54:28 *17110:B 2.4652e-05
10 *62:21 *17110:B 9.75679e-05
11 *66:8 *17110:B 1.97617e-05
12 *66:19 *17110:B 0.000314725
*RES
1 *17142:Q *91:6 13.8 
2 *91:6 *17180:A 17.9071 
3 *91:6 *91:19 2.55357 
4 *91:19 *17110:B 23.7821 
5 *91:19 *17190:A 15.4429 
*END

*D_NET *92 0.00411159
*CONN
*I *17113:A I *D sky130_fd_sc_hd__and2_1
*I *17116:A I *D sky130_fd_sc_hd__and3_1
*I *17119:A I *D sky130_fd_sc_hd__and4_2
*I *17175:A I *D sky130_fd_sc_hd__dlygate4sd3_1
*I *17191:A I *D sky130_fd_sc_hd__buf_1
*I *17143:Q O *D sky130_fd_sc_hd__dfxtp_1
*CAP
1 *17113:A 0
2 *17116:A 0
3 *17119:A 5.33679e-05
4 *17175:A 0.000144412
5 *17191:A 0.000209019
6 *17143:Q 0.000162245
7 *92:40 0.00024498
8 *92:23 0.000336024
9 *92:21 0.000394868
10 *92:6 0.000766132
11 *17115:A *92:40 0.000183711
12 *17115:B *17191:A 4.67673e-05
13 *17117:A2 *17175:A 0
14 *17119:D *17119:A 6.74025e-05
15 *17143:D *17191:A 7.6644e-05
16 *17144:CLK *17175:A 0.00017309
17 *17153:A *92:6 8.71847e-05
18 *17153:A *92:21 0.000170819
19 *54:18 *17175:A 2.88424e-05
20 *54:18 *92:40 5.21026e-05
21 *66:23 *17191:A 0
22 *66:51 *17119:A 5.18481e-05
23 *66:51 *92:40 0.000315812
24 *84:18 *17119:A 0.000230568
25 *84:18 *17175:A 3.51442e-05
26 *84:18 *92:40 0.000225374
27 *85:51 *17175:A 5.52302e-05
*RES
1 *17143:Q *92:6 11.4786 
2 *92:6 *17191:A 22.3714 
3 *92:6 *92:21 5.375 
4 *92:21 *92:23 4.5 
5 *92:23 *17175:A 16.8893 
6 *92:23 *92:40 10.3571 
7 *92:40 *17119:A 11.9071 
8 *92:40 *17116:A 9.3 
9 *92:21 *17113:A 9.3 
*END

*D_NET *93 0.00248159
*CONN
*I *17192:A I *D sky130_fd_sc_hd__buf_1
*I *17119:B I *D sky130_fd_sc_hd__and4_2
*I *17116:B I *D sky130_fd_sc_hd__and3_1
*I *17181:A I *D sky130_fd_sc_hd__dlygate4sd3_1
*I *17144:Q O *D sky130_fd_sc_hd__dfxtp_1
*CAP
1 *17192:A 0.000177961
2 *17119:B 0
3 *17116:B 0.000136278
4 *17181:A 3.72704e-05
5 *17144:Q 9.24397e-05
6 *93:23 0.000184397
7 *93:19 0.000483558
8 *93:8 0.000387188
9 *93:23 *17119:C 0.000141935
10 *17118:A *93:19 0.000218026
11 *17119:D *93:23 9.84729e-05
12 *17121:B *93:19 0
13 *17144:D *93:8 0
14 *70:10 *17116:B 0.000144773
15 *70:10 *93:19 7.83587e-05
16 *84:18 *17116:B 0.00022887
17 *84:18 *93:23 4.51148e-05
18 *85:49 *93:8 1.19402e-05
19 *85:49 *93:19 1.50087e-05
*RES
1 *17144:Q *93:8 15.4429 
2 *93:8 *17181:A 14.3357 
3 *93:8 *93:19 5.58929 
4 *93:19 *93:23 6.26786 
5 *93:23 *17116:B 21.9429 
6 *93:23 *17119:B 9.3 
7 *93:19 *17192:A 16.6929 
*END

*D_NET *94 0.00959005
*CONN
*I *17096:A1 I *D sky130_fd_sc_hd__a31o_1
*I *17095:A1 I *D sky130_fd_sc_hd__a21oi_1
*I *17193:A I *D sky130_fd_sc_hd__buf_1
*I *17093:A1 I *D sky130_fd_sc_hd__o21ai_1
*I *17099:A I *D sky130_fd_sc_hd__and4_2
*I *17098:A1 I *D sky130_fd_sc_hd__a31o_1
*I *17170:A I *D sky130_fd_sc_hd__dlygate4sd3_1
*I *17135:Q O *D sky130_fd_sc_hd__dfxtp_2
*CAP
1 *17096:A1 0.000189619
2 *17095:A1 2.13113e-05
3 *17193:A 0.00105751
4 *17093:A1 0.000310664
5 *17099:A 0
6 *17098:A1 0
7 *17170:A 2.68741e-05
8 *17135:Q 0.000575027
9 *94:57 0.00158238
10 *94:53 0.00065482
11 *94:43 0.00091834
12 *94:34 0.000431789
13 *94:21 0.000267088
14 *94:10 0.00074662
15 *17093:A1 *17093:A2 6.58425e-05
16 *17093:A1 *17136:D 0
17 *17170:A *17094:A1 9.90367e-05
18 *94:21 *17094:A1 8.59056e-05
19 *94:21 *17099:B 1.02504e-05
20 *94:34 *17094:A1 0.00012028
21 *94:34 *17099:B 0.000221133
22 *94:43 *17094:A1 0.000388224
23 *94:53 *17094:A1 0.000474248
24 *94:53 *17095:B1 5.49995e-05
25 *94:57 *17094:A1 1.4796e-05
26 *94:57 *17136:D 2.89114e-05
27 *94:57 *115:33 0.000531453
28 count[1] *17193:A 1.52013e-05
29 *17093:B1 *17093:A1 1.60759e-05
30 *17093:B1 *17170:A 7.77652e-05
31 *17094:B1 *17093:A1 0.00031294
32 *17094:B1 *17193:A 4.48383e-05
33 *17099:C *94:34 2.85234e-05
34 *17099:C *94:43 9.86486e-06
35 *17135:CLK *94:10 0
36 *17135:CLK *94:21 0
37 *17135:D *94:10 1.51611e-06
38 *17136:CLK *17093:A1 0
39 *17171:A *94:53 5.66971e-05
40 *17185:A *17096:A1 3.42301e-05
41 *83:32 *94:21 0
42 *83:51 *17170:A 2.44318e-05
43 *86:10 *17096:A1 5.37741e-06
44 *86:19 *17096:A1 8.54714e-05
*RES
1 *17135:Q *94:10 20.4964 
2 *94:10 *17170:A 15.1571 
3 *94:10 *94:21 2.55357 
4 *94:21 *17098:A1 13.8 
5 *94:21 *94:34 8.19643 
6 *94:34 *17099:A 9.3 
7 *94:34 *94:43 4.66071 
8 *94:43 *94:53 15.625 
9 *94:53 *94:57 9.96429 
10 *94:57 *17093:A1 20.3714 
11 *94:57 *17193:A 30.5679 
12 *94:53 *17095:A1 9.72857 
13 *94:43 *17096:A1 21.4607 
*END

*D_NET *95 0.00272118
*CONN
*I *17194:A I *D sky130_fd_sc_hd__buf_1
*I *17177:A I *D sky130_fd_sc_hd__dlygate4sd3_1
*I *17119:C I *D sky130_fd_sc_hd__and4_2
*I *17145:Q O *D sky130_fd_sc_hd__dfxtp_1
*CAP
1 *17194:A 7.15637e-05
2 *17177:A 0.000106546
3 *17119:C 0.000804737
4 *17145:Q 4.41035e-05
5 *95:19 0.000278736
6 *95:6 0.000949467
7 count[10] *17177:A 3.69047e-06
8 count[10] *17194:A 1.84865e-05
9 *17145:D *17119:C 0.000215101
10 *84:18 *17119:C 8.68147e-05
11 *93:23 *17119:C 0.000141935
*RES
1 *17145:Q *95:6 9.83571 
2 *95:6 *17119:C 19.6929 
3 *95:6 *95:19 10.6429 
4 *95:19 *17177:A 11.0679 
5 *95:19 *17194:A 10.6571 
*END

*D_NET *96 0.00557523
*CONN
*I *17092:A I *D sky130_fd_sc_hd__nor2_1
*I *17094:A1 I *D sky130_fd_sc_hd__a21oi_1
*I *17170:X O *D sky130_fd_sc_hd__dlygate4sd3_1
*CAP
1 *17092:A 1.42968e-05
2 *17094:A1 0.0012762
3 *17170:X 2.23854e-05
4 *96:6 0.00131289
5 *17094:A1 *17094:A2 0.000143633
6 *17094:A1 *17095:B1 0.000484405
7 *17094:A1 *115:33 0.00030213
8 *17093:B1 *17092:A 1.39726e-05
9 *17093:B1 *17094:A1 5.04705e-05
10 *17094:B1 *17094:A1 0.000249145
11 *17098:A3 *17094:A1 2.34204e-05
12 *17099:C *17094:A1 7.62237e-05
13 *17170:A *17094:A1 9.90367e-05
14 *83:51 *17092:A 5.52238e-05
15 *83:51 *17094:A1 0.000227539
16 *86:36 *17094:A1 0.000140804
17 *94:21 *17094:A1 8.59056e-05
18 *94:34 *17094:A1 0.00012028
19 *94:43 *17094:A1 0.000388224
20 *94:53 *17094:A1 0.000474248
21 *94:57 *17094:A1 1.4796e-05
*RES
1 *17170:X *96:6 9.72857 
2 *96:6 *17094:A1 45.7464 
3 *96:6 *17092:A 9.83571 
*END

*D_NET *97 0.00136666
*CONN
*I *17090:A I *D sky130_fd_sc_hd__inv_2
*I *17176:X O *D sky130_fd_sc_hd__dlygate4sd3_1
*CAP
1 *17090:A 0.000417612
2 *17176:X 0.000417612
3 *17090:A *112:26 0.000446215
4 *17150:CLK *17090:A 5.66971e-05
5 *17150:D *17090:A 2.85234e-05
*RES
1 *17176:X *17090:A 34.0107 
*END

*D_NET *98 0.00154608
*CONN
*I *17120:A1 I *D sky130_fd_sc_hd__o21ai_1
*I *17177:X O *D sky130_fd_sc_hd__dlygate4sd3_1
*CAP
1 *17120:A1 0.000327548
2 *17177:X 0.000327548
3 *17153:A *17120:A1 0.000186669
4 *54:18 *17120:A1 0.000171023
5 *72:26 *17120:A1 0
6 *84:12 *17120:A1 4.18541e-05
7 *85:39 *17120:A1 0.000491435
*RES
1 *17177:X *17120:A1 36.6179 
*END

*D_NET *99 0.000362935
*CONN
*I *17094:A2 I *D sky130_fd_sc_hd__a21oi_1
*I *17178:X O *D sky130_fd_sc_hd__dlygate4sd3_1
*CAP
1 *17094:A2 8.13028e-05
2 *17178:X 8.13028e-05
3 *17094:A1 *17094:A2 0.000143633
4 *17094:B1 *17094:A2 5.66971e-05
*RES
1 *17178:X *17094:A2 20.7964 
*END

*D_NET *100 0.000468029
*CONN
*I *17136:D I *D sky130_fd_sc_hd__dfxtp_1
*I *17179:X O *D sky130_fd_sc_hd__dlygate4sd3_1
*CAP
1 *17136:D 0.000198472
2 *17179:X 0.000198472
3 *17136:D *115:21 3.29239e-05
4 *17093:A1 *17136:D 0
5 *17136:CLK *17136:D 9.25014e-06
6 *94:57 *17136:D 2.89114e-05
*RES
1 *17179:X *17136:D 30.9393 
*END

*D_NET *101 0.000965971
*CONN
*I *17111:A1 I *D sky130_fd_sc_hd__o21ai_1
*I *17180:X O *D sky130_fd_sc_hd__dlygate4sd3_1
*CAP
1 *17111:A1 0.000308767
2 *17180:X 0.000308767
3 *17142:CLK *17111:A1 0.000159994
4 *85:63 *17111:A1 5.59013e-05
5 *90:20 *17111:A1 0.000132541
*RES
1 *17180:X *17111:A1 32.6536 
*END

*D_NET *102 0.00531797
*CONN
*I *17133:A1 I *D sky130_fd_sc_hd__a41o_1
*I *17131:A I *D sky130_fd_sc_hd__nand3_1
*I *17125:A1 I *D sky130_fd_sc_hd__a31o_1
*I *17124:A1 I *D sky130_fd_sc_hd__a21oi_1
*I *17127:A1 I *D sky130_fd_sc_hd__a31o_1
*I *17128:A I *D sky130_fd_sc_hd__and4_1
*I *17122:A1 I *D sky130_fd_sc_hd__a21oi_1
*I *17174:A I *D sky130_fd_sc_hd__dlygate4sd3_1
*I *17195:A I *D sky130_fd_sc_hd__buf_1
*I *17146:Q O *D sky130_fd_sc_hd__dfxtp_2
*CAP
1 *17133:A1 0
2 *17131:A 0
3 *17125:A1 2.23854e-05
4 *17124:A1 0.000270532
5 *17127:A1 0
6 *17128:A 4.8804e-05
7 *17122:A1 0
8 *17174:A 2.13113e-05
9 *17195:A 0.00015177
10 *17146:Q 0.000145923
11 *102:73 0.000574749
12 *102:53 0.000113132
13 *102:51 0.00050238
14 *102:45 0.000259092
15 *102:43 0.000320306
16 *102:32 0.000305526
17 *102:23 0.000195315
18 *102:8 0.000383605
19 *17124:A1 *17125:A2 0
20 *17128:A *17127:B1 0.000149911
21 *17128:A *111:12 0.000125731
22 *17128:A *112:34 1.3142e-05
23 *102:43 *17133:A2 2.71964e-05
24 *102:45 *17133:A2 6.56104e-05
25 *102:45 *112:34 3.01126e-05
26 *102:51 *112:34 0.000112088
27 *102:53 *111:12 3.34295e-05
28 *102:53 *112:34 7.48356e-05
29 *17122:A2 *102:32 9.33013e-06
30 *17122:A2 *102:43 3.06561e-05
31 *17122:B1 *102:32 5.49995e-05
32 *17125:A3 *17124:A1 8.76257e-05
33 *17125:B1 *102:73 0.00010096
34 *17126:B *17124:A1 8.16036e-05
35 *17133:A3 *102:43 1.12713e-05
36 *17133:B1 *102:43 9.28237e-05
37 *17134:B1 *102:43 0.000141935
38 *17147:D *17124:A1 6.05161e-06
39 *54:86 *102:45 0
40 *54:86 *102:51 0
41 *72:49 *17124:A1 9.90431e-05
42 *72:65 *102:51 8.24047e-05
43 *72:65 *102:53 8.66324e-05
44 *72:102 *102:8 6.05161e-06
45 *72:102 *102:23 9.40308e-05
46 *72:102 *102:32 5.56632e-05
47 *84:77 *17124:A1 4.43256e-05
48 *84:77 *102:73 0.000285678
*RES
1 *17146:Q *102:8 11.4964 
2 *102:8 *17195:A 20.7821 
3 *102:8 *102:23 1.76786 
4 *102:23 *17174:A 9.72857 
5 *102:23 *102:32 1.76786 
6 *102:32 *17122:A1 9.3 
7 *102:32 *102:43 9.05357 
8 *102:43 *102:45 2.55357 
9 *102:45 *102:51 3.51786 
10 *102:51 *102:53 2.25 
11 *102:53 *17128:A 15.7464 
12 *102:53 *17127:A1 13.8 
13 *102:51 *102:73 10.375 
14 *102:73 *17124:A1 23.675 
15 *102:73 *17125:A1 9.72857 
16 *102:45 *17131:A 13.8 
17 *102:43 *17133:A1 13.8 
*END

*D_NET *103 0.000582292
*CONN
*I *17117:A1 I *D sky130_fd_sc_hd__o21ai_1
*I *17181:X O *D sky130_fd_sc_hd__dlygate4sd3_1
*CAP
1 *17117:A1 8.13701e-05
2 *17181:X 8.13701e-05
3 *17118:A *17117:A1 0.000135815
4 *17118:B *17117:A1 4.22908e-05
5 *85:49 *17117:A1 0.000241446
*RES
1 *17181:X *17117:A1 22.1714 
*END

*D_NET *104 0.00135828
*CONN
*I *17132:A1 I *D sky130_fd_sc_hd__o211a_1
*I *17182:X O *D sky130_fd_sc_hd__dlygate4sd3_1
*CAP
1 *17132:A1 0.00053568
2 *17182:X 0.00053568
3 *17132:A2 *17132:A1 0.000129868
4 *84:77 *17132:A1 2.89016e-05
5 *84:88 *17132:A1 0.000128154
*RES
1 *17182:X *17132:A1 35.1179 
*END

*D_NET *105 0.0010002
*CONN
*I *17095:B1 I *D sky130_fd_sc_hd__a21oi_1
*I *17183:X O *D sky130_fd_sc_hd__dlygate4sd3_1
*CAP
1 *17095:B1 9.06744e-05
2 *17183:X 9.06744e-05
3 *17094:A1 *17095:B1 0.000484405
4 *17171:A *17095:B1 0.0002245
5 *86:36 *17095:B1 5.49489e-05
6 *94:53 *17095:B1 5.49995e-05
*RES
1 *17183:X *17095:B1 23.2429 
*END

*D_NET *106 0.000545283
*CONN
*I *17097:A I *D sky130_fd_sc_hd__nor2_1
*I *17171:X O *D sky130_fd_sc_hd__dlygate4sd3_1
*CAP
1 *17097:A 0.000209763
2 *17171:X 0.000209763
3 *17097:A *115:27 0
4 *17097:A *115:60 1.92789e-05
5 *17136:CLK *17097:A 0
6 *17137:D *17097:A 7.43578e-06
7 *17171:A *17097:A 9.90431e-05
8 *86:10 *17097:A 0
9 *86:19 *17097:A 0
*RES
1 *17171:X *17097:A 31.0286 
*END

*D_NET *107 0.000606135
*CONN
*I *17102:A1 I *D sky130_fd_sc_hd__o21a_1
*I *17172:X O *D sky130_fd_sc_hd__dlygate4sd3_1
*CAP
1 *17102:A1 0.000239753
2 *17172:X 0.000239753
3 *17102:B1 *17102:A1 0
4 *17140:D *17102:A1 0
5 *83:24 *17102:A1 0.000126629
*RES
1 *17172:X *17102:A1 32.1357 
*END

*D_NET *108 0.000554162
*CONN
*I *17124:B1 I *D sky130_fd_sc_hd__a21oi_1
*I *17173:X O *D sky130_fd_sc_hd__dlygate4sd3_1
*CAP
1 *17124:B1 0.000133654
2 *17173:X 0.000133654
3 *17124:B1 *17125:A2 0.000105163
4 *17126:A *17124:B1 8.07313e-05
5 *17147:D *17124:B1 0.00010096
*RES
1 *17173:X *17124:B1 22.0107 
*END

*D_NET *109 0.000631177
*CONN
*I *17123:A1 I *D sky130_fd_sc_hd__o21a_1
*I *17174:X O *D sky130_fd_sc_hd__dlygate4sd3_1
*CAP
1 *17123:A1 0.000166622
2 *17174:X 0.000166622
3 *17123:B1 *17123:A1 0.000230432
4 *17146:D *17123:A1 0
5 *72:102 *17123:A1 6.75007e-05
*RES
1 *17174:X *17123:A1 31.4214 
*END

*D_NET *110 0.000320799
*CONN
*I *17114:A1 I *D sky130_fd_sc_hd__o21ai_1
*I *17175:X O *D sky130_fd_sc_hd__dlygate4sd3_1
*CAP
1 *17114:A1 6.61064e-05
2 *17175:X 6.61064e-05
3 *85:51 *17114:A1 0.000188586
*RES
1 *17175:X *17114:A1 20.3679 
*END

*D_NET *111 0.00533614
*CONN
*I *17128:B I *D sky130_fd_sc_hd__and4_1
*I *17196:A I *D sky130_fd_sc_hd__buf_1
*I *17130:A I *D sky130_fd_sc_hd__and3_1
*I *17127:A2 I *D sky130_fd_sc_hd__a31o_1
*I *17173:A I *D sky130_fd_sc_hd__dlygate4sd3_1
*I *17125:A2 I *D sky130_fd_sc_hd__a31o_1
*I *17147:Q O *D sky130_fd_sc_hd__dfxtp_1
*CAP
1 *17128:B 4.51081e-05
2 *17196:A 0.000184642
3 *17130:A 7.0247e-05
4 *17127:A2 0
5 *17173:A 0
6 *17125:A2 0.00037502
7 *17147:Q 0.000390078
8 *111:43 0.000822345
9 *111:14 0.000503755
10 *111:12 0.0007473
11 *111:6 0.000486296
12 *17128:B *17127:B1 2.14658e-05
13 *17128:B *17128:C 6.05161e-06
14 *17130:A *17130:C 0.000141729
15 *17196:A *112:26 9.83388e-05
16 *111:6 *17127:B1 5.33433e-05
17 *111:12 *112:34 0.000148911
18 *111:43 *112:34 0
19 *17124:A1 *17125:A2 0
20 *17124:B1 *17125:A2 0.000105163
21 *17125:B1 *17125:A2 0
22 *17126:B *17125:A2 4.57538e-05
23 *17128:A *111:12 0.000125731
24 *17128:D *111:43 2.59355e-05
25 *17129:A_N *111:43 0.000228508
26 *17129:C *111:43 0.000172852
27 *17131:C *111:43 0
28 *17132:A2 *111:43 9.46298e-05
29 *17134:A2 *111:43 9.85397e-05
30 *17134:B1 *17130:A 0.000143375
31 *72:53 *17125:A2 2.8266e-06
32 *72:65 *111:14 6.57032e-05
33 *72:65 *111:43 1.98839e-05
34 *78:10 *111:43 8.18233e-06
35 *85:14 *111:43 1.64621e-05
36 *85:20 *111:43 5.45307e-05
37 *102:53 *111:12 3.34295e-05
*RES
1 *17147:Q *111:6 13.9429 
2 *111:6 *111:12 10.9464 
3 *111:12 *111:14 2.17857 
4 *111:14 *17125:A2 25.1929 
5 *111:14 *17173:A 9.3 
6 *111:12 *17127:A2 9.3 
7 *111:12 *111:43 16.7054 
8 *111:43 *17130:A 15.9696 
9 *111:43 *17196:A 16.8446 
10 *111:6 *17128:B 9.83571 
*END

*D_NET *112 0.00743093
*CONN
*I *17197:A I *D sky130_fd_sc_hd__buf_1
*I *17130:B I *D sky130_fd_sc_hd__and3_1
*I *17128:C I *D sky130_fd_sc_hd__and4_1
*I *17127:B1 I *D sky130_fd_sc_hd__a31o_1
*I *17148:Q O *D sky130_fd_sc_hd__dfxtp_1
*CAP
1 *17197:A 0
2 *17130:B 3.48142e-05
3 *17128:C 2.56867e-05
4 *17127:B1 0.000146475
5 *17148:Q 0.000893471
6 *112:34 0.000593668
7 *112:26 0.00148556
8 *112:12 0.00192271
9 *112:12 *17130:C 7.6644e-05
10 *112:12 *17133:A2 0
11 *112:12 *17182:A 0.000250915
12 *112:26 *17133:A2 2.3942e-05
13 *112:26 *17199:A 9.2815e-05
14 *112:26 *114:31 5.50052e-05
15 *112:34 *17133:A2 7.83659e-05
16 count[12] *112:26 1.48543e-05
17 count[13] *112:26 1.04766e-05
18 *17090:A *112:26 0.000446215
19 *17128:A *17127:B1 0.000149911
20 *17128:A *112:34 1.3142e-05
21 *17128:B *17127:B1 2.14658e-05
22 *17128:B *17128:C 6.05161e-06
23 *17128:D *17128:C 7.43578e-06
24 *17128:D *112:34 0.000101545
25 *17131:C *112:26 3.9031e-05
26 *17131:C *112:34 0.000148903
27 *17132:C1 *112:34 5.29944e-05
28 *17133:A3 *112:34 1.24368e-05
29 *17134:B1 *17130:B 1.83136e-05
30 *17134:B1 *112:34 2.16266e-05
31 *17196:A *112:26 9.83388e-05
32 *72:65 *17127:B1 3.34366e-05
33 *79:8 *112:34 2.88431e-05
34 *85:20 *112:34 0.000106542
35 *102:45 *112:34 3.01126e-05
36 *102:51 *112:34 0.000112088
37 *102:53 *112:34 7.48356e-05
38 *111:6 *17127:B1 5.33433e-05
39 *111:12 *112:34 0.000148911
40 *111:43 *112:34 0
*RES
1 *17148:Q *112:12 33.0679 
2 *112:12 *112:26 27.8571 
3 *112:26 *112:34 19.2857 
4 *112:34 *17127:B1 21.9071 
5 *112:34 *17128:C 9.83571 
6 *112:26 *17130:B 9.83571 
7 *112:12 *17197:A 9.3 
*END

*D_NET *113 0.00588331
*CONN
*I *17198:A I *D sky130_fd_sc_hd__buf_1
*I *17130:C I *D sky130_fd_sc_hd__and3_1
*I *17182:A I *D sky130_fd_sc_hd__dlygate4sd3_1
*I *17149:Q O *D sky130_fd_sc_hd__dfxtp_1
*CAP
1 *17198:A 0.00100575
2 *17130:C 0.0011891
3 *17182:A 0.000176556
4 *17149:Q 0
5 *113:8 0.00149381
6 *113:4 0.00113391
7 *17130:C *114:8 1.96027e-05
8 *17130:A *17130:C 0.000141729
9 *17134:A1 *17130:C 2.07382e-05
10 *17134:A2 *17130:C 4.73724e-05
11 *17134:B1 *17130:C 7.90297e-05
12 *17150:CLK *17130:C 0.000199934
13 *17150:D *17130:C 4.82181e-05
14 *112:12 *17130:C 7.6644e-05
15 *112:12 *17182:A 0.000250915
*RES
1 *17149:Q *113:4 9.3 
2 *113:4 *113:8 5.85714 
3 *113:8 *17182:A 17.9071 
4 *113:8 *17130:C 30.6036 
5 *113:4 *17198:A 31.5321 
*END

*D_NET *114 0.00680278
*CONN
*I *17199:A I *D sky130_fd_sc_hd__buf_1
*I *17176:A I *D sky130_fd_sc_hd__dlygate4sd3_1
*I *17133:A2 I *D sky130_fd_sc_hd__a41o_1
*I *17150:Q O *D sky130_fd_sc_hd__dfxtp_1
*CAP
1 *17199:A 0.00128959
2 *17176:A 0
3 *17133:A2 0.00133714
4 *17150:Q 0.000191168
5 *114:31 0.00141612
6 *114:8 0.00165483
7 count[13] *17199:A 5.4959e-05
8 count[13] *114:31 1.35553e-05
9 count[14] *17199:A 3.11088e-05
10 count[15] *17199:A 3.11088e-05
11 *17130:C *114:8 1.96027e-05
12 *17131:C *17133:A2 3.98352e-05
13 *17132:C1 *17133:A2 0.000127392
14 *17149:CLK *17133:A2 0.000176208
15 *17149:D *17133:A2 3.52992e-05
16 *80:10 *17133:A2 4.19206e-05
17 *102:43 *17133:A2 2.71964e-05
18 *102:45 *17133:A2 6.56104e-05
19 *112:12 *17133:A2 0
20 *112:26 *17133:A2 2.3942e-05
21 *112:26 *17199:A 9.2815e-05
22 *112:26 *114:31 5.50052e-05
23 *112:34 *17133:A2 7.83659e-05
*RES
1 *17150:Q *114:8 15.9786 
2 *114:8 *17133:A2 41.9964 
3 *114:8 *114:31 6.67857 
4 *114:31 *17176:A 9.3 
5 *114:31 *17199:A 32.8714 
*END

*D_NET *115 0.0072407
*CONN
*I *17096:A2 I *D sky130_fd_sc_hd__a31o_1
*I *17098:A2 I *D sky130_fd_sc_hd__a31o_1
*I *17099:B I *D sky130_fd_sc_hd__and4_2
*I *17095:A2 I *D sky130_fd_sc_hd__a21oi_1
*I *17178:A I *D sky130_fd_sc_hd__dlygate4sd3_1
*I *17200:A I *D sky130_fd_sc_hd__buf_1
*I *17093:A2 I *D sky130_fd_sc_hd__o21ai_1
*I *17136:Q O *D sky130_fd_sc_hd__dfxtp_1
*CAP
1 *17096:A2 0
2 *17098:A2 0
3 *17099:B 8.84772e-05
4 *17095:A2 0
5 *17178:A 0
6 *17200:A 0.000193393
7 *17093:A2 0.000173098
8 *17136:Q 0.000263236
9 *115:66 0.000358301
10 *115:60 0.000753532
11 *115:33 0.000338782
12 *115:27 0.000285594
13 *115:21 0.00114019
14 *115:6 0.000952609
15 *17093:A1 *17093:A2 6.58425e-05
16 *17094:A1 *115:33 0.00030213
17 *17094:B1 *17093:A2 0.000197929
18 *17094:B1 *17200:A 0.000165398
19 *17094:B1 *115:33 8.39976e-05
20 *17096:B1 *17099:B 0
21 *17096:B1 *115:66 0.000206649
22 *17097:A *115:27 0
23 *17097:A *115:60 1.92789e-05
24 *17097:B *115:60 0.000129595
25 *17098:A3 *115:66 0.000304146
26 *17098:B1 *17099:B 7.78928e-05
27 *17098:B1 *115:66 5.17614e-05
28 *17099:D *17099:B 2.37944e-05
29 *17136:D *115:21 3.29239e-05
30 *17137:D *115:60 3.61629e-06
31 *17179:A *17200:A 0.000186765
32 *17179:A *115:33 7.48035e-05
33 *83:32 *17099:B 4.1331e-06
34 *94:21 *17099:B 1.02504e-05
35 *94:34 *17099:B 0.000221133
36 *94:57 *115:33 0.000531453
*RES
1 *17136:Q *115:6 12.3 
2 *115:6 *17093:A2 21.9964 
3 *115:6 *115:21 5.875 
4 *115:21 *115:27 10.9464 
5 *115:27 *115:33 6.83929 
6 *115:33 *17200:A 22.6214 
7 *115:33 *17178:A 9.3 
8 *115:27 *17095:A2 9.3 
9 *115:21 *115:60 6.5 
10 *115:60 *115:66 6.32143 
11 *115:66 *17099:B 21.1571 
12 *115:66 *17098:A2 9.3 
13 *115:60 *17096:A2 9.3 
*END
