*SPEF "ieee 1481-1999"
*DESIGN "openframe_project_wrapper"
*DATE "03:39:41 Tuesday September 22, 2026"
*VENDOR "The OpenROAD Project"
*PROGRAM "OpenROAD"
*VERSION "edf00dff99f6c40d67a30c0e22a8191c5d2ed9d6"
*DESIGN_FLOW "NAME_SCOPE LOCAL" "PIN_CAP NONE"
*DIVIDER /
*DELIMITER :
*BUS_DELIMITER []
*T_UNIT 1 NS
*C_UNIT 1 PF
*R_UNIT 1 OHM
*L_UNIT 1 HENRY

*NAME_MAP
*1 analog_io[0]
*2 analog_io[10]
*3 analog_io[11]
*4 analog_io[12]
*5 analog_io[13]
*6 analog_io[14]
*7 analog_io[15]
*8 analog_io[16]
*9 analog_io[17]
*10 analog_io[18]
*11 analog_io[19]
*12 analog_io[1]
*13 analog_io[20]
*14 analog_io[21]
*15 analog_io[22]
*16 analog_io[23]
*17 analog_io[24]
*18 analog_io[25]
*19 analog_io[26]
*20 analog_io[27]
*21 analog_io[28]
*22 analog_io[29]
*23 analog_io[2]
*24 analog_io[30]
*25 analog_io[31]
*26 analog_io[32]
*27 analog_io[33]
*28 analog_io[34]
*29 analog_io[35]
*30 analog_io[36]
*31 analog_io[37]
*32 analog_io[38]
*33 analog_io[39]
*34 analog_io[3]
*35 analog_io[40]
*36 analog_io[41]
*37 analog_io[42]
*38 analog_io[43]
*39 analog_io[4]
*40 analog_io[5]
*41 analog_io[6]
*42 analog_io[7]
*43 analog_io[8]
*44 analog_io[9]
*45 analog_noesd_io[0]
*46 analog_noesd_io[10]
*47 analog_noesd_io[11]
*48 analog_noesd_io[12]
*49 analog_noesd_io[13]
*50 analog_noesd_io[14]
*51 analog_noesd_io[15]
*52 analog_noesd_io[16]
*53 analog_noesd_io[17]
*54 analog_noesd_io[18]
*55 analog_noesd_io[19]
*56 analog_noesd_io[1]
*57 analog_noesd_io[20]
*58 analog_noesd_io[21]
*59 analog_noesd_io[22]
*60 analog_noesd_io[23]
*61 analog_noesd_io[24]
*62 analog_noesd_io[25]
*63 analog_noesd_io[26]
*64 analog_noesd_io[27]
*65 analog_noesd_io[28]
*66 analog_noesd_io[29]
*67 analog_noesd_io[2]
*68 analog_noesd_io[30]
*69 analog_noesd_io[31]
*70 analog_noesd_io[32]
*71 analog_noesd_io[33]
*72 analog_noesd_io[34]
*73 analog_noesd_io[35]
*74 analog_noesd_io[36]
*75 analog_noesd_io[37]
*76 analog_noesd_io[38]
*77 analog_noesd_io[39]
*78 analog_noesd_io[3]
*79 analog_noesd_io[40]
*80 analog_noesd_io[41]
*81 analog_noesd_io[42]
*82 analog_noesd_io[43]
*83 analog_noesd_io[4]
*84 analog_noesd_io[5]
*85 analog_noesd_io[6]
*86 analog_noesd_io[7]
*87 analog_noesd_io[8]
*88 analog_noesd_io[9]
*89 gpio_analog_en[0]
*90 gpio_analog_en[10]
*91 gpio_analog_en[11]
*92 gpio_analog_en[12]
*93 gpio_analog_en[13]
*94 gpio_analog_en[14]
*95 gpio_analog_en[15]
*96 gpio_analog_en[16]
*97 gpio_analog_en[17]
*98 gpio_analog_en[18]
*99 gpio_analog_en[19]
*100 gpio_analog_en[1]
*101 gpio_analog_en[20]
*102 gpio_analog_en[21]
*103 gpio_analog_en[22]
*104 gpio_analog_en[23]
*105 gpio_analog_en[24]
*106 gpio_analog_en[25]
*107 gpio_analog_en[26]
*108 gpio_analog_en[27]
*109 gpio_analog_en[28]
*110 gpio_analog_en[29]
*111 gpio_analog_en[2]
*112 gpio_analog_en[30]
*113 gpio_analog_en[31]
*114 gpio_analog_en[32]
*115 gpio_analog_en[33]
*116 gpio_analog_en[34]
*117 gpio_analog_en[35]
*118 gpio_analog_en[36]
*119 gpio_analog_en[37]
*120 gpio_analog_en[38]
*121 gpio_analog_en[39]
*122 gpio_analog_en[3]
*123 gpio_analog_en[40]
*124 gpio_analog_en[41]
*125 gpio_analog_en[42]
*126 gpio_analog_en[43]
*127 gpio_analog_en[4]
*128 gpio_analog_en[5]
*129 gpio_analog_en[6]
*130 gpio_analog_en[7]
*131 gpio_analog_en[8]
*132 gpio_analog_en[9]
*133 gpio_analog_pol[0]
*134 gpio_analog_pol[10]
*135 gpio_analog_pol[11]
*136 gpio_analog_pol[12]
*137 gpio_analog_pol[13]
*138 gpio_analog_pol[14]
*139 gpio_analog_pol[15]
*140 gpio_analog_pol[16]
*141 gpio_analog_pol[17]
*142 gpio_analog_pol[18]
*143 gpio_analog_pol[19]
*144 gpio_analog_pol[1]
*145 gpio_analog_pol[20]
*146 gpio_analog_pol[21]
*147 gpio_analog_pol[22]
*148 gpio_analog_pol[23]
*149 gpio_analog_pol[24]
*150 gpio_analog_pol[25]
*151 gpio_analog_pol[26]
*152 gpio_analog_pol[27]
*153 gpio_analog_pol[28]
*154 gpio_analog_pol[29]
*155 gpio_analog_pol[2]
*156 gpio_analog_pol[30]
*157 gpio_analog_pol[31]
*158 gpio_analog_pol[32]
*159 gpio_analog_pol[33]
*160 gpio_analog_pol[34]
*161 gpio_analog_pol[35]
*162 gpio_analog_pol[36]
*163 gpio_analog_pol[37]
*164 gpio_analog_pol[38]
*165 gpio_analog_pol[39]
*166 gpio_analog_pol[3]
*167 gpio_analog_pol[40]
*168 gpio_analog_pol[41]
*169 gpio_analog_pol[42]
*170 gpio_analog_pol[43]
*171 gpio_analog_pol[4]
*172 gpio_analog_pol[5]
*173 gpio_analog_pol[6]
*174 gpio_analog_pol[7]
*175 gpio_analog_pol[8]
*176 gpio_analog_pol[9]
*177 gpio_analog_sel[0]
*178 gpio_analog_sel[10]
*179 gpio_analog_sel[11]
*180 gpio_analog_sel[12]
*181 gpio_analog_sel[13]
*182 gpio_analog_sel[14]
*183 gpio_analog_sel[15]
*184 gpio_analog_sel[16]
*185 gpio_analog_sel[17]
*186 gpio_analog_sel[18]
*187 gpio_analog_sel[19]
*188 gpio_analog_sel[1]
*189 gpio_analog_sel[20]
*190 gpio_analog_sel[21]
*191 gpio_analog_sel[22]
*192 gpio_analog_sel[23]
*193 gpio_analog_sel[24]
*194 gpio_analog_sel[25]
*195 gpio_analog_sel[26]
*196 gpio_analog_sel[27]
*197 gpio_analog_sel[28]
*198 gpio_analog_sel[29]
*199 gpio_analog_sel[2]
*200 gpio_analog_sel[30]
*201 gpio_analog_sel[31]
*202 gpio_analog_sel[32]
*203 gpio_analog_sel[33]
*204 gpio_analog_sel[34]
*205 gpio_analog_sel[35]
*206 gpio_analog_sel[36]
*207 gpio_analog_sel[37]
*208 gpio_analog_sel[38]
*209 gpio_analog_sel[39]
*210 gpio_analog_sel[3]
*211 gpio_analog_sel[40]
*212 gpio_analog_sel[41]
*213 gpio_analog_sel[42]
*214 gpio_analog_sel[43]
*215 gpio_analog_sel[4]
*216 gpio_analog_sel[5]
*217 gpio_analog_sel[6]
*218 gpio_analog_sel[7]
*219 gpio_analog_sel[8]
*220 gpio_analog_sel[9]
*221 gpio_dm0[0]
*222 gpio_dm0[10]
*223 gpio_dm0[11]
*224 gpio_dm0[12]
*225 gpio_dm0[13]
*226 gpio_dm0[14]
*227 gpio_dm0[15]
*228 gpio_dm0[16]
*229 gpio_dm0[17]
*230 gpio_dm0[18]
*231 gpio_dm0[19]
*232 gpio_dm0[1]
*233 gpio_dm0[20]
*234 gpio_dm0[21]
*235 gpio_dm0[22]
*236 gpio_dm0[23]
*237 gpio_dm0[24]
*238 gpio_dm0[25]
*239 gpio_dm0[26]
*240 gpio_dm0[27]
*241 gpio_dm0[28]
*242 gpio_dm0[29]
*243 gpio_dm0[2]
*244 gpio_dm0[30]
*245 gpio_dm0[31]
*246 gpio_dm0[32]
*247 gpio_dm0[33]
*248 gpio_dm0[34]
*249 gpio_dm0[35]
*250 gpio_dm0[36]
*251 gpio_dm0[37]
*252 gpio_dm0[38]
*253 gpio_dm0[39]
*254 gpio_dm0[3]
*255 gpio_dm0[40]
*256 gpio_dm0[41]
*257 gpio_dm0[42]
*258 gpio_dm0[43]
*259 gpio_dm0[4]
*260 gpio_dm0[5]
*261 gpio_dm0[6]
*262 gpio_dm0[7]
*263 gpio_dm0[8]
*264 gpio_dm0[9]
*265 gpio_dm1[0]
*266 gpio_dm1[10]
*267 gpio_dm1[11]
*268 gpio_dm1[12]
*269 gpio_dm1[13]
*270 gpio_dm1[14]
*271 gpio_dm1[15]
*272 gpio_dm1[16]
*273 gpio_dm1[17]
*274 gpio_dm1[18]
*275 gpio_dm1[19]
*276 gpio_dm1[1]
*277 gpio_dm1[20]
*278 gpio_dm1[21]
*279 gpio_dm1[22]
*280 gpio_dm1[23]
*281 gpio_dm1[24]
*282 gpio_dm1[25]
*283 gpio_dm1[26]
*284 gpio_dm1[27]
*285 gpio_dm1[28]
*286 gpio_dm1[29]
*287 gpio_dm1[2]
*288 gpio_dm1[30]
*289 gpio_dm1[31]
*290 gpio_dm1[32]
*291 gpio_dm1[33]
*292 gpio_dm1[34]
*293 gpio_dm1[35]
*294 gpio_dm1[36]
*295 gpio_dm1[37]
*296 gpio_dm1[38]
*297 gpio_dm1[39]
*298 gpio_dm1[3]
*299 gpio_dm1[40]
*300 gpio_dm1[41]
*301 gpio_dm1[42]
*302 gpio_dm1[43]
*303 gpio_dm1[4]
*304 gpio_dm1[5]
*305 gpio_dm1[6]
*306 gpio_dm1[7]
*307 gpio_dm1[8]
*308 gpio_dm1[9]
*309 gpio_dm2[0]
*310 gpio_dm2[10]
*311 gpio_dm2[11]
*312 gpio_dm2[12]
*313 gpio_dm2[13]
*314 gpio_dm2[14]
*315 gpio_dm2[15]
*316 gpio_dm2[16]
*317 gpio_dm2[17]
*318 gpio_dm2[18]
*319 gpio_dm2[19]
*320 gpio_dm2[1]
*321 gpio_dm2[20]
*322 gpio_dm2[21]
*323 gpio_dm2[22]
*324 gpio_dm2[23]
*325 gpio_dm2[24]
*326 gpio_dm2[25]
*327 gpio_dm2[26]
*328 gpio_dm2[27]
*329 gpio_dm2[28]
*330 gpio_dm2[29]
*331 gpio_dm2[2]
*332 gpio_dm2[30]
*333 gpio_dm2[31]
*334 gpio_dm2[32]
*335 gpio_dm2[33]
*336 gpio_dm2[34]
*337 gpio_dm2[35]
*338 gpio_dm2[36]
*339 gpio_dm2[37]
*340 gpio_dm2[38]
*341 gpio_dm2[39]
*342 gpio_dm2[3]
*343 gpio_dm2[40]
*344 gpio_dm2[41]
*345 gpio_dm2[42]
*346 gpio_dm2[43]
*347 gpio_dm2[4]
*348 gpio_dm2[5]
*349 gpio_dm2[6]
*350 gpio_dm2[7]
*351 gpio_dm2[8]
*352 gpio_dm2[9]
*353 gpio_holdover[0]
*354 gpio_holdover[10]
*355 gpio_holdover[11]
*356 gpio_holdover[12]
*357 gpio_holdover[13]
*358 gpio_holdover[14]
*359 gpio_holdover[15]
*360 gpio_holdover[16]
*361 gpio_holdover[17]
*362 gpio_holdover[18]
*363 gpio_holdover[19]
*364 gpio_holdover[1]
*365 gpio_holdover[20]
*366 gpio_holdover[21]
*367 gpio_holdover[22]
*368 gpio_holdover[23]
*369 gpio_holdover[24]
*370 gpio_holdover[25]
*371 gpio_holdover[26]
*372 gpio_holdover[27]
*373 gpio_holdover[28]
*374 gpio_holdover[29]
*375 gpio_holdover[2]
*376 gpio_holdover[30]
*377 gpio_holdover[31]
*378 gpio_holdover[32]
*379 gpio_holdover[33]
*380 gpio_holdover[34]
*381 gpio_holdover[35]
*382 gpio_holdover[36]
*383 gpio_holdover[37]
*384 gpio_holdover[38]
*385 gpio_holdover[39]
*386 gpio_holdover[3]
*387 gpio_holdover[40]
*388 gpio_holdover[41]
*389 gpio_holdover[42]
*390 gpio_holdover[43]
*391 gpio_holdover[4]
*392 gpio_holdover[5]
*393 gpio_holdover[6]
*394 gpio_holdover[7]
*395 gpio_holdover[8]
*396 gpio_holdover[9]
*397 gpio_ib_mode_sel[0]
*398 gpio_ib_mode_sel[10]
*399 gpio_ib_mode_sel[11]
*400 gpio_ib_mode_sel[12]
*401 gpio_ib_mode_sel[13]
*402 gpio_ib_mode_sel[14]
*403 gpio_ib_mode_sel[15]
*404 gpio_ib_mode_sel[16]
*405 gpio_ib_mode_sel[17]
*406 gpio_ib_mode_sel[18]
*407 gpio_ib_mode_sel[19]
*408 gpio_ib_mode_sel[1]
*409 gpio_ib_mode_sel[20]
*410 gpio_ib_mode_sel[21]
*411 gpio_ib_mode_sel[22]
*412 gpio_ib_mode_sel[23]
*413 gpio_ib_mode_sel[24]
*414 gpio_ib_mode_sel[25]
*415 gpio_ib_mode_sel[26]
*416 gpio_ib_mode_sel[27]
*417 gpio_ib_mode_sel[28]
*418 gpio_ib_mode_sel[29]
*419 gpio_ib_mode_sel[2]
*420 gpio_ib_mode_sel[30]
*421 gpio_ib_mode_sel[31]
*422 gpio_ib_mode_sel[32]
*423 gpio_ib_mode_sel[33]
*424 gpio_ib_mode_sel[34]
*425 gpio_ib_mode_sel[35]
*426 gpio_ib_mode_sel[36]
*427 gpio_ib_mode_sel[37]
*428 gpio_ib_mode_sel[38]
*429 gpio_ib_mode_sel[39]
*430 gpio_ib_mode_sel[3]
*431 gpio_ib_mode_sel[40]
*432 gpio_ib_mode_sel[41]
*433 gpio_ib_mode_sel[42]
*434 gpio_ib_mode_sel[43]
*435 gpio_ib_mode_sel[4]
*436 gpio_ib_mode_sel[5]
*437 gpio_ib_mode_sel[6]
*438 gpio_ib_mode_sel[7]
*439 gpio_ib_mode_sel[8]
*440 gpio_ib_mode_sel[9]
*441 gpio_in[0]
*442 gpio_in[10]
*443 gpio_in[11]
*444 gpio_in[12]
*445 gpio_in[13]
*446 gpio_in[14]
*447 gpio_in[15]
*448 gpio_in[16]
*449 gpio_in[17]
*450 gpio_in[18]
*451 gpio_in[19]
*452 gpio_in[1]
*453 gpio_in[20]
*454 gpio_in[21]
*455 gpio_in[22]
*456 gpio_in[23]
*457 gpio_in[24]
*458 gpio_in[25]
*459 gpio_in[26]
*460 gpio_in[27]
*461 gpio_in[28]
*462 gpio_in[29]
*463 gpio_in[2]
*464 gpio_in[30]
*465 gpio_in[31]
*466 gpio_in[32]
*467 gpio_in[33]
*468 gpio_in[34]
*469 gpio_in[35]
*470 gpio_in[36]
*471 gpio_in[37]
*472 gpio_in[38]
*473 gpio_in[39]
*474 gpio_in[3]
*475 gpio_in[40]
*476 gpio_in[41]
*477 gpio_in[42]
*478 gpio_in[43]
*479 gpio_in[4]
*480 gpio_in[5]
*481 gpio_in[6]
*482 gpio_in[7]
*483 gpio_in[8]
*484 gpio_in[9]
*485 gpio_in_h[0]
*486 gpio_in_h[10]
*487 gpio_in_h[11]
*488 gpio_in_h[12]
*489 gpio_in_h[13]
*490 gpio_in_h[14]
*491 gpio_in_h[15]
*492 gpio_in_h[16]
*493 gpio_in_h[17]
*494 gpio_in_h[18]
*495 gpio_in_h[19]
*496 gpio_in_h[1]
*497 gpio_in_h[20]
*498 gpio_in_h[21]
*499 gpio_in_h[22]
*500 gpio_in_h[23]
*501 gpio_in_h[24]
*502 gpio_in_h[25]
*503 gpio_in_h[26]
*504 gpio_in_h[27]
*505 gpio_in_h[28]
*506 gpio_in_h[29]
*507 gpio_in_h[2]
*508 gpio_in_h[30]
*509 gpio_in_h[31]
*510 gpio_in_h[32]
*511 gpio_in_h[33]
*512 gpio_in_h[34]
*513 gpio_in_h[35]
*514 gpio_in_h[36]
*515 gpio_in_h[37]
*516 gpio_in_h[38]
*517 gpio_in_h[39]
*518 gpio_in_h[3]
*519 gpio_in_h[40]
*520 gpio_in_h[41]
*521 gpio_in_h[42]
*522 gpio_in_h[43]
*523 gpio_in_h[4]
*524 gpio_in_h[5]
*525 gpio_in_h[6]
*526 gpio_in_h[7]
*527 gpio_in_h[8]
*528 gpio_in_h[9]
*529 gpio_inp_dis[0]
*530 gpio_inp_dis[10]
*531 gpio_inp_dis[11]
*532 gpio_inp_dis[12]
*533 gpio_inp_dis[13]
*534 gpio_inp_dis[14]
*535 gpio_inp_dis[15]
*536 gpio_inp_dis[16]
*537 gpio_inp_dis[17]
*538 gpio_inp_dis[18]
*539 gpio_inp_dis[19]
*540 gpio_inp_dis[1]
*541 gpio_inp_dis[20]
*542 gpio_inp_dis[21]
*543 gpio_inp_dis[22]
*544 gpio_inp_dis[23]
*545 gpio_inp_dis[24]
*546 gpio_inp_dis[25]
*547 gpio_inp_dis[26]
*548 gpio_inp_dis[27]
*549 gpio_inp_dis[28]
*550 gpio_inp_dis[29]
*551 gpio_inp_dis[2]
*552 gpio_inp_dis[30]
*553 gpio_inp_dis[31]
*554 gpio_inp_dis[32]
*555 gpio_inp_dis[33]
*556 gpio_inp_dis[34]
*557 gpio_inp_dis[35]
*558 gpio_inp_dis[36]
*559 gpio_inp_dis[37]
*560 gpio_inp_dis[38]
*561 gpio_inp_dis[39]
*562 gpio_inp_dis[3]
*563 gpio_inp_dis[40]
*564 gpio_inp_dis[41]
*565 gpio_inp_dis[42]
*566 gpio_inp_dis[43]
*567 gpio_inp_dis[4]
*568 gpio_inp_dis[5]
*569 gpio_inp_dis[6]
*570 gpio_inp_dis[7]
*571 gpio_inp_dis[8]
*572 gpio_inp_dis[9]
*573 gpio_loopback_one[0]
*574 gpio_loopback_one[10]
*575 gpio_loopback_one[11]
*576 gpio_loopback_one[12]
*577 gpio_loopback_one[13]
*578 gpio_loopback_one[14]
*579 gpio_loopback_one[15]
*580 gpio_loopback_one[16]
*581 gpio_loopback_one[17]
*582 gpio_loopback_one[18]
*583 gpio_loopback_one[19]
*584 gpio_loopback_one[1]
*585 gpio_loopback_one[20]
*586 gpio_loopback_one[21]
*587 gpio_loopback_one[22]
*588 gpio_loopback_one[23]
*589 gpio_loopback_one[24]
*590 gpio_loopback_one[25]
*591 gpio_loopback_one[26]
*592 gpio_loopback_one[27]
*593 gpio_loopback_one[28]
*594 gpio_loopback_one[29]
*595 gpio_loopback_one[2]
*596 gpio_loopback_one[30]
*597 gpio_loopback_one[31]
*598 gpio_loopback_one[32]
*599 gpio_loopback_one[33]
*600 gpio_loopback_one[34]
*601 gpio_loopback_one[35]
*602 gpio_loopback_one[36]
*603 gpio_loopback_one[37]
*604 gpio_loopback_one[38]
*605 gpio_loopback_one[39]
*606 gpio_loopback_one[3]
*607 gpio_loopback_one[40]
*608 gpio_loopback_one[41]
*609 gpio_loopback_one[42]
*610 gpio_loopback_one[43]
*611 gpio_loopback_one[4]
*612 gpio_loopback_one[5]
*613 gpio_loopback_one[6]
*614 gpio_loopback_one[7]
*615 gpio_loopback_one[8]
*616 gpio_loopback_one[9]
*617 gpio_loopback_zero[0]
*618 gpio_loopback_zero[10]
*619 gpio_loopback_zero[11]
*620 gpio_loopback_zero[12]
*621 gpio_loopback_zero[13]
*622 gpio_loopback_zero[14]
*623 gpio_loopback_zero[15]
*624 gpio_loopback_zero[16]
*625 gpio_loopback_zero[17]
*626 gpio_loopback_zero[18]
*627 gpio_loopback_zero[19]
*628 gpio_loopback_zero[1]
*629 gpio_loopback_zero[20]
*630 gpio_loopback_zero[21]
*631 gpio_loopback_zero[22]
*632 gpio_loopback_zero[23]
*633 gpio_loopback_zero[24]
*634 gpio_loopback_zero[25]
*635 gpio_loopback_zero[26]
*636 gpio_loopback_zero[27]
*637 gpio_loopback_zero[28]
*638 gpio_loopback_zero[29]
*639 gpio_loopback_zero[2]
*640 gpio_loopback_zero[30]
*641 gpio_loopback_zero[31]
*642 gpio_loopback_zero[32]
*643 gpio_loopback_zero[33]
*644 gpio_loopback_zero[34]
*645 gpio_loopback_zero[35]
*646 gpio_loopback_zero[36]
*647 gpio_loopback_zero[37]
*648 gpio_loopback_zero[38]
*649 gpio_loopback_zero[39]
*650 gpio_loopback_zero[3]
*651 gpio_loopback_zero[40]
*652 gpio_loopback_zero[41]
*653 gpio_loopback_zero[42]
*654 gpio_loopback_zero[43]
*655 gpio_loopback_zero[4]
*656 gpio_loopback_zero[5]
*657 gpio_loopback_zero[6]
*658 gpio_loopback_zero[7]
*659 gpio_loopback_zero[8]
*660 gpio_loopback_zero[9]
*661 gpio_oeb[0]
*662 gpio_oeb[10]
*663 gpio_oeb[11]
*664 gpio_oeb[12]
*665 gpio_oeb[13]
*666 gpio_oeb[14]
*667 gpio_oeb[15]
*668 gpio_oeb[16]
*669 gpio_oeb[17]
*670 gpio_oeb[18]
*671 gpio_oeb[19]
*672 gpio_oeb[1]
*673 gpio_oeb[20]
*674 gpio_oeb[21]
*675 gpio_oeb[22]
*676 gpio_oeb[23]
*677 gpio_oeb[24]
*678 gpio_oeb[25]
*679 gpio_oeb[26]
*680 gpio_oeb[27]
*681 gpio_oeb[28]
*682 gpio_oeb[29]
*683 gpio_oeb[2]
*684 gpio_oeb[30]
*685 gpio_oeb[31]
*686 gpio_oeb[32]
*687 gpio_oeb[33]
*688 gpio_oeb[34]
*689 gpio_oeb[35]
*690 gpio_oeb[36]
*691 gpio_oeb[37]
*692 gpio_oeb[38]
*693 gpio_oeb[39]
*694 gpio_oeb[3]
*695 gpio_oeb[40]
*696 gpio_oeb[41]
*697 gpio_oeb[42]
*698 gpio_oeb[43]
*699 gpio_oeb[4]
*700 gpio_oeb[5]
*701 gpio_oeb[6]
*702 gpio_oeb[7]
*703 gpio_oeb[8]
*704 gpio_oeb[9]
*705 gpio_out[0]
*706 gpio_out[10]
*707 gpio_out[11]
*708 gpio_out[12]
*709 gpio_out[13]
*710 gpio_out[14]
*711 gpio_out[15]
*712 gpio_out[16]
*713 gpio_out[17]
*714 gpio_out[18]
*715 gpio_out[19]
*716 gpio_out[1]
*717 gpio_out[20]
*718 gpio_out[21]
*719 gpio_out[22]
*720 gpio_out[23]
*721 gpio_out[24]
*722 gpio_out[25]
*723 gpio_out[26]
*724 gpio_out[27]
*725 gpio_out[28]
*726 gpio_out[29]
*727 gpio_out[2]
*728 gpio_out[30]
*729 gpio_out[31]
*730 gpio_out[32]
*731 gpio_out[33]
*732 gpio_out[34]
*733 gpio_out[35]
*734 gpio_out[36]
*735 gpio_out[37]
*736 gpio_out[38]
*737 gpio_out[39]
*738 gpio_out[3]
*739 gpio_out[40]
*740 gpio_out[41]
*741 gpio_out[42]
*742 gpio_out[43]
*743 gpio_out[4]
*744 gpio_out[5]
*745 gpio_out[6]
*746 gpio_out[7]
*747 gpio_out[8]
*748 gpio_out[9]
*749 gpio_slow_sel[0]
*750 gpio_slow_sel[10]
*751 gpio_slow_sel[11]
*752 gpio_slow_sel[12]
*753 gpio_slow_sel[13]
*754 gpio_slow_sel[14]
*755 gpio_slow_sel[15]
*756 gpio_slow_sel[16]
*757 gpio_slow_sel[17]
*758 gpio_slow_sel[18]
*759 gpio_slow_sel[19]
*760 gpio_slow_sel[1]
*761 gpio_slow_sel[20]
*762 gpio_slow_sel[21]
*763 gpio_slow_sel[22]
*764 gpio_slow_sel[23]
*765 gpio_slow_sel[24]
*766 gpio_slow_sel[25]
*767 gpio_slow_sel[26]
*768 gpio_slow_sel[27]
*769 gpio_slow_sel[28]
*770 gpio_slow_sel[29]
*771 gpio_slow_sel[2]
*772 gpio_slow_sel[30]
*773 gpio_slow_sel[31]
*774 gpio_slow_sel[32]
*775 gpio_slow_sel[33]
*776 gpio_slow_sel[34]
*777 gpio_slow_sel[35]
*778 gpio_slow_sel[36]
*779 gpio_slow_sel[37]
*780 gpio_slow_sel[38]
*781 gpio_slow_sel[39]
*782 gpio_slow_sel[3]
*783 gpio_slow_sel[40]
*784 gpio_slow_sel[41]
*785 gpio_slow_sel[42]
*786 gpio_slow_sel[43]
*787 gpio_slow_sel[4]
*788 gpio_slow_sel[5]
*789 gpio_slow_sel[6]
*790 gpio_slow_sel[7]
*791 gpio_slow_sel[8]
*792 gpio_slow_sel[9]
*793 gpio_vtrip_sel[0]
*794 gpio_vtrip_sel[10]
*795 gpio_vtrip_sel[11]
*796 gpio_vtrip_sel[12]
*797 gpio_vtrip_sel[13]
*798 gpio_vtrip_sel[14]
*799 gpio_vtrip_sel[15]
*800 gpio_vtrip_sel[16]
*801 gpio_vtrip_sel[17]
*802 gpio_vtrip_sel[18]
*803 gpio_vtrip_sel[19]
*804 gpio_vtrip_sel[1]
*805 gpio_vtrip_sel[20]
*806 gpio_vtrip_sel[21]
*807 gpio_vtrip_sel[22]
*808 gpio_vtrip_sel[23]
*809 gpio_vtrip_sel[24]
*810 gpio_vtrip_sel[25]
*811 gpio_vtrip_sel[26]
*812 gpio_vtrip_sel[27]
*813 gpio_vtrip_sel[28]
*814 gpio_vtrip_sel[29]
*815 gpio_vtrip_sel[2]
*816 gpio_vtrip_sel[30]
*817 gpio_vtrip_sel[31]
*818 gpio_vtrip_sel[32]
*819 gpio_vtrip_sel[33]
*820 gpio_vtrip_sel[34]
*821 gpio_vtrip_sel[35]
*822 gpio_vtrip_sel[36]
*823 gpio_vtrip_sel[37]
*824 gpio_vtrip_sel[38]
*825 gpio_vtrip_sel[39]
*826 gpio_vtrip_sel[3]
*827 gpio_vtrip_sel[40]
*828 gpio_vtrip_sel[41]
*829 gpio_vtrip_sel[42]
*830 gpio_vtrip_sel[43]
*831 gpio_vtrip_sel[4]
*832 gpio_vtrip_sel[5]
*833 gpio_vtrip_sel[6]
*834 gpio_vtrip_sel[7]
*835 gpio_vtrip_sel[8]
*836 gpio_vtrip_sel[9]
*837 mask_rev[0]
*838 mask_rev[10]
*839 mask_rev[11]
*840 mask_rev[12]
*841 mask_rev[13]
*842 mask_rev[14]
*843 mask_rev[15]
*844 mask_rev[16]
*845 mask_rev[17]
*846 mask_rev[18]
*847 mask_rev[19]
*848 mask_rev[1]
*849 mask_rev[20]
*850 mask_rev[21]
*851 mask_rev[22]
*852 mask_rev[23]
*853 mask_rev[24]
*854 mask_rev[25]
*855 mask_rev[26]
*856 mask_rev[27]
*857 mask_rev[28]
*858 mask_rev[29]
*859 mask_rev[2]
*860 mask_rev[30]
*861 mask_rev[31]
*862 mask_rev[3]
*863 mask_rev[4]
*864 mask_rev[5]
*865 mask_rev[6]
*866 mask_rev[7]
*867 mask_rev[8]
*868 mask_rev[9]
*869 por_l
*870 porb_h
*871 porb_l
*872 resetb_h
*873 resetb_l
*888 soc_gpio_oeb_unused\[0\]
*889 soc_gpio_oeb_unused\[10\]
*890 soc_gpio_oeb_unused\[11\]
*891 soc_gpio_oeb_unused\[12\]
*892 soc_gpio_oeb_unused\[13\]
*893 soc_gpio_oeb_unused\[14\]
*894 soc_gpio_oeb_unused\[15\]
*895 soc_gpio_oeb_unused\[1\]
*896 soc_gpio_oeb_unused\[2\]
*897 soc_gpio_oeb_unused\[3\]
*898 soc_gpio_oeb_unused\[4\]
*899 soc_gpio_oeb_unused\[5\]
*900 soc_gpio_oeb_unused\[6\]
*901 soc_gpio_oeb_unused\[7\]
*902 soc_gpio_oeb_unused\[8\]
*903 soc_gpio_oeb_unused\[9\]
*904 soc_gpio_out_unused\[0\]
*905 soc_gpio_out_unused\[10\]
*906 soc_gpio_out_unused\[11\]
*907 soc_gpio_out_unused\[12\]
*908 soc_gpio_out_unused\[13\]
*909 soc_gpio_out_unused\[14\]
*910 soc_gpio_out_unused\[15\]
*911 soc_gpio_out_unused\[1\]
*912 soc_gpio_out_unused\[2\]
*913 soc_gpio_out_unused\[3\]
*914 soc_gpio_out_unused\[4\]
*915 soc_gpio_out_unused\[5\]
*916 soc_gpio_out_unused\[6\]
*917 soc_gpio_out_unused\[7\]
*918 soc_gpio_out_unused\[8\]
*919 soc_gpio_out_unused\[9\]
*920 u_counter
*921 u_soc

*PORTS
analog_io[0] I
analog_io[10] I
analog_io[11] I
analog_io[12] I
analog_io[13] I
analog_io[14] I
analog_io[15] I
analog_io[16] I
analog_io[17] I
analog_io[18] I
analog_io[19] I
analog_io[1] I
analog_io[20] I
analog_io[21] I
analog_io[22] I
analog_io[23] I
analog_io[24] I
analog_io[25] I
analog_io[26] I
analog_io[27] I
analog_io[28] I
analog_io[29] I
analog_io[2] I
analog_io[30] I
analog_io[31] I
analog_io[32] I
analog_io[33] I
analog_io[34] I
analog_io[35] I
analog_io[36] I
analog_io[37] I
analog_io[38] I
analog_io[39] I
analog_io[3] I
analog_io[40] I
analog_io[41] I
analog_io[42] I
analog_io[43] I
analog_io[4] I
analog_io[5] I
analog_io[6] I
analog_io[7] I
analog_io[8] I
analog_io[9] I
analog_noesd_io[0] I
analog_noesd_io[10] I
analog_noesd_io[11] I
analog_noesd_io[12] I
analog_noesd_io[13] I
analog_noesd_io[14] I
analog_noesd_io[15] I
analog_noesd_io[16] I
analog_noesd_io[17] I
analog_noesd_io[18] I
analog_noesd_io[19] I
analog_noesd_io[1] I
analog_noesd_io[20] I
analog_noesd_io[21] I
analog_noesd_io[22] I
analog_noesd_io[23] I
analog_noesd_io[24] I
analog_noesd_io[25] I
analog_noesd_io[26] I
analog_noesd_io[27] I
analog_noesd_io[28] I
analog_noesd_io[29] I
analog_noesd_io[2] I
analog_noesd_io[30] I
analog_noesd_io[31] I
analog_noesd_io[32] I
analog_noesd_io[33] I
analog_noesd_io[34] I
analog_noesd_io[35] I
analog_noesd_io[36] I
analog_noesd_io[37] I
analog_noesd_io[38] I
analog_noesd_io[39] I
analog_noesd_io[3] I
analog_noesd_io[40] I
analog_noesd_io[41] I
analog_noesd_io[42] I
analog_noesd_io[43] I
analog_noesd_io[4] I
analog_noesd_io[5] I
analog_noesd_io[6] I
analog_noesd_io[7] I
analog_noesd_io[8] I
analog_noesd_io[9] I
gpio_analog_en[0] O
gpio_analog_en[10] O
gpio_analog_en[11] O
gpio_analog_en[12] O
gpio_analog_en[13] O
gpio_analog_en[14] O
gpio_analog_en[15] O
gpio_analog_en[16] O
gpio_analog_en[17] O
gpio_analog_en[18] O
gpio_analog_en[19] O
gpio_analog_en[1] O
gpio_analog_en[20] O
gpio_analog_en[21] O
gpio_analog_en[22] O
gpio_analog_en[23] O
gpio_analog_en[24] O
gpio_analog_en[25] O
gpio_analog_en[26] O
gpio_analog_en[27] O
gpio_analog_en[28] O
gpio_analog_en[29] O
gpio_analog_en[2] O
gpio_analog_en[30] O
gpio_analog_en[31] O
gpio_analog_en[32] O
gpio_analog_en[33] O
gpio_analog_en[34] O
gpio_analog_en[35] O
gpio_analog_en[36] O
gpio_analog_en[37] O
gpio_analog_en[38] O
gpio_analog_en[39] O
gpio_analog_en[3] O
gpio_analog_en[40] O
gpio_analog_en[41] O
gpio_analog_en[42] O
gpio_analog_en[43] O
gpio_analog_en[4] O
gpio_analog_en[5] O
gpio_analog_en[6] O
gpio_analog_en[7] O
gpio_analog_en[8] O
gpio_analog_en[9] O
gpio_analog_pol[0] O
gpio_analog_pol[10] O
gpio_analog_pol[11] O
gpio_analog_pol[12] O
gpio_analog_pol[13] O
gpio_analog_pol[14] O
gpio_analog_pol[15] O
gpio_analog_pol[16] O
gpio_analog_pol[17] O
gpio_analog_pol[18] O
gpio_analog_pol[19] O
gpio_analog_pol[1] O
gpio_analog_pol[20] O
gpio_analog_pol[21] O
gpio_analog_pol[22] O
gpio_analog_pol[23] O
gpio_analog_pol[24] O
gpio_analog_pol[25] O
gpio_analog_pol[26] O
gpio_analog_pol[27] O
gpio_analog_pol[28] O
gpio_analog_pol[29] O
gpio_analog_pol[2] O
gpio_analog_pol[30] O
gpio_analog_pol[31] O
gpio_analog_pol[32] O
gpio_analog_pol[33] O
gpio_analog_pol[34] O
gpio_analog_pol[35] O
gpio_analog_pol[36] O
gpio_analog_pol[37] O
gpio_analog_pol[38] O
gpio_analog_pol[39] O
gpio_analog_pol[3] O
gpio_analog_pol[40] O
gpio_analog_pol[41] O
gpio_analog_pol[42] O
gpio_analog_pol[43] O
gpio_analog_pol[4] O
gpio_analog_pol[5] O
gpio_analog_pol[6] O
gpio_analog_pol[7] O
gpio_analog_pol[8] O
gpio_analog_pol[9] O
gpio_analog_sel[0] O
gpio_analog_sel[10] O
gpio_analog_sel[11] O
gpio_analog_sel[12] O
gpio_analog_sel[13] O
gpio_analog_sel[14] O
gpio_analog_sel[15] O
gpio_analog_sel[16] O
gpio_analog_sel[17] O
gpio_analog_sel[18] O
gpio_analog_sel[19] O
gpio_analog_sel[1] O
gpio_analog_sel[20] O
gpio_analog_sel[21] O
gpio_analog_sel[22] O
gpio_analog_sel[23] O
gpio_analog_sel[24] O
gpio_analog_sel[25] O
gpio_analog_sel[26] O
gpio_analog_sel[27] O
gpio_analog_sel[28] O
gpio_analog_sel[29] O
gpio_analog_sel[2] O
gpio_analog_sel[30] O
gpio_analog_sel[31] O
gpio_analog_sel[32] O
gpio_analog_sel[33] O
gpio_analog_sel[34] O
gpio_analog_sel[35] O
gpio_analog_sel[36] O
gpio_analog_sel[37] O
gpio_analog_sel[38] O
gpio_analog_sel[39] O
gpio_analog_sel[3] O
gpio_analog_sel[40] O
gpio_analog_sel[41] O
gpio_analog_sel[42] O
gpio_analog_sel[43] O
gpio_analog_sel[4] O
gpio_analog_sel[5] O
gpio_analog_sel[6] O
gpio_analog_sel[7] O
gpio_analog_sel[8] O
gpio_analog_sel[9] O
gpio_dm0[0] O
gpio_dm0[10] O
gpio_dm0[11] O
gpio_dm0[12] O
gpio_dm0[13] O
gpio_dm0[14] O
gpio_dm0[15] O
gpio_dm0[16] O
gpio_dm0[17] O
gpio_dm0[18] O
gpio_dm0[19] O
gpio_dm0[1] O
gpio_dm0[20] O
gpio_dm0[21] O
gpio_dm0[22] O
gpio_dm0[23] O
gpio_dm0[24] O
gpio_dm0[25] O
gpio_dm0[26] O
gpio_dm0[27] O
gpio_dm0[28] O
gpio_dm0[29] O
gpio_dm0[2] O
gpio_dm0[30] O
gpio_dm0[31] O
gpio_dm0[32] O
gpio_dm0[33] O
gpio_dm0[34] O
gpio_dm0[35] O
gpio_dm0[36] O
gpio_dm0[37] O
gpio_dm0[38] O
gpio_dm0[39] O
gpio_dm0[3] O
gpio_dm0[40] O
gpio_dm0[41] O
gpio_dm0[42] O
gpio_dm0[43] O
gpio_dm0[4] O
gpio_dm0[5] O
gpio_dm0[6] O
gpio_dm0[7] O
gpio_dm0[8] O
gpio_dm0[9] O
gpio_dm1[0] O
gpio_dm1[10] O
gpio_dm1[11] O
gpio_dm1[12] O
gpio_dm1[13] O
gpio_dm1[14] O
gpio_dm1[15] O
gpio_dm1[16] O
gpio_dm1[17] O
gpio_dm1[18] O
gpio_dm1[19] O
gpio_dm1[1] O
gpio_dm1[20] O
gpio_dm1[21] O
gpio_dm1[22] O
gpio_dm1[23] O
gpio_dm1[24] O
gpio_dm1[25] O
gpio_dm1[26] O
gpio_dm1[27] O
gpio_dm1[28] O
gpio_dm1[29] O
gpio_dm1[2] O
gpio_dm1[30] O
gpio_dm1[31] O
gpio_dm1[32] O
gpio_dm1[33] O
gpio_dm1[34] O
gpio_dm1[35] O
gpio_dm1[36] O
gpio_dm1[37] O
gpio_dm1[38] O
gpio_dm1[39] O
gpio_dm1[3] O
gpio_dm1[40] O
gpio_dm1[41] O
gpio_dm1[42] O
gpio_dm1[43] O
gpio_dm1[4] O
gpio_dm1[5] O
gpio_dm1[6] O
gpio_dm1[7] O
gpio_dm1[8] O
gpio_dm1[9] O
gpio_dm2[0] O
gpio_dm2[10] O
gpio_dm2[11] O
gpio_dm2[12] O
gpio_dm2[13] O
gpio_dm2[14] O
gpio_dm2[15] O
gpio_dm2[16] O
gpio_dm2[17] O
gpio_dm2[18] O
gpio_dm2[19] O
gpio_dm2[1] O
gpio_dm2[20] O
gpio_dm2[21] O
gpio_dm2[22] O
gpio_dm2[23] O
gpio_dm2[24] O
gpio_dm2[25] O
gpio_dm2[26] O
gpio_dm2[27] O
gpio_dm2[28] O
gpio_dm2[29] O
gpio_dm2[2] O
gpio_dm2[30] O
gpio_dm2[31] O
gpio_dm2[32] O
gpio_dm2[33] O
gpio_dm2[34] O
gpio_dm2[35] O
gpio_dm2[36] O
gpio_dm2[37] O
gpio_dm2[38] O
gpio_dm2[39] O
gpio_dm2[3] O
gpio_dm2[40] O
gpio_dm2[41] O
gpio_dm2[42] O
gpio_dm2[43] O
gpio_dm2[4] O
gpio_dm2[5] O
gpio_dm2[6] O
gpio_dm2[7] O
gpio_dm2[8] O
gpio_dm2[9] O
gpio_holdover[0] O
gpio_holdover[10] O
gpio_holdover[11] O
gpio_holdover[12] O
gpio_holdover[13] O
gpio_holdover[14] O
gpio_holdover[15] O
gpio_holdover[16] O
gpio_holdover[17] O
gpio_holdover[18] O
gpio_holdover[19] O
gpio_holdover[1] O
gpio_holdover[20] O
gpio_holdover[21] O
gpio_holdover[22] O
gpio_holdover[23] O
gpio_holdover[24] O
gpio_holdover[25] O
gpio_holdover[26] O
gpio_holdover[27] O
gpio_holdover[28] O
gpio_holdover[29] O
gpio_holdover[2] O
gpio_holdover[30] O
gpio_holdover[31] O
gpio_holdover[32] O
gpio_holdover[33] O
gpio_holdover[34] O
gpio_holdover[35] O
gpio_holdover[36] O
gpio_holdover[37] O
gpio_holdover[38] O
gpio_holdover[39] O
gpio_holdover[3] O
gpio_holdover[40] O
gpio_holdover[41] O
gpio_holdover[42] O
gpio_holdover[43] O
gpio_holdover[4] O
gpio_holdover[5] O
gpio_holdover[6] O
gpio_holdover[7] O
gpio_holdover[8] O
gpio_holdover[9] O
gpio_ib_mode_sel[0] O
gpio_ib_mode_sel[10] O
gpio_ib_mode_sel[11] O
gpio_ib_mode_sel[12] O
gpio_ib_mode_sel[13] O
gpio_ib_mode_sel[14] O
gpio_ib_mode_sel[15] O
gpio_ib_mode_sel[16] O
gpio_ib_mode_sel[17] O
gpio_ib_mode_sel[18] O
gpio_ib_mode_sel[19] O
gpio_ib_mode_sel[1] O
gpio_ib_mode_sel[20] O
gpio_ib_mode_sel[21] O
gpio_ib_mode_sel[22] O
gpio_ib_mode_sel[23] O
gpio_ib_mode_sel[24] O
gpio_ib_mode_sel[25] O
gpio_ib_mode_sel[26] O
gpio_ib_mode_sel[27] O
gpio_ib_mode_sel[28] O
gpio_ib_mode_sel[29] O
gpio_ib_mode_sel[2] O
gpio_ib_mode_sel[30] O
gpio_ib_mode_sel[31] O
gpio_ib_mode_sel[32] O
gpio_ib_mode_sel[33] O
gpio_ib_mode_sel[34] O
gpio_ib_mode_sel[35] O
gpio_ib_mode_sel[36] O
gpio_ib_mode_sel[37] O
gpio_ib_mode_sel[38] O
gpio_ib_mode_sel[39] O
gpio_ib_mode_sel[3] O
gpio_ib_mode_sel[40] O
gpio_ib_mode_sel[41] O
gpio_ib_mode_sel[42] O
gpio_ib_mode_sel[43] O
gpio_ib_mode_sel[4] O
gpio_ib_mode_sel[5] O
gpio_ib_mode_sel[6] O
gpio_ib_mode_sel[7] O
gpio_ib_mode_sel[8] O
gpio_ib_mode_sel[9] O
gpio_in[0] I
gpio_in[10] I
gpio_in[11] I
gpio_in[12] I
gpio_in[13] I
gpio_in[14] I
gpio_in[15] I
gpio_in[16] I
gpio_in[17] I
gpio_in[18] I
gpio_in[19] I
gpio_in[1] I
gpio_in[20] I
gpio_in[21] I
gpio_in[22] I
gpio_in[23] I
gpio_in[24] I
gpio_in[25] I
gpio_in[26] I
gpio_in[27] I
gpio_in[28] I
gpio_in[29] I
gpio_in[2] I
gpio_in[30] I
gpio_in[31] I
gpio_in[32] I
gpio_in[33] I
gpio_in[34] I
gpio_in[35] I
gpio_in[36] I
gpio_in[37] I
gpio_in[38] I
gpio_in[39] I
gpio_in[3] I
gpio_in[40] I
gpio_in[41] I
gpio_in[42] I
gpio_in[43] I
gpio_in[4] I
gpio_in[5] I
gpio_in[6] I
gpio_in[7] I
gpio_in[8] I
gpio_in[9] I
gpio_in_h[0] I
gpio_in_h[10] I
gpio_in_h[11] I
gpio_in_h[12] I
gpio_in_h[13] I
gpio_in_h[14] I
gpio_in_h[15] I
gpio_in_h[16] I
gpio_in_h[17] I
gpio_in_h[18] I
gpio_in_h[19] I
gpio_in_h[1] I
gpio_in_h[20] I
gpio_in_h[21] I
gpio_in_h[22] I
gpio_in_h[23] I
gpio_in_h[24] I
gpio_in_h[25] I
gpio_in_h[26] I
gpio_in_h[27] I
gpio_in_h[28] I
gpio_in_h[29] I
gpio_in_h[2] I
gpio_in_h[30] I
gpio_in_h[31] I
gpio_in_h[32] I
gpio_in_h[33] I
gpio_in_h[34] I
gpio_in_h[35] I
gpio_in_h[36] I
gpio_in_h[37] I
gpio_in_h[38] I
gpio_in_h[39] I
gpio_in_h[3] I
gpio_in_h[40] I
gpio_in_h[41] I
gpio_in_h[42] I
gpio_in_h[43] I
gpio_in_h[4] I
gpio_in_h[5] I
gpio_in_h[6] I
gpio_in_h[7] I
gpio_in_h[8] I
gpio_in_h[9] I
gpio_inp_dis[0] O
gpio_inp_dis[10] O
gpio_inp_dis[11] O
gpio_inp_dis[12] O
gpio_inp_dis[13] O
gpio_inp_dis[14] O
gpio_inp_dis[15] O
gpio_inp_dis[16] O
gpio_inp_dis[17] O
gpio_inp_dis[18] O
gpio_inp_dis[19] O
gpio_inp_dis[1] O
gpio_inp_dis[20] O
gpio_inp_dis[21] O
gpio_inp_dis[22] O
gpio_inp_dis[23] O
gpio_inp_dis[24] O
gpio_inp_dis[25] O
gpio_inp_dis[26] O
gpio_inp_dis[27] O
gpio_inp_dis[28] O
gpio_inp_dis[29] O
gpio_inp_dis[2] O
gpio_inp_dis[30] O
gpio_inp_dis[31] O
gpio_inp_dis[32] O
gpio_inp_dis[33] O
gpio_inp_dis[34] O
gpio_inp_dis[35] O
gpio_inp_dis[36] O
gpio_inp_dis[37] O
gpio_inp_dis[38] O
gpio_inp_dis[39] O
gpio_inp_dis[3] O
gpio_inp_dis[40] O
gpio_inp_dis[41] O
gpio_inp_dis[42] O
gpio_inp_dis[43] O
gpio_inp_dis[4] O
gpio_inp_dis[5] O
gpio_inp_dis[6] O
gpio_inp_dis[7] O
gpio_inp_dis[8] O
gpio_inp_dis[9] O
gpio_loopback_one[0] I
gpio_loopback_one[10] I
gpio_loopback_one[11] I
gpio_loopback_one[12] I
gpio_loopback_one[13] I
gpio_loopback_one[14] I
gpio_loopback_one[15] I
gpio_loopback_one[16] I
gpio_loopback_one[17] I
gpio_loopback_one[18] I
gpio_loopback_one[19] I
gpio_loopback_one[1] I
gpio_loopback_one[20] I
gpio_loopback_one[21] I
gpio_loopback_one[22] I
gpio_loopback_one[23] I
gpio_loopback_one[24] I
gpio_loopback_one[25] I
gpio_loopback_one[26] I
gpio_loopback_one[27] I
gpio_loopback_one[28] I
gpio_loopback_one[29] I
gpio_loopback_one[2] I
gpio_loopback_one[30] I
gpio_loopback_one[31] I
gpio_loopback_one[32] I
gpio_loopback_one[33] I
gpio_loopback_one[34] I
gpio_loopback_one[35] I
gpio_loopback_one[36] I
gpio_loopback_one[37] I
gpio_loopback_one[38] I
gpio_loopback_one[39] I
gpio_loopback_one[3] I
gpio_loopback_one[40] I
gpio_loopback_one[41] I
gpio_loopback_one[42] I
gpio_loopback_one[43] I
gpio_loopback_one[4] I
gpio_loopback_one[5] I
gpio_loopback_one[6] I
gpio_loopback_one[7] I
gpio_loopback_one[8] I
gpio_loopback_one[9] I
gpio_loopback_zero[0] I
gpio_loopback_zero[10] I
gpio_loopback_zero[11] I
gpio_loopback_zero[12] I
gpio_loopback_zero[13] I
gpio_loopback_zero[14] I
gpio_loopback_zero[15] I
gpio_loopback_zero[16] I
gpio_loopback_zero[17] I
gpio_loopback_zero[18] I
gpio_loopback_zero[19] I
gpio_loopback_zero[1] I
gpio_loopback_zero[20] I
gpio_loopback_zero[21] I
gpio_loopback_zero[22] I
gpio_loopback_zero[23] I
gpio_loopback_zero[24] I
gpio_loopback_zero[25] I
gpio_loopback_zero[26] I
gpio_loopback_zero[27] I
gpio_loopback_zero[28] I
gpio_loopback_zero[29] I
gpio_loopback_zero[2] I
gpio_loopback_zero[30] I
gpio_loopback_zero[31] I
gpio_loopback_zero[32] I
gpio_loopback_zero[33] I
gpio_loopback_zero[34] I
gpio_loopback_zero[35] I
gpio_loopback_zero[36] I
gpio_loopback_zero[37] I
gpio_loopback_zero[38] I
gpio_loopback_zero[39] I
gpio_loopback_zero[3] I
gpio_loopback_zero[40] I
gpio_loopback_zero[41] I
gpio_loopback_zero[42] I
gpio_loopback_zero[43] I
gpio_loopback_zero[4] I
gpio_loopback_zero[5] I
gpio_loopback_zero[6] I
gpio_loopback_zero[7] I
gpio_loopback_zero[8] I
gpio_loopback_zero[9] I
gpio_oeb[0] O
gpio_oeb[10] O
gpio_oeb[11] O
gpio_oeb[12] O
gpio_oeb[13] O
gpio_oeb[14] O
gpio_oeb[15] O
gpio_oeb[16] O
gpio_oeb[17] O
gpio_oeb[18] O
gpio_oeb[19] O
gpio_oeb[1] O
gpio_oeb[20] O
gpio_oeb[21] O
gpio_oeb[22] O
gpio_oeb[23] O
gpio_oeb[24] O
gpio_oeb[25] O
gpio_oeb[26] O
gpio_oeb[27] O
gpio_oeb[28] O
gpio_oeb[29] O
gpio_oeb[2] O
gpio_oeb[30] O
gpio_oeb[31] O
gpio_oeb[32] O
gpio_oeb[33] O
gpio_oeb[34] O
gpio_oeb[35] O
gpio_oeb[36] O
gpio_oeb[37] O
gpio_oeb[38] O
gpio_oeb[39] O
gpio_oeb[3] O
gpio_oeb[40] O
gpio_oeb[41] O
gpio_oeb[42] O
gpio_oeb[43] O
gpio_oeb[4] O
gpio_oeb[5] O
gpio_oeb[6] O
gpio_oeb[7] O
gpio_oeb[8] O
gpio_oeb[9] O
gpio_out[0] O
gpio_out[10] O
gpio_out[11] O
gpio_out[12] O
gpio_out[13] O
gpio_out[14] O
gpio_out[15] O
gpio_out[16] O
gpio_out[17] O
gpio_out[18] O
gpio_out[19] O
gpio_out[1] O
gpio_out[20] O
gpio_out[21] O
gpio_out[22] O
gpio_out[23] O
gpio_out[24] O
gpio_out[25] O
gpio_out[26] O
gpio_out[27] O
gpio_out[28] O
gpio_out[29] O
gpio_out[2] O
gpio_out[30] O
gpio_out[31] O
gpio_out[32] O
gpio_out[33] O
gpio_out[34] O
gpio_out[35] O
gpio_out[36] O
gpio_out[37] O
gpio_out[38] O
gpio_out[39] O
gpio_out[3] O
gpio_out[40] O
gpio_out[41] O
gpio_out[42] O
gpio_out[43] O
gpio_out[4] O
gpio_out[5] O
gpio_out[6] O
gpio_out[7] O
gpio_out[8] O
gpio_out[9] O
gpio_slow_sel[0] O
gpio_slow_sel[10] O
gpio_slow_sel[11] O
gpio_slow_sel[12] O
gpio_slow_sel[13] O
gpio_slow_sel[14] O
gpio_slow_sel[15] O
gpio_slow_sel[16] O
gpio_slow_sel[17] O
gpio_slow_sel[18] O
gpio_slow_sel[19] O
gpio_slow_sel[1] O
gpio_slow_sel[20] O
gpio_slow_sel[21] O
gpio_slow_sel[22] O
gpio_slow_sel[23] O
gpio_slow_sel[24] O
gpio_slow_sel[25] O
gpio_slow_sel[26] O
gpio_slow_sel[27] O
gpio_slow_sel[28] O
gpio_slow_sel[29] O
gpio_slow_sel[2] O
gpio_slow_sel[30] O
gpio_slow_sel[31] O
gpio_slow_sel[32] O
gpio_slow_sel[33] O
gpio_slow_sel[34] O
gpio_slow_sel[35] O
gpio_slow_sel[36] O
gpio_slow_sel[37] O
gpio_slow_sel[38] O
gpio_slow_sel[39] O
gpio_slow_sel[3] O
gpio_slow_sel[40] O
gpio_slow_sel[41] O
gpio_slow_sel[42] O
gpio_slow_sel[43] O
gpio_slow_sel[4] O
gpio_slow_sel[5] O
gpio_slow_sel[6] O
gpio_slow_sel[7] O
gpio_slow_sel[8] O
gpio_slow_sel[9] O
gpio_vtrip_sel[0] O
gpio_vtrip_sel[10] O
gpio_vtrip_sel[11] O
gpio_vtrip_sel[12] O
gpio_vtrip_sel[13] O
gpio_vtrip_sel[14] O
gpio_vtrip_sel[15] O
gpio_vtrip_sel[16] O
gpio_vtrip_sel[17] O
gpio_vtrip_sel[18] O
gpio_vtrip_sel[19] O
gpio_vtrip_sel[1] O
gpio_vtrip_sel[20] O
gpio_vtrip_sel[21] O
gpio_vtrip_sel[22] O
gpio_vtrip_sel[23] O
gpio_vtrip_sel[24] O
gpio_vtrip_sel[25] O
gpio_vtrip_sel[26] O
gpio_vtrip_sel[27] O
gpio_vtrip_sel[28] O
gpio_vtrip_sel[29] O
gpio_vtrip_sel[2] O
gpio_vtrip_sel[30] O
gpio_vtrip_sel[31] O
gpio_vtrip_sel[32] O
gpio_vtrip_sel[33] O
gpio_vtrip_sel[34] O
gpio_vtrip_sel[35] O
gpio_vtrip_sel[36] O
gpio_vtrip_sel[37] O
gpio_vtrip_sel[38] O
gpio_vtrip_sel[39] O
gpio_vtrip_sel[3] O
gpio_vtrip_sel[40] O
gpio_vtrip_sel[41] O
gpio_vtrip_sel[42] O
gpio_vtrip_sel[43] O
gpio_vtrip_sel[4] O
gpio_vtrip_sel[5] O
gpio_vtrip_sel[6] O
gpio_vtrip_sel[7] O
gpio_vtrip_sel[8] O
gpio_vtrip_sel[9] O
mask_rev[0] I
mask_rev[10] I
mask_rev[11] I
mask_rev[12] I
mask_rev[13] I
mask_rev[14] I
mask_rev[15] I
mask_rev[16] I
mask_rev[17] I
mask_rev[18] I
mask_rev[19] I
mask_rev[1] I
mask_rev[20] I
mask_rev[21] I
mask_rev[22] I
mask_rev[23] I
mask_rev[24] I
mask_rev[25] I
mask_rev[26] I
mask_rev[27] I
mask_rev[28] I
mask_rev[29] I
mask_rev[2] I
mask_rev[30] I
mask_rev[31] I
mask_rev[3] I
mask_rev[4] I
mask_rev[5] I
mask_rev[6] I
mask_rev[7] I
mask_rev[8] I
mask_rev[9] I
por_l I
porb_h I
porb_l I
resetb_h I
resetb_l I

*D_NET *89 0.116402
*CONN
*P gpio_analog_en[0] O
*I *921:gpio_analog_en[0] O *D CF_CARAVEL_SOC
*CAP
1 gpio_analog_en[0] 0.00416523
2 *921:gpio_analog_en[0] 0.00578782
3 *89:11 0.0213097
4 *89:9 0.0229322
5 gpio_analog_en[0] gpio_analog_pol[0] 0.000350186
6 gpio_analog_en[0] gpio_dm0[0] 0.00188076
7 gpio_analog_en[0] gpio_dm1[0] 0
8 gpio_analog_en[0] *120:11 0.00012757
9 gpio_analog_en[0] *529:13 0.000216438
10 *89:9 *100:9 0
11 *89:11 *100:11 0
12 *89:11 *133:11 0.0463761
13 *89:11 *222:11 0
14 *89:11 *224:15 0.00401271
15 *89:11 *224:19 0.00306837
16 *89:11 *232:11 0.000954317
17 *89:11 *307:11 0.00522076
*RES
1 *921:gpio_analog_en[0] *89:9 21.7144 
2 *89:9 *89:11 107.949 
3 *89:11 gpio_analog_en[0] 39.5644 
*END

*D_NET *90 0.386956
*CONN
*P gpio_analog_en[10] O
*I *921:gpio_analog_en[10] O *D CF_CARAVEL_SOC
*CAP
1 gpio_analog_en[10] 0.00641399
2 *921:gpio_analog_en[10] 0.00398795
3 *90:11 0.0635384
4 *90:9 0.0611123
5 gpio_analog_en[10] gpio_analog_pol[10] 0.000246404
6 gpio_analog_en[10] gpio_dm0[10] 0
7 gpio_analog_en[10] gpio_dm1[10] 0
8 gpio_analog_en[10] *222:19 0.000120707
9 *90:9 *91:9 0
10 *90:11 *144:11 0.0135493
11 *90:11 *159:13 0.00178334
12 *90:11 *179:11 0
13 *90:11 *226:11 0.0104022
14 *90:11 *247:11 0.000844933
15 *90:11 *288:67 0.0296781
16 *90:11 *308:11 0.165163
17 *90:11 *391:29 0.0125927
18 *90:11 *445:19 0.00123563
19 *90:11 *562:123 0.000370099
20 *90:11 *694:10 0.00332178
21 *90:11 *727:15 0.0071467
22 *90:11 *738:15 0.00407176
23 *90:11 *788:55 0.00137611
*RES
1 *921:gpio_analog_en[10] *90:9 17.2867 
2 *90:9 *90:11 424.013 
3 *90:11 gpio_analog_en[10] 23.5764 
*END

*D_NET *91 0.433875
*CONN
*P gpio_analog_en[11] O
*I *921:gpio_analog_en[11] O *D CF_CARAVEL_SOC
*CAP
1 gpio_analog_en[11] 0.00609213
2 *921:gpio_analog_en[11] 0.00275043
3 *91:11 0.10099
4 *91:9 0.0976486
5 gpio_analog_en[11] gpio_dm0[11] 0.00375097
6 gpio_analog_en[11] gpio_dm1[11] 0
7 *91:9 *92:9 0
8 *91:9 *314:17 0.00015403
9 *91:9 *334:6 0.000227734
10 *91:11 *97:11 0.00341197
11 *91:11 *99:11 0.00341197
12 *91:11 *105:27 0
13 *91:11 *107:11 0.00472915
14 *91:11 *152:11 0.000826872
15 *91:11 *153:19 0
16 *91:11 *160:11 0.00181933
17 *91:11 *212:11 0.000684392
18 *91:11 *245:11 0
19 *91:11 *279:11 0
20 *91:11 *280:19 0
21 *91:11 *282:11 0
22 *91:11 *314:13 4.56421e-05
23 *91:11 *352:11 0.166887
24 *91:11 *534:15 0.0404441
25 *90:9 *91:9 0
*RES
1 *921:gpio_analog_en[11] *91:9 14.4941 
2 *91:9 *91:11 465.394 
3 *91:11 gpio_analog_en[11] 25.9732 
*END

*D_NET *92 0.437456
*CONN
*P gpio_analog_en[12] O
*I *921:gpio_analog_en[12] O *D CF_CARAVEL_SOC
*CAP
1 gpio_analog_en[12] 0.00636511
2 *921:gpio_analog_en[12] 0.0029887
3 *92:11 0.077083
4 *92:9 0.0737066
5 gpio_analog_en[12] gpio_analog_pol[12] 0.000569048
6 gpio_analog_en[12] gpio_dm0[12] 0.000384357
7 gpio_analog_en[12] gpio_dm1[12] 0
8 *92:9 *93:9 0.000838699
9 *92:9 *314:17 0
10 *92:9 *334:6 0.000227734
11 *92:9 *474:9 8.37749e-05
12 *92:11 *105:11 0.0423537
13 *92:11 *105:27 0.0112791
14 *92:11 *106:19 0.00642052
15 *92:11 *108:11 0.0807937
16 *92:11 *140:53 0.000245573
17 *92:11 *350:11 0
18 *92:11 *443:11 0.0306722
19 *92:11 *569:22 0.00616126
20 *92:11 *570:26 0.0213779
21 *92:11 *572:28 0.0656417
22 *92:11 *661:19 0.00578711
23 *92:11 *698:23 0.000487858
24 *92:11 *743:15 0.00356453
25 *92:11 *745:15 0.00042352
26 *91:9 *92:9 0
*RES
1 *921:gpio_analog_en[12] *92:9 15.868 
2 *92:9 *92:11 505.631 
3 *92:11 gpio_analog_en[12] 25.346 
*END

*D_NET *93 0.590664
*CONN
*P gpio_analog_en[13] O
*I *921:gpio_analog_en[13] O *D CF_CARAVEL_SOC
*CAP
1 gpio_analog_en[13] 0.00564721
2 *921:gpio_analog_en[13] 0.00392446
3 *93:11 0.0616728
4 *93:9 0.0599501
5 gpio_analog_en[13] gpio_dm0[13] 0
6 gpio_analog_en[13] *533:202 0
7 *93:9 *94:9 0
8 *93:9 *327:17 0.000114487
9 *93:9 *474:9 0
10 *93:11 *130:11 0.00119555
11 *93:11 *138:11 0.217679
12 *93:11 *179:11 0.031275
13 *93:11 *223:19 0
14 *93:11 *254:11 0.000221845
15 *93:11 *321:23 0.00216225
16 *93:11 *342:11 0.000343692
17 *93:11 *530:113 0.184881
18 *93:11 *533:202 0
19 *93:11 *567:18 0.020758
20 *92:9 *93:9 0.000838699
*RES
1 *921:gpio_analog_en[13] *93:9 18.0651 
2 *93:9 *93:11 3266.62 
3 *93:11 gpio_analog_en[13] 22.2455 
*END

*D_NET *94 0.539304
*CONN
*P gpio_analog_en[14] O
*I *921:gpio_analog_en[14] O *D CF_CARAVEL_SOC
*CAP
1 gpio_analog_en[14] 0.00340184
2 *921:gpio_analog_en[14] 0.0057009
3 *94:19 0.106625
4 *94:17 0.103657
5 *94:11 0.00963335
6 *94:9 0.0148996
7 gpio_analog_en[14] gpio_dm0[14] 0.00200823
8 gpio_analog_en[14] gpio_inp_dis[14] 0
9 *94:9 *327:17 0.000245307
10 *94:11 *122:13 0.000764334
11 *94:11 *133:11 0.00224933
12 *94:11 *177:11 0.00464359
13 *94:11 *181:11 6.84295e-05
14 *94:11 *215:13 0.00235082
15 *94:11 *259:11 0.00021124
16 *94:11 *260:19 0.00309916
17 *94:11 *288:11 0.00129086
18 *94:11 *312:19 0.0027025
19 *94:11 *326:11 0.00270977
20 *94:11 *535:121 0.00309916
21 *94:17 gpio_analog_en[4] 0.000639135
22 *94:17 gpio_slow_sel[4] 0
23 *94:17 *181:9 8.34876e-05
24 *94:19 *104:19 0.00268797
25 *94:19 *114:21 0.00087372
26 *94:19 *137:11 0.0163213
27 *94:19 *169:11 0.0321247
28 *94:19 *174:11 0.00771852
29 *94:19 *178:15 0.00191596
30 *94:19 *224:19 0.201374
31 *94:19 *242:11 0.00507328
32 *94:19 *274:105 0.00113135
33 *94:19 *313:11 0
34 *94:19 *531:28 0
35 *93:9 *94:9 0
*RES
1 *921:gpio_analog_en[14] *94:9 21.1992 
2 *94:9 *94:11 44.1019 
3 *94:11 *94:17 17.3011 
4 *94:17 *94:19 3481.43 
5 *94:19 gpio_analog_en[14] 17.2316 
*END

*D_NET *95 0.422736
*CONN
*P gpio_analog_en[15] O
*I *921:gpio_analog_en[15] O *D CF_CARAVEL_SOC
*CAP
1 gpio_analog_en[15] 9.49606e-05
2 *921:gpio_analog_en[15] 0.00324552
3 *95:19 0.129967
4 *95:17 0.134065
5 *95:11 0.0287866
6 *95:9 0.0278391
7 gpio_analog_en[15] gpio_dm0[15] 0
8 *95:9 *96:9 0
9 *95:9 *334:6 0.000227734
10 *95:11 *96:11 0.0249487
11 *95:11 *105:23 0.00276823
12 *95:11 *105:27 0.00190308
13 *95:11 *108:11 0.00504184
14 *95:11 *125:11 0.0114348
15 *95:11 *350:11 0.000122544
16 *95:11 *443:11 0
17 *95:17 *107:25 4.93993e-05
18 *95:17 *112:25 4.93913e-05
19 *95:17 *116:53 0.00018663
20 *95:17 *139:17 0.0103403
21 *95:17 *196:25 9.4972e-05
22 *95:17 *198:25 4.93913e-05
23 *95:17 *683:11 0
24 *95:17 *744:11 0.00259602
25 *95:19 *140:95 0.033743
26 *95:19 *227:19 0
27 *95:19 *274:137 0.00518188
*RES
1 *921:gpio_analog_en[15] *95:9 15.4816 
2 *95:9 *95:11 792.466 
3 *95:11 *95:17 36.2347 
4 *95:17 *95:19 3121.54 
5 *95:19 gpio_analog_en[15] 1.86429 
*END

*D_NET *96 0.687944
*CONN
*P gpio_analog_en[16] O
*I *921:gpio_analog_en[16] O *D CF_CARAVEL_SOC
*CAP
1 gpio_analog_en[16] 9.91989e-05
2 *921:gpio_analog_en[16] 0.00318032
3 *96:15 0.0217336
4 *96:13 0.0216344
5 *96:11 0.100486
6 *96:9 0.103666
7 gpio_analog_en[16] gpio_dm0[16] 0
8 *96:9 *97:9 0
9 *96:9 *334:6 0.000227734
10 *96:11 *105:23 0.00277352
11 *96:11 *105:27 0.0489108
12 *96:11 *125:11 0.0109901
13 *96:11 *314:19 0.293601
14 *96:11 *350:11 0.00330485
15 *96:11 *443:11 0
16 *96:15 *359:23 0.0494629
17 *96:15 *535:125 0.00292479
18 *95:9 *96:9 0
19 *95:11 *96:11 0.0249487
*RES
1 *921:gpio_analog_en[16] *96:9 15.3099 
2 *96:9 *96:11 3908.23 
3 *96:11 *96:13 8 
4 *96:13 *96:15 115.117 
5 *96:15 gpio_analog_en[16] 9.48107 
*END

*D_NET *97 0.672832
*CONN
*P gpio_analog_en[17] O
*I *921:gpio_analog_en[17] O *D CF_CARAVEL_SOC
*CAP
1 gpio_analog_en[17] 0.08824
2 *921:gpio_analog_en[17] 0.00236205
3 *97:17 0.08824
4 *97:15 0.0308713
5 *97:13 0.0308713
6 *97:11 0.0106205
7 *97:9 0.0129825
8 gpio_analog_en[17] gpio_dm0[17] 0
9 gpio_analog_en[17] *757:19 0.2416
10 *97:9 *98:9 0.000631451
11 *97:9 *334:6 0.000227734
12 *97:11 *99:11 0.0601754
13 *97:11 *107:11 0.0569469
14 *97:11 *160:11 1.98354e-05
15 *97:11 *274:11 0.000822179
16 *97:11 *316:11 0
17 *97:11 *534:15 0
18 *97:15 *107:15 0.00313986
19 *97:15 *183:15 0.0012783
20 *97:15 *195:15 0.00387284
21 *97:15 *204:33 0.0165876
22 *97:15 *693:11 0.00380454
23 *97:15 *700:6 0.0161259
24 *91:11 *97:11 0.00341197
25 *96:9 *97:9 0
*RES
1 *921:gpio_analog_en[17] *97:9 14.1077 
2 *97:9 *97:11 778.909 
3 *97:11 *97:13 15 
4 *97:13 *97:15 898.213 
5 *97:15 *97:17 15 
6 *97:17 gpio_analog_en[17] 3125.16 
*END

*D_NET *98 0.776796
*CONN
*P gpio_analog_en[18] O
*I *921:gpio_analog_en[18] O *D CF_CARAVEL_SOC
*CAP
1 gpio_analog_en[18] 0.137413
2 *921:gpio_analog_en[18] 0.00386341
3 *98:17 0.137413
4 *98:15 0.0164398
5 *98:13 0.0164398
6 *98:11 0.0107032
7 *98:9 0.0145666
8 gpio_analog_en[18] gpio_dm0[18] 0
9 gpio_analog_en[18] *230:27 0.0462257
10 gpio_analog_en[18] *538:407 0
11 *98:9 gpio_inp_dis[3] 0.000244354
12 *98:9 *99:9 0
13 *98:11 *101:11 0.061006
14 *98:11 *144:11 0.00310586
15 *98:11 *159:13 0.00211481
16 *98:11 *170:11 0.0288042
17 *98:11 *179:11 0.000586936
18 *98:11 *207:19 0.015996
19 *98:11 *247:11 0.00891027
20 *98:11 *288:67 0.000120999
21 *98:11 *530:113 0
22 *98:15 *99:15 0.12397
23 *98:15 *101:15 0.00111312
24 *98:15 *114:23 0.000216815
25 *98:15 *142:15 0.12173
26 *98:15 *184:15 0.00230431
27 *98:15 *227:17 0.00127196
28 *98:15 *689:11 0.0216044
29 *97:9 *98:9 0.000631451
*RES
1 *921:gpio_analog_en[18] *98:9 17.5499 
2 *98:9 *98:11 791.234 
3 *98:11 *98:13 15 
4 *98:13 *98:15 1380.83 
5 *98:15 *98:17 15 
6 *98:17 gpio_analog_en[18] 3110.02 
*END

*D_NET *99 0.815659
*CONN
*P gpio_analog_en[19] O
*I *921:gpio_analog_en[19] O *D CF_CARAVEL_SOC
*CAP
1 gpio_analog_en[19] 0.137453
2 *921:gpio_analog_en[19] 0.00262517
3 *99:17 0.137453
4 *99:15 0.0309919
5 *99:13 0.0309919
6 *99:11 0.0108102
7 *99:9 0.0134354
8 gpio_analog_en[19] gpio_dm0[19] 0
9 gpio_analog_en[19] *759:19 0
10 *99:9 *101:9 0
11 *99:11 *160:11 0.000122982
12 *99:11 *316:11 0
13 *99:11 *483:11 0.0585567
14 *99:11 *534:15 0
15 *99:15 *101:15 0.172183
16 *99:15 *142:15 0.000346557
17 *99:15 *227:17 0.000838063
18 *99:15 *328:59 0.000303609
19 *99:15 *689:11 0.0215994
20 *99:15 *745:11 0.0103898
21 *91:11 *99:11 0.00341197
22 *97:11 *99:11 0.0601754
23 *98:9 *99:9 0
24 *98:15 *99:15 0.12397
*RES
1 *921:gpio_analog_en[19] *99:9 13.768 
2 *99:9 *99:11 783.839 
3 *99:11 *99:13 15 
4 *99:13 *99:15 1885.85 
5 *99:15 *99:17 15 
6 *99:17 gpio_analog_en[19] 3110.37 
*END

*D_NET *100 0.0813827
*CONN
*P gpio_analog_en[1] O
*I *921:gpio_analog_en[1] O *D CF_CARAVEL_SOC
*CAP
1 gpio_analog_en[1] 0.00430507
2 *921:gpio_analog_en[1] 0.00546984
3 *100:18 0
4 *100:11 0.0160933
5 *100:9 0.017258
6 gpio_analog_en[1] gpio_dm0[1] 0.00240419
7 gpio_analog_en[1] gpio_dm1[1] 0
8 gpio_analog_en[1] *260:17 3.7992e-05
9 *100:9 *111:15 0
10 *100:11 *133:11 0
11 *100:11 *177:11 0.0295058
12 *100:11 *232:11 0.00011472
13 *100:11 *260:19 0.00325775
14 *100:11 *266:11 0.00118168
15 *100:11 *326:11 0.000877193
16 *100:11 *535:121 0.000877193
17 *89:9 *100:9 0
18 *89:11 *100:11 0
*RES
1 *921:gpio_analog_en[1] *100:9 20.8557 
2 *100:9 *100:11 67.8384 
3 *100:11 gpio_analog_en[1] 18.5877 
4 gpio_analog_en[1] *100:18 0.0589474 
*END

*D_NET *101 0.872826
*CONN
*P gpio_analog_en[20] O
*I *921:gpio_analog_en[20] O *D CF_CARAVEL_SOC
*CAP
1 gpio_analog_en[20] 0.000134032
2 *921:gpio_analog_en[20] 0.00422019
3 *101:19 0.137594
4 *101:17 0.13746
5 *101:15 0.0299442
6 *101:13 0.0299442
7 *101:11 0.017859
8 *101:9 0.0220792
9 gpio_analog_en[20] gpio_dm0[20] 0
10 gpio_analog_en[20] *233:19 0
11 *101:11 *159:13 0.00148768
12 *101:11 *179:11 0.00258119
13 *101:11 *274:39 0.00050807
14 *101:11 *288:57 0.00176895
15 *101:11 *288:59 0.00949352
16 *101:11 *288:67 0.000103953
17 *101:11 *530:113 0
18 *101:11 *831:75 0.00929544
19 *101:15 *104:31 0.198616
20 *101:15 *114:23 0.00266229
21 *101:15 *184:15 8.06804e-06
22 *101:15 *227:17 0.000725905
23 *101:15 *328:59 0.000350519
24 *101:15 *407:27 0
25 *101:15 *689:11 0.0283112
26 *101:15 *745:11 0.00337791
27 *101:19 *233:19 0
28 *98:11 *101:11 0.061006
29 *98:15 *101:15 0.00111312
30 *99:9 *101:9 0
31 *99:15 *101:15 0.172183
*RES
1 *921:gpio_analog_en[20] *101:9 17.6357 
2 *101:9 *101:11 779.261 
3 *101:11 *101:13 15 
4 *101:13 *101:15 2175.52 
5 *101:15 *101:17 15 
6 *101:17 *101:19 3109.39 
7 *101:19 gpio_analog_en[20] 1.86429 
*END

*D_NET *102 0.913853
*CONN
*P gpio_analog_en[21] O
*I *921:gpio_analog_en[21] O *D CF_CARAVEL_SOC
*CAP
1 gpio_analog_en[21] 0.000134032
2 *921:gpio_analog_en[21] 0.00338313
3 *102:27 0.117178
4 *102:25 0.117044
5 *102:23 0.0451363
6 *102:21 0.0451363
7 *102:19 0.0173685
8 *102:17 0.017426
9 *102:11 0.0127013
10 *102:9 0.016027
11 gpio_analog_en[21] gpio_dm0[21] 0
12 gpio_analog_en[21] *234:19 0
13 *102:9 *103:9 0.000891597
14 *102:9 *334:6 0.000227734
15 *102:11 *110:11 0.000129945
16 *102:11 *119:11 0.000715957
17 *102:11 *150:11 0.000897449
18 *102:11 *206:15 0.000242014
19 *102:11 *226:11 0.0189203
20 *102:11 *288:47 0.000323777
21 *102:11 *483:19 0.000185018
22 *102:11 *572:28 0.0479191
23 *102:11 *831:71 0.000118027
24 *102:17 *170:9 9.59396e-05
25 *102:19 *106:11 0.0126946
26 *102:19 *110:11 0.0132901
27 *102:19 *110:19 0.00627255
28 *102:19 *570:26 0
29 *102:19 *572:28 0.0013141
30 *102:19 *683:15 0.00402528
31 *102:19 *745:15 0
32 *102:23 *103:15 0.00195769
33 *102:23 *147:17 0.235781
34 *102:23 *324:15 0
35 *102:23 *679:13 0.176317
36 *102:27 *234:19 0
*RES
1 *921:gpio_analog_en[21] *102:9 16.5549 
2 *102:9 *102:11 111.25 
3 *102:11 *102:17 16.1848 
4 *102:17 *102:19 612.169 
5 *102:19 *102:21 8 
6 *102:21 *102:23 438.663 
7 *102:23 *102:25 8 
8 *102:25 *102:27 2651.08 
9 *102:27 gpio_analog_en[21] 1.86429 
*END

*D_NET *103 0.874519
*CONN
*P gpio_analog_en[22] O
*I *921:gpio_analog_en[22] O *D CF_CARAVEL_SOC
*CAP
1 gpio_analog_en[22] 0.117042
2 *921:gpio_analog_en[22] 0.0043352
3 *103:17 0.117042
4 *103:15 0.086137
5 *103:13 0.086137
6 *103:11 0.0242272
7 *103:9 0.0285624
8 gpio_analog_en[22] gpio_dm0[22] 0
9 gpio_analog_en[22] *710:7 0
10 *103:9 gpio_dm2[3] 0
11 *103:9 *104:9 0
12 *103:11 *115:11 0.0545282
13 *103:11 *130:11 0.00472792
14 *103:11 *141:11 0.00341848
15 *103:11 *216:11 0.00164456
16 *103:11 *246:11 0.0599228
17 *103:11 *270:19 0.0191111
18 *103:11 *444:11 0
19 *103:11 *788:19 0.000551136
20 *103:15 *147:17 0.262078
21 *103:15 *454:13 0
22 *103:15 *542:51 0
23 *103:15 *720:9 0.00220535
24 *102:9 *103:9 0.000891597
25 *102:23 *103:15 0.00195769
*RES
1 *921:gpio_analog_en[22] *103:9 18.752 
2 *103:9 *103:11 1224.9 
3 *103:11 *103:13 8 
4 *103:13 *103:15 489.238 
5 *103:15 *103:17 8 
6 *103:17 gpio_analog_en[22] 2653.82 
*END

*D_NET *104 0.865344
*CONN
*P gpio_analog_en[23] O
*I *921:gpio_analog_en[23] O *D CF_CARAVEL_SOC
*CAP
1 gpio_analog_en[23] 0.000131877
2 *921:gpio_analog_en[23] 0.00551514
3 *104:35 0.137458
4 *104:33 0.137326
5 *104:31 0.103474
6 *104:29 0.103474
7 *104:27 0.00270267
8 *104:25 0.00320689
9 *104:19 0.00444635
10 *104:11 0.0102557
11 *104:9 0.0118287
12 *104:9 gpio_out[3] 0.00228765
13 *104:11 *113:11 0.0104005
14 *104:11 *133:11 0.00187996
15 *104:11 *181:11 0.00270595
16 *104:11 *202:11 0.00639304
17 *104:11 *288:11 0.00123408
18 *104:11 *307:11 0.0156328
19 *104:19 gpio_analog_pol[5] 0.00342317
20 *104:19 *114:11 0.00153223
21 *104:19 *166:9 4.24588e-05
22 *104:19 *166:11 0.000293149
23 *104:19 *169:11 0.00225319
24 *104:19 *173:11 0.00504001
25 *104:19 *174:11 0.00542598
26 *104:19 *178:15 0.0014704
27 *104:19 *181:11 0.000105741
28 *104:19 *224:19 0.00187985
29 *104:19 *242:11 0.00168695
30 *104:19 *391:43 0.0016336
31 *104:19 *391:49 0
32 *104:27 *113:11 0.0159043
33 *104:27 *161:13 0.00144677
34 *104:27 *202:25 0.000129945
35 *104:27 *326:11 0.0143141
36 *104:27 *535:121 0.000781908
37 *104:31 *184:15 0.000172095
38 *104:31 *193:37 0
39 *104:31 *203:15 0.00806002
40 *104:31 *283:15 0
41 *104:31 *407:27 0
42 *104:31 *705:35 0
43 *104:31 *745:11 0.0380912
44 *104:35 gpio_dm0[23] 0
45 *104:35 *236:19 0
46 *104:35 *322:385 0
47 *104:35 *539:251 0
48 *104:35 *539:259 0
49 *94:19 *104:19 0.00268797
50 *101:15 *104:31 0.198616
51 *103:9 *104:9 0
*RES
1 *921:gpio_analog_en[23] *104:9 21.6715 
2 *104:9 *104:11 379.755 
3 *104:11 *104:19 49.0829 
4 *104:19 *104:25 17.0435 
5 *104:25 *104:27 203.508 
6 *104:27 *104:29 15 
7 *104:29 *104:31 2995.45 
8 *104:31 *104:33 15 
9 *104:33 *104:35 3110.45 
10 *104:35 gpio_analog_en[23] 2.01964 
*END

*D_NET *105 0.933801
*CONN
*P gpio_analog_en[24] O
*I *921:gpio_analog_en[24] O *D CF_CARAVEL_SOC
*CAP
1 gpio_analog_en[24] 9.36339e-05
2 *921:gpio_analog_en[24] 0.00333882
3 *105:31 0.16038
4 *105:29 0.160286
5 *105:27 0.0949083
6 *105:25 0.0949083
7 *105:23 0.000478389
8 *105:17 0.000591587
9 *105:11 0.0098706
10 *105:9 0.0130962
11 *105:9 *106:9 0
12 *105:11 *108:11 0.0412712
13 *105:11 *350:11 0.000122782
14 *105:11 *443:11 0.0039428
15 *105:17 *159:9 0.000177916
16 *105:17 *788:53 2.32903e-05
17 *105:23 *108:11 0.000383182
18 *105:23 *165:9 4.96824e-05
19 *105:27 *106:19 0
20 *105:27 *108:11 0.14027
21 *105:27 *226:11 0
22 *105:27 *314:19 0.0419381
23 *105:27 *350:11 0.0451343
24 *105:27 *351:11 0.00737786
25 *105:27 *352:11 0.002125
26 *105:31 gpio_analog_pol[24] 0
27 *105:31 gpio_dm0[24] 0.000131628
28 *105:31 *140:353 0.000140584
29 *105:31 *358:23 0
30 *105:31 *402:15 0
31 *105:31 *538:381 0.00277243
32 *105:31 *710:11 0
33 *91:11 *105:27 0
34 *92:11 *105:11 0.0423537
35 *92:11 *105:27 0.0112791
36 *95:11 *105:23 0.00276823
37 *95:11 *105:27 0.00190308
38 *96:11 *105:23 0.00277352
39 *96:11 *105:27 0.0489108
*RES
1 *921:gpio_analog_en[24] *105:9 15.5693 
2 *105:9 *105:11 98.0485 
3 *105:11 *105:17 16.3565 
4 *105:17 *105:23 43.4582 
5 *105:23 *105:25 8 
6 *105:25 *105:27 563.005 
7 *105:27 *105:29 8 
8 *105:29 *105:31 574.562 
9 *105:31 gpio_analog_en[24] 0.359333 
*END

*D_NET *106 0.653339
*CONN
*P gpio_analog_en[25] O
*I *921:gpio_analog_en[25] O *D CF_CARAVEL_SOC
*CAP
1 gpio_analog_en[25] 7.61232e-05
2 *921:gpio_analog_en[25] 0.00401679
3 *106:23 0.161869
4 *106:21 0.161793
5 *106:19 0.025847
6 *106:17 0.0259983
7 *106:11 0.0464004
8 *106:9 0.0502659
9 *106:9 *107:9 0
10 *106:9 *334:6 0.000227734
11 *106:9 *698:21 0.000130752
12 *106:11 *110:11 0.0265046
13 *106:11 *119:11 0.000607248
14 *106:11 *140:43 0.00583094
15 *106:11 *226:11 0.0322032
16 *106:11 *442:11 0.0545916
17 *106:11 *831:71 0.00144279
18 *106:19 *226:11 0.0275157
19 *106:19 *572:28 0.00890345
20 *106:23 gpio_dm0[25] 0
21 *106:23 *150:31 0
22 *106:23 *282:15 0
23 *92:11 *106:19 0.00642052
24 *102:19 *106:11 0.0126946
25 *105:9 *106:9 0
26 *105:27 *106:19 0
*RES
1 *921:gpio_analog_en[25] *106:9 16.9413 
2 *106:9 *106:11 1930.59 
3 *106:11 *106:17 16.4424 
4 *106:17 *106:19 159.865 
5 *106:19 *106:21 8 
6 *106:21 *106:23 575.764 
7 *106:23 gpio_analog_en[25] 0.292133 
*END

*D_NET *107 0.864754
*CONN
*P gpio_analog_en[26] O
*I *921:gpio_analog_en[26] O *D CF_CARAVEL_SOC
*CAP
1 gpio_analog_en[26] 0.00649749
2 *921:gpio_analog_en[26] 0.0023758
3 *107:31 0.102033
4 *107:29 0.0955354
5 *107:27 0.0642825
6 *107:25 0.0645287
7 *107:15 0.00201301
8 *107:13 0.00176678
9 *107:11 0.0157805
10 *107:9 0.0181563
11 gpio_analog_en[26] gpio_dm0[26] 0.000394564
12 gpio_analog_en[26] gpio_dm1[26] 0
13 gpio_analog_en[26] *239:15 0
14 gpio_analog_en[26] *283:31 0.000699532
15 gpio_analog_en[26] *363:11 0.000241414
16 gpio_analog_en[26] *458:11 0.000120707
17 *107:9 *108:9 0.000867283
18 *107:9 *334:6 0.000227734
19 *107:11 *152:11 0.00152903
20 *107:11 *160:11 0.014801
21 *107:11 *212:11 0.00801849
22 *107:11 *534:15 0
23 *107:15 *112:15 0.00578369
24 *107:15 *183:15 0.000420632
25 *107:15 *195:15 1.21972e-05
26 *107:15 *204:33 7.50355e-05
27 *107:25 *112:25 6.88461e-05
28 *107:25 *744:11 2.04785e-05
29 *107:27 *112:27 0.0747239
30 *107:27 *283:27 0
31 *107:27 *328:61 0.0201361
32 *107:31 *239:15 0.298778
33 *107:31 *283:31 0
34 *91:11 *107:11 0.00472915
35 *95:17 *107:25 4.93993e-05
36 *97:11 *107:11 0.0569469
37 *97:15 *107:15 0.00313986
38 *106:9 *107:9 0
*RES
1 *921:gpio_analog_en[26] *107:9 14.1936 
2 *107:9 *107:11 727.496 
3 *107:11 *107:13 15 
4 *107:13 *107:15 65.4157 
5 *107:15 *107:25 34.9414 
6 *107:25 *107:27 333.891 
7 *107:27 *107:29 8 
8 *107:29 *107:31 546.254 
9 *107:31 gpio_analog_en[26] 16.6385 
*END

*D_NET *108 0.699489
*CONN
*P gpio_analog_en[27] O
*I *921:gpio_analog_en[27] O *D CF_CARAVEL_SOC
*CAP
1 gpio_analog_en[27] 0.00338671
2 *921:gpio_analog_en[27] 0.00279414
3 *108:15 0.162633
4 *108:13 0.159246
5 *108:11 0.0407076
6 *108:9 0.0435017
7 gpio_analog_en[27] gpio_analog_pol[27] 0
8 gpio_analog_en[27] gpio_dm0[27] 0.000249158
9 gpio_analog_en[27] gpio_dm1[27] 0
10 *108:11 *125:11 0.000826872
11 *108:11 *350:11 0.0175164
12 *108:15 *152:31 0
13 *92:11 *108:11 0.0807937
14 *95:11 *108:11 0.00504184
15 *105:11 *108:11 0.0412712
16 *105:23 *108:11 0.000383182
17 *105:27 *108:11 0.14027
18 *107:9 *108:9 0.000867283
*RES
1 *921:gpio_analog_en[27] *108:9 15.0168 
2 *108:9 *108:11 425.283 
3 *108:11 *108:13 8 
4 *108:13 *108:15 568.322 
5 *108:15 gpio_analog_en[27] 7.28653 
*END

*D_NET *109 0.673915
*CONN
*P gpio_analog_en[28] O
*I *921:gpio_analog_en[28] O *D CF_CARAVEL_SOC
*CAP
1 gpio_analog_en[28] 0.000111145
2 *921:gpio_analog_en[28] 0.000504501
3 *109:31 0.160124
4 *109:29 0.160013
5 *109:27 0.0457769
6 *109:25 0.0458372
7 *109:23 0.0103369
8 *109:21 0.0140832
9 *109:11 0.0115372
10 *109:9 0.00823504
11 *109:9 *110:9 0
12 *109:11 *121:11 0.00452094
13 *109:11 *123:11 0.000288799
14 *109:11 *126:11 0.000415877
15 *109:11 *164:15 0.0240212
16 *109:11 *193:9 0
17 *109:11 *209:11 0.00215079
18 *109:11 *211:9 0
19 *109:21 *116:27 0.00104122
20 *109:21 *140:13 0.000110915
21 *109:21 *194:27 0.00818283
22 *109:21 *204:9 0.000346889
23 *109:21 *205:21 0
24 *109:21 *209:9 0.000269528
25 *109:21 *209:11 2.28446e-05
26 *109:21 *321:35 0.0060338
27 *109:21 *334:6 0.000627993
28 *109:23 *148:9 0.0225749
29 *109:23 *150:19 0.000389263
30 *109:23 *151:9 0.00216808
31 *109:23 *153:27 0.000722788
32 *109:23 *156:11 0.000986183
33 *109:23 *157:11 0.000173453
34 *109:23 *167:13 0.000227734
35 *109:23 *204:15 0.000100494
36 *109:23 *204:17 0.000104065
37 *109:23 *204:21 0.00215096
38 *109:23 *241:19 0.000543488
39 *109:23 *321:35 0.000117807
40 *109:23 *329:36 0.00025616
41 *109:23 *329:50 0.00445029
42 *109:23 *334:6 0.000150521
43 *109:23 *334:26 0.000663844
44 *109:23 *334:32 0.0116115
45 *109:23 *788:37 0.000120999
46 *109:27 *146:17 0.00564118
47 *109:27 *151:9 0.0318018
48 *109:27 *152:27 0
49 *109:27 *153:27 0.0124788
50 *109:27 *154:9 0.017274
51 *109:27 *156:11 0.0390035
52 *109:27 *241:19 0.0132555
53 *109:27 *285:11 0
54 *109:31 gpio_dm0[28] 0.0010498
55 *109:31 *153:31 0
56 *109:31 *241:31 0
57 *109:31 *285:15 0
58 *109:31 *538:305 0.00130525
*RES
1 *921:gpio_analog_en[28] *109:9 9.21707 
2 *109:9 *109:11 307.214 
3 *109:11 *109:21 42.0717 
4 *109:21 *109:23 62.4213 
5 *109:23 *109:25 0.227733 
6 *109:25 *109:27 240.934 
7 *109:27 *109:29 8 
8 *109:29 *109:31 568.208 
9 *109:31 gpio_analog_en[28] 0.426533 
*END

*D_NET *110 0.607931
*CONN
*P gpio_analog_en[29] O
*I *921:gpio_analog_en[29] O *D CF_CARAVEL_SOC
*CAP
1 gpio_analog_en[29] 2.40773e-05
2 *921:gpio_analog_en[29] 0.00383243
3 *110:23 0.163635
4 *110:21 0.163611
5 *110:19 0.0191708
6 *110:17 0.0192503
7 *110:11 0.0182411
8 *110:9 0.0219941
9 *110:9 *112:9 0
10 *110:11 *119:11 0.00315423
11 *110:11 *140:43 0.00583094
12 *110:11 *150:11 0.00757091
13 *110:11 *206:15 0.0016664
14 *110:11 *226:11 0.00429973
15 *110:11 *683:15 0
16 *110:11 *831:71 0.00144543
17 *110:17 *273:15 0.000141503
18 *110:19 *226:11 0.0364051
19 *110:19 *572:28 0.0909118
20 *110:23 gpio_dm0[29] 0
21 *110:23 gpio_dm1[29] 0
22 *110:23 *242:33 0
23 *110:23 *242:35 0
24 *110:23 *281:25 0.000547873
25 *102:11 *110:11 0.000129945
26 *102:19 *110:11 0.0132901
27 *102:19 *110:19 0.00627255
28 *106:11 *110:11 0.0265046
29 *109:9 *110:9 0
*RES
1 *921:gpio_analog_en[29] *110:9 16.5157 
2 *110:9 *110:11 744.575 
3 *110:11 *110:17 16.2707 
4 *110:17 *110:19 208.861 
5 *110:19 *110:21 8 
6 *110:21 *110:23 575.764 
7 *110:23 gpio_analog_en[29] 0.0924 
*END

*D_NET *111 0.0444338
*CONN
*P gpio_analog_en[2] O
*I *921:gpio_analog_en[2] O *D CF_CARAVEL_SOC
*CAP
1 gpio_analog_en[2] 0.00503607
2 *921:gpio_analog_en[2] 0.00893281
3 *111:15 0.0139689
4 gpio_analog_en[2] gpio_dm0[2] 0.000529753
5 gpio_analog_en[2] gpio_inp_dis[2] 0.00348806
6 gpio_analog_en[2] *321:9 0.000794171
7 *111:15 *122:13 0
8 *111:15 *155:11 0.000760156
9 *111:15 *188:11 0
10 *111:15 *223:19 0.00166227
11 *111:15 *243:11 4.37041e-05
12 *111:15 *270:19 0.00176714
13 *111:15 *342:11 0.00745082
14 *100:9 *111:15 0
*RES
1 *921:gpio_analog_en[2] *111:15 45.0664 
2 *111:15 gpio_analog_en[2] 21.4577 
*END

*D_NET *112 0.609078
*CONN
*P gpio_analog_en[30] O
*I *921:gpio_analog_en[30] O *D CF_CARAVEL_SOC
*CAP
1 gpio_analog_en[30] 0.00367614
2 *921:gpio_analog_en[30] 0.00538343
3 *112:31 0.159808
4 *112:29 0.156131
5 *112:27 0.015994
6 *112:25 0.016267
7 *112:15 0.00297996
8 *112:13 0.00270703
9 *112:11 0.010889
10 *112:9 0.0162725
11 gpio_analog_en[30] gpio_dm0[30] 9.20538e-05
12 gpio_analog_en[30] gpio_dm1[30] 0
13 *112:9 *113:9 0
14 *112:11 *128:11 0.00121287
15 *112:11 *139:11 0.0232164
16 *112:11 *182:11 0.000887379
17 *112:11 *203:11 0.00582825
18 *112:11 *225:19 0.027403
19 *112:11 *274:43 0.00233866
20 *112:11 *274:89 0.000836487
21 *112:11 *315:11 0.00389427
22 *112:11 *321:11 0.0214512
23 *112:15 *162:15 0.000267628
24 *112:15 *183:15 0.000268925
25 *112:15 *195:15 0.000702127
26 *112:15 *196:15 0.00685584
27 *112:15 *198:15 7.19639e-05
28 *112:15 *204:33 0.0012138
29 *112:25 *744:11 2.047e-05
30 *112:27 *328:61 0.0417827
31 *112:31 gpio_inp_dis[30] 0
32 *112:31 *156:15 0
33 *112:31 *288:71 0
34 *95:17 *112:25 4.93913e-05
35 *107:15 *112:15 0.00578369
36 *107:25 *112:25 6.88461e-05
37 *107:27 *112:27 0.0747239
38 *110:9 *112:9 0
*RES
1 *921:gpio_analog_en[30] *112:9 20.04 
2 *112:9 *112:11 707.424 
3 *112:11 *112:13 15 
4 *112:13 *112:15 99.2421 
5 *112:15 *112:25 35.2936 
6 *112:25 *112:27 172.812 
7 *112:27 *112:29 8 
8 *112:29 *112:31 555.442 
9 *112:31 gpio_analog_en[30] 7.42093 
*END

*D_NET *113 0.552718
*CONN
*P gpio_analog_en[31] O
*I *921:gpio_analog_en[31] O *D CF_CARAVEL_SOC
*CAP
1 gpio_analog_en[31] 0.00011309
2 *921:gpio_analog_en[31] 0.00607517
3 *113:23 0.162782
4 *113:21 0.162668
5 *113:19 0.0126599
6 *113:17 0.0128063
7 *113:11 0.011755
8 *113:9 0.0176837
9 *113:9 *114:9 0
10 *113:11 *133:11 0.000961036
11 *113:11 *161:13 0.00121966
12 *113:11 *181:11 0.00350865
13 *113:11 *202:11 0.0349372
14 *113:11 *202:25 0.000359774
15 *113:11 *288:11 0.0237205
16 *113:11 *307:11 0
17 *113:11 *326:11 0.00871796
18 *113:11 *535:121 0.00107434
19 *113:19 *176:11 0.030629
20 *113:19 *181:11 0.0216737
21 *113:19 *182:19 0.000346923
22 *113:19 *202:25 2.13985e-05
23 *113:19 *312:19 0.000302521
24 *113:19 *535:121 0.0112524
25 *113:23 gpio_analog_pol[31] 0
26 *113:23 gpio_dm0[31] 0.000160637
27 *113:23 gpio_dm1[31] 0
28 *113:23 *140:143 0.000983794
29 *104:11 *113:11 0.0104005
30 *104:27 *113:11 0.0159043
31 *112:9 *113:9 0
*RES
1 *921:gpio_analog_en[31] *113:9 21.4997 
2 *113:9 *113:11 756.548 
3 *113:11 *113:17 16.3565 
4 *113:17 *113:19 123.816 
5 *113:19 *113:21 8 
6 *113:21 *113:23 580.916 
7 *113:23 gpio_analog_en[31] 0.434 
*END

*D_NET *114 0.69071
*CONN
*P gpio_analog_en[32] O
*I *921:gpio_analog_en[32] O *D CF_CARAVEL_SOC
*CAP
1 gpio_analog_en[32] 0.00173239
2 *921:gpio_analog_en[32] 0.00662138
3 *114:31 0.00989017
4 *114:29 0.0109198
5 *114:23 0.0674102
6 *114:21 0.0685094
7 *114:11 0.0167574
8 *114:9 0.0195176
9 gpio_analog_en[32] gpio_dm0[32] 0.000512949
10 gpio_analog_en[32] *447:17 0
11 gpio_analog_en[32] *548:23 7.74897e-05
12 *114:9 *115:9 0
13 *114:11 *166:11 0.000148344
14 *114:11 *173:11 0.000909627
15 *114:11 *178:15 0.00251817
16 *114:11 *199:11 0.000952997
17 *114:11 *242:11 0.0493734
18 *114:11 *337:11 0.0238416
19 *114:11 *531:28 0
20 *114:21 *174:11 0.00241586
21 *114:21 *242:11 0.000832588
22 *114:21 *337:33 2.112e-05
23 *114:23 *141:25 0.0149254
24 *114:23 *142:15 0.0115381
25 *114:23 *184:15 0.00984663
26 *114:23 *203:15 0
27 *114:23 *227:17 0.00443656
28 *114:23 *272:15 0.0119389
29 *114:23 *283:25 0.000151674
30 *114:23 *407:27 0.0117041
31 *114:23 *689:11 0.130591
32 *114:23 *705:23 0.0189266
33 *114:23 *745:11 0.00676222
34 *114:23 *782:15 0.101099
35 *114:23 *832:49 0.000308156
36 *114:29 *158:30 0
37 *114:29 *246:29 0.00352976
38 *114:29 *334:42 8.17237e-05
39 *114:31 *158:32 0.0379566
40 *114:31 *246:31 0.0386657
41 *94:19 *114:21 0.00087372
42 *98:15 *114:23 0.000216815
43 *101:15 *114:23 0.00266229
44 *104:19 *114:11 0.00153223
45 *113:9 *114:9 0
*RES
1 *921:gpio_analog_en[32] *114:9 22.7019 
2 *114:9 *114:11 629.072 
3 *114:11 *114:21 39.4728 
4 *114:21 *114:23 507.013 
5 *114:23 *114:29 26.8453 
6 *114:29 *114:31 72.3128 
7 *114:31 gpio_analog_en[32] 23.1468 
*END

*D_NET *115 0.878171
*CONN
*P gpio_analog_en[33] O
*I *921:gpio_analog_en[33] O *D CF_CARAVEL_SOC
*CAP
1 gpio_analog_en[33] 0.00813972
2 *921:gpio_analog_en[33] 0.00485759
3 *115:35 0.00976545
4 *115:33 0.00168424
5 *115:27 0.00132937
6 *115:15 0.0385507
7 *115:13 0.0372799
8 *115:11 0.0190978
9 *115:9 0.0239554
10 gpio_analog_en[33] gpio_dm0[33] 0.00259423
11 gpio_analog_en[33] gpio_slow_sel[33] 0
12 gpio_analog_en[33] *206:57 0.000293021
13 gpio_analog_en[33] *455:19 0
14 gpio_analog_en[33] *543:37 0.000111108
15 *115:11 *141:11 0.00293689
16 *115:11 *155:11 0.000554695
17 *115:11 *180:11 0.00163891
18 *115:11 *444:11 0
19 *115:11 *788:19 0.00424208
20 *115:15 *291:15 0.285864
21 *115:15 *393:23 0.000219548
22 *115:15 *437:31 0.289042
23 *115:15 *688:11 0.00272429
24 *115:15 *716:11 0.000733527
25 *115:15 *744:11 0.0586134
26 *115:27 *449:13 0
27 *115:27 *450:13 0.000122907
28 *115:27 *687:17 0.00214078
29 *115:27 *688:11 0.00213703
30 *115:27 *787:11 0.000674128
31 *115:27 *790:11 0.000669438
32 *115:33 *162:15 3.7122e-06
33 *115:33 *436:23 9.64943e-05
34 *115:35 *159:21 0.00205849
35 *115:35 *355:11 0.0107562
36 *115:35 *790:11 0.0107562
37 *103:11 *115:11 0.0545282
38 *114:9 *115:9 0
*RES
1 *921:gpio_analog_en[33] *115:9 18.8379 
2 *115:9 *115:11 695.803 
3 *115:11 *115:13 15 
4 *115:13 *115:15 3088.35 
5 *115:15 *115:27 46.2036 
6 *115:27 *115:33 31.0979 
7 *115:33 *115:35 136.952 
8 *115:35 gpio_analog_en[33] 26.326 
*END

*D_NET *116 0.744917
*CONN
*P gpio_analog_en[34] O
*I *921:gpio_analog_en[34] O *D CF_CARAVEL_SOC
*CAP
1 gpio_analog_en[34] 0.00970153
2 *921:gpio_analog_en[34] 0.000919444
3 *116:67 0.0247147
4 *116:65 0.0150131
5 *116:63 0.0308912
6 *116:61 0.0309388
7 *116:55 0.0418654
8 *116:53 0.0424
9 *116:45 0.00534036
10 *116:35 0.00539028
11 *116:33 0.000698865
12 *116:27 0.00307088
13 *116:25 0.0033746
14 *116:19 0.00286586
15 *116:17 0.00268591
16 *116:11 0.00163882
17 *116:9 0.00236775
18 gpio_analog_en[34] gpio_analog_pol[34] 0
19 gpio_analog_en[34] gpio_dm0[34] 0
20 gpio_analog_en[34] gpio_dm1[34] 0.00264466
21 gpio_analog_en[34] *355:9 0
22 gpio_analog_en[34] *356:9 0.0012109
23 *116:9 *117:9 0
24 *116:9 *334:6 0.000227734
25 *116:11 *213:11 0.00243325
26 *116:11 *214:11 0.000584858
27 *116:11 *227:11 0.00678231
28 *116:19 *164:15 0.0145061
29 *116:19 *167:15 0.00150295
30 *116:19 *207:11 0.011631
31 *116:19 *209:11 0.000825374
32 *116:27 *140:19 0.00246841
33 *116:27 *142:9 0.000142505
34 *116:27 *143:9 0.000142505
35 *116:27 *152:9 0.000112317
36 *116:27 *153:19 0.000142505
37 *116:27 *204:17 0.000852976
38 *116:27 *288:37 0.000241115
39 *116:27 *321:39 0.00245421
40 *116:27 *327:19 0.00478557
41 *116:27 *327:23 0.00368533
42 *116:27 *328:11 0.0117863
43 *116:27 *328:43 2.11157e-05
44 *116:27 *329:36 0.000395311
45 *116:27 *329:50 0.000216499
46 *116:27 *333:11 0.00111659
47 *116:27 *334:6 0.000412576
48 *116:27 *334:26 0.00035103
49 *116:27 *334:32 0.000231974
50 *116:27 *787:43 0.000799827
51 *116:27 *788:53 0.00118951
52 *116:35 *117:23 0.000854345
53 *116:35 *150:19 0.000941961
54 *116:35 *152:19 0.000557714
55 *116:35 *163:11 0.0024595
56 *116:35 *167:13 0.000142505
57 *116:35 *333:11 3.74521e-05
58 *116:35 *334:32 0.000509653
59 *116:35 *788:37 0.00295974
60 *116:35 *831:61 2.34364e-05
61 *116:45 *117:35 0.000943516
62 *116:45 *153:25 0
63 *116:45 *157:29 0
64 *116:45 *158:22 0.0104556
65 *116:45 *205:29 0.000800684
66 *116:45 *328:51 0
67 *116:45 *329:58 0.00160341
68 *116:45 *392:45 5.18859e-05
69 *116:45 *831:41 0.000713255
70 *116:53 *195:29 9.81985e-05
71 *116:53 *196:25 9.14695e-05
72 *116:53 *198:25 2.55744e-05
73 *116:53 *392:35 0
74 *116:53 *744:11 0.000517899
75 *116:55 *160:15 0.00166801
76 *116:55 *160:23 0.000681072
77 *116:55 *392:31 0.132672
78 *116:55 *672:11 0.000620976
79 *116:55 *683:11 0.025383
80 *116:55 *693:19 0.00111356
81 *116:61 *661:13 7.45617e-05
82 *116:63 *117:39 0.0633004
83 *116:63 *160:23 0.146062
84 *116:63 *393:15 0.0187088
85 *116:63 *661:13 6.92544e-05
86 *116:63 *687:17 0.000273639
87 *116:67 *406:11 0.00231937
88 *116:67 *407:11 0.00474109
89 *116:67 *454:25 0.000524336
90 *116:67 *750:11 0.0159009
91 *116:67 *764:11 0.00449672
92 *116:67 *764:17 0.000183075
93 *116:67 *794:11 0.003334
94 *95:17 *116:53 0.00018663
95 *109:21 *116:27 0.00104122
*RES
1 *921:gpio_analog_en[34] *116:9 10.1579 
2 *116:9 *116:11 86.5961 
3 *116:11 *116:17 33.0036 
4 *116:17 *116:19 185.724 
5 *116:19 *116:25 35.8621 
6 *116:25 *116:27 228.334 
7 *116:27 *116:33 31.2014 
8 *116:33 *116:35 50.3254 
9 *116:35 *116:45 49.6424 
10 *116:45 *116:53 27.5338 
11 *116:53 *116:55 1480.89 
12 *116:55 *116:61 24.0254 
13 *116:61 *116:63 277.62 
14 *116:63 *116:65 8 
15 *116:65 *116:67 66.696 
16 *116:67 gpio_analog_en[34] 30.0537 
*END

*D_NET *117 0.792799
*CONN
*P gpio_analog_en[35] O
*I *921:gpio_analog_en[35] O *D CF_CARAVEL_SOC
*CAP
1 gpio_analog_en[35] 0.0001899
2 *921:gpio_analog_en[35] 0.0023236
3 *117:43 0.00885824
4 *117:41 0.00866834
5 *117:39 0.0672032
6 *117:37 0.0672032
7 *117:35 0.00481512
8 *117:33 0.00519608
9 *117:27 0.000800776
10 *117:23 0.00287766
11 *117:11 0.0167945
12 *117:9 0.0166603
13 gpio_analog_en[35] gpio_dm0[35] 3.28503e-05
14 gpio_analog_en[35] gpio_dm1[35] 0
15 *117:9 *118:9 0.000259325
16 *117:9 *119:9 0
17 *117:11 *153:19 0.000208942
18 *117:11 *279:11 0.00250226
19 *117:11 *316:11 0.0388896
20 *117:11 *483:11 0
21 *117:23 *161:9 0.000460864
22 *117:23 *162:9 0.000458203
23 *117:23 *163:11 0.000116312
24 *117:23 *333:11 0.000856977
25 *117:23 *334:32 0.000149785
26 *117:27 *157:29 0.00176777
27 *117:27 *158:18 0.000311434
28 *117:27 *328:51 0.000121582
29 *117:27 *329:54 0.000283035
30 *117:27 *330:13 0.00254357
31 *117:33 *328:51 0.000248724
32 *117:33 *392:45 0
33 *117:35 *140:71 0.000462473
34 *117:35 *195:29 0
35 *117:35 *205:29 0.000153528
36 *117:35 *326:19 0.000102495
37 *117:35 *329:58 0
38 *117:35 *392:35 0.00570889
39 *117:35 *831:41 0.000108674
40 *117:39 *141:25 0.00852373
41 *117:39 *193:57 0.000152199
42 *117:39 *193:61 0
43 *117:39 *195:29 5.10545e-05
44 *117:39 *205:53 0.0761271
45 *117:39 *291:23 0.00229168
46 *117:39 *392:23 0.165889
47 *117:39 *393:15 0.0199826
48 *117:39 *661:13 0.00282982
49 *117:39 *661:15 0.0685605
50 *117:39 *687:17 2.74633e-05
51 *117:39 *691:11 8.74359e-06
52 *117:39 *705:23 0.0329351
53 *117:43 *459:13 0.0464906
54 *117:43 *553:25 0.0464928
55 *116:9 *117:9 0
56 *116:35 *117:23 0.000854345
57 *116:45 *117:35 0.000943516
58 *116:63 *117:39 0.0633004
*RES
1 *921:gpio_analog_en[35] *117:9 13.2939 
2 *117:9 *117:11 496.666 
3 *117:11 *117:23 49.3629 
4 *117:23 *117:27 47.3661 
5 *117:27 *117:33 17.0864 
6 *117:33 *117:35 148.045 
7 *117:35 *117:37 8 
8 *117:37 *117:39 565.831 
9 *117:39 *117:41 8 
10 *117:41 *117:43 598.772 
11 *117:43 gpio_analog_en[35] 8.47227 
*END

*D_NET *118 0.899025
*CONN
*P gpio_analog_en[36] O
*I *921:gpio_analog_en[36] O *D CF_CARAVEL_SOC
*CAP
1 gpio_analog_en[36] 0.00565133
2 *921:gpio_analog_en[36] 0.000769282
3 *118:211 0.022072
4 *118:209 0.0164207
5 *118:207 0.00564662
6 *118:201 0.00649987
7 *118:197 0.00119584
8 *118:193 0.000952551
9 *118:187 0.00452961
10 *118:185 0.00395977
11 *118:183 0.0013575
12 *118:181 0.0013584
13 *118:179 0.00286336
14 *118:177 0.0029836
15 *118:171 0.00232085
16 *118:163 0.00507835
17 *118:161 0.00296049
18 *118:155 0.00455428
19 *118:153 0.00455455
20 *118:147 0.00564895
21 *118:145 0.00560695
22 *118:143 0.00354877
23 *118:135 0.00450758
24 *118:129 0.000983902
25 *118:123 0.00393985
26 *118:115 0.00860547
27 *118:113 0.00558828
28 *118:107 0.00179581
29 *118:105 0.00174962
30 *118:99 0.00185704
31 *118:97 0.00144868
32 *118:93 0.00322077
33 *118:85 0.00305767
34 *118:81 0.000666016
35 *118:75 0.0015197
36 *118:73 0.00141582
37 *118:69 0.00322766
38 *118:61 0.00342673
39 *118:55 0.00151231
40 *118:53 0.00103103
41 *118:51 0.00330191
42 *118:45 0.00424713
43 *118:39 0.00218444
44 *118:37 0.00201984
45 *118:33 0.00692201
46 *118:23 0.0130755
47 *118:21 0.00693415
48 *118:19 0.0222357
49 *118:17 0.0229357
50 *118:11 0.0109394
51 *118:9 0.0110087
52 gpio_analog_en[36] gpio_dm0[36] 0.00113891
53 gpio_analog_en[36] gpio_dm1[36] 0
54 gpio_analog_en[36] *822:9 0.00055865
55 *118:9 *119:9 0.000259325
56 *118:11 *212:19 0.0278539
57 *118:11 *275:11 0
58 *118:11 *740:59 0.00243021
59 *118:19 *244:11 0
60 *118:19 *245:11 0.000779695
61 *118:19 *250:11 0.00381622
62 *118:19 *251:11 0.0266501
63 *118:19 *253:11 0
64 *118:19 *271:11 0
65 *118:19 *282:11 0.001723
66 *118:19 *286:11 0
67 *118:19 *290:11 0.00654064
68 *118:19 *296:11 0
69 *118:19 *322:35 0
70 *118:19 *740:67 0.00609813
71 *118:19 *740:75 0
72 *118:23 gpio_analog_sel[43] 0.000977861
73 *118:23 *529:9 0
74 *118:23 *532:32 0.00463061
75 *118:23 *536:63 0.00532838
76 *118:23 *540:34 0.00391548
77 *118:23 *562:119 0.0103021
78 *118:23 *569:18 0.00463061
79 *118:23 *697:109 0.00173676
80 *118:23 *740:79 0.00544141
81 *118:23 *826:127 0.00391548
82 *118:33 *322:59 0
83 *118:33 *537:56 0
84 *118:37 *322:59 0.000267877
85 *118:37 *533:108 0
86 *118:37 *826:125 0.000130582
87 *118:39 *322:63 0.00451837
88 *118:39 *444:23 0.000186953
89 *118:39 *533:102 0.000639148
90 *118:39 *536:63 0.000573275
91 *118:39 *569:18 0.00258515
92 *118:39 *696:95 0.00291651
93 *118:39 *740:95 0.00081258
94 *118:39 *826:127 5.50049e-05
95 *118:51 *386:197 0
96 *118:51 *386:201 0.00859035
97 *118:51 *536:41 0.000831346
98 *118:55 *125:15 0.00296564
99 *118:55 *444:35 0.00080529
100 *118:55 *696:95 0.0021063
101 *118:61 *125:15 0.000266404
102 *118:61 *444:39 0.000337633
103 *118:61 *532:16 0.00144098
104 *118:61 *540:26 0.00205223
105 *118:61 *696:95 0.000374774
106 *118:69 *322:95 0
107 *118:69 *322:111 2.17681e-05
108 *118:69 *325:35 0
109 *118:69 *336:27 0
110 *118:69 *386:183 0.00899529
111 *118:69 *386:189 0.000120587
112 *118:69 *533:62 0.00167621
113 *118:69 *535:57 0.000174588
114 *118:69 *741:140 0
115 *118:69 *826:101 0.000276894
116 *118:73 *325:35 0.000806124
117 *118:73 *336:27 0.000703895
118 *118:75 *444:51 0.000928288
119 *118:75 *532:16 0.00412512
120 *118:75 *696:95 0.00726227
121 *118:81 *741:162 0
122 *118:85 *293:15 0.00192744
123 *118:85 *322:115 0.00131056
124 *118:85 *531:16 0.000318899
125 *118:85 *840:19 0.000315321
126 *118:93 *325:57 0
127 *118:93 *336:39 0.00699082
128 *118:93 *338:33 0.00594023
129 *118:93 *397:103 0.000293329
130 *118:93 *408:45 0.000228735
131 *118:93 *540:16 0.000686569
132 *118:93 *696:101 0.000103046
133 *118:93 *696:113 0.00104194
134 *118:97 *325:61 0.000751705
135 *118:99 *325:63 0.00691281
136 *118:99 *338:35 0.000391608
137 *118:99 *532:16 0.00760813
138 *118:99 *537:10 0.000504475
139 *118:105 *125:19 0
140 *118:107 *212:23 0.00131206
141 *118:107 *292:15 0.00683138
142 *118:107 *858:11 0.00682641
143 *118:113 *397:91 0.000441902
144 *118:113 *541:23 0
145 *118:115 *530:11 0.00209571
146 *118:115 *539:35 0
147 *118:115 *562:35 0
148 *118:115 *569:18 1.79538e-05
149 *118:115 *826:47 0.00813343
150 *118:123 *386:131 0.0131297
151 *118:123 *540:16 0.00175368
152 *118:123 *569:14 0
153 *118:123 *570:10 0
154 *118:123 *696:159 0.000265536
155 *118:129 *562:23 7.57281e-06
156 *118:135 *419:63 0.000400635
157 *118:135 *551:19 0.00205314
158 *118:135 *562:23 0.000260432
159 *118:135 *826:47 0
160 *118:143 *338:63 0
161 *118:143 *386:113 3.47781e-05
162 *118:143 *386:119 4.83511e-05
163 *118:143 *419:53 1.02561e-05
164 *118:143 *419:59 0.014892
165 *118:143 *540:16 0.00120447
166 *118:143 *551:15 0.000993226
167 *118:143 *562:17 0.00147204
168 *118:147 *386:107 0.0175607
169 *118:153 *419:45 4.51887e-05
170 *118:155 gpio_out[39] 0.00279091
171 *118:155 *338:63 0.000975611
172 *118:155 *386:99 0.035755
173 *118:155 *419:39 0.0360313
174 *118:161 *386:97 9.18156e-06
175 *118:161 *541:41 2.24608e-05
176 *118:163 *325:87 2.32101e-05
177 *118:163 *386:91 0.0234367
178 *118:163 *541:43 0.0235184
179 *118:171 *322:199 0.0117078
180 *118:171 *325:97 5.16759e-05
181 *118:171 *386:89 4.51403e-05
182 *118:171 *397:75 0.00362306
183 *118:171 *541:53 0.00526928
184 *118:177 *322:209 7.75751e-05
185 *118:177 *397:69 0.00044406
186 *118:177 *739:112 0.000614402
187 *118:179 *293:15 0.00422753
188 *118:179 *322:209 0.000211953
189 *118:179 *386:81 0.00027364
190 *118:179 *397:69 0.000560857
191 *118:179 *419:23 0.00396227
192 *118:179 *444:71 0.00111217
193 *118:179 *693:169 0.000361247
194 *118:179 *840:19 0.00095657
195 *118:183 *921:gpio_in[16] 0.0010432
196 *118:183 *293:15 0.000411033
197 *118:183 *419:23 0.00501482
198 *118:183 *693:133 0.00019557
199 *118:187 *293:15 0.00545054
200 *118:187 *325:145 0.000230081
201 *118:187 *419:23 0.00551917
202 *118:187 *539:115 0.00223579
203 *118:187 *541:75 0.0023602
204 *118:187 *541:95 2.1819e-05
205 *118:187 *693:111 0.000819252
206 *118:187 *693:133 2.18506e-05
207 *118:187 *737:147 0.000384538
208 *118:187 *840:19 0.00200588
209 *118:197 *292:15 0.00236923
210 *118:197 *737:117 0.000263267
211 *118:197 *858:11 0.00236044
212 *118:201 *338:77 0
213 *118:201 *693:109 0.000503326
214 *118:201 *739:58 0
215 *118:207 *325:155 0
216 *118:207 *335:49 0.0167535
217 *118:207 *335:55 1.43357e-05
218 *118:207 *338:79 0.00641539
219 *118:207 *397:15 0.0179136
220 *118:207 *419:15 0.000596432
221 *118:207 *826:21 0.00296231
222 *118:211 *322:277 0.0561712
223 *118:211 *338:83 2.58278e-05
224 *118:211 *387:11 0
225 *118:211 *440:19 0.000135984
226 *118:211 *734:15 0.0021233
227 *118:211 *736:39 0.0349168
228 *118:211 *833:11 0.0161816
229 *117:9 *118:9 0.000259325
*RES
1 *921:gpio_analog_en[36] *118:9 10.3371 
2 *118:9 *118:11 355.633 
3 *118:11 *118:17 40.6264 
4 *118:17 *118:19 725.031 
5 *118:19 *118:21 8 
6 *118:21 *118:23 45.1789 
7 *118:23 *118:33 46.7827 
8 *118:33 *118:37 31.5196 
9 *118:37 *118:39 82.5671 
10 *118:39 *118:45 40.2239 
11 *118:45 *118:51 41.5261 
12 *118:51 *118:53 15 
13 *118:53 *118:55 57.0782 
14 *118:55 *118:61 45.4189 
15 *118:61 *118:69 43.6082 
16 *118:69 *118:73 25.8854 
17 *118:73 *118:75 79.7086 
18 *118:75 *118:81 35.7793 
19 *118:81 *118:85 35.6314 
20 *118:85 *118:93 47.4991 
21 *118:93 *118:97 25.5332 
22 *118:97 *118:99 83.52 
23 *118:99 *118:105 42.1179 
24 *118:105 *118:107 73.0386 
25 *118:107 *118:113 44.5829 
26 *118:113 *118:115 157.843 
27 *118:115 *118:123 49.9793 
28 *118:123 *118:129 23.3211 
29 *118:129 *118:135 48.8161 
30 *118:135 *118:143 44.6532 
31 *118:143 *118:145 15 
32 *118:145 *118:147 192.146 
33 *118:147 *118:153 23.6732 
34 *118:153 *118:155 65.744 
35 *118:155 *118:161 23.6732 
36 *118:161 *118:163 258.369 
37 *118:163 *118:171 48.013 
38 *118:171 *118:177 31.0682 
39 *118:177 *118:179 129.972 
40 *118:179 *118:181 0.849286 
41 *118:181 *118:183 54.6961 
42 *118:183 *118:185 0.849286 
43 *118:185 *118:187 191.193 
44 *118:187 *118:193 37.54 
45 *118:193 *118:197 40.3957 
46 *118:197 *118:201 22.7589 
47 *118:201 *118:207 45.1136 
48 *118:207 *118:209 8 
49 *118:209 *118:211 936.845 
50 *118:211 gpio_analog_en[36] 20.7204 
*END

*D_NET *119 0.932152
*CONN
*P gpio_analog_en[37] O
*I *921:gpio_analog_en[37] O *D CF_CARAVEL_SOC
*CAP
1 gpio_analog_en[37] 0.00517532
2 *921:gpio_analog_en[37] 0.00381027
3 *119:27 0.0163124
4 *119:25 0.0111371
5 *119:23 0.0453791
6 *119:21 0.0455045
7 *119:15 0.0190262
8 *119:13 0.0189007
9 *119:11 0.0310442
10 *119:9 0.0348544
11 gpio_analog_en[37] gpio_dm0[37] 0.00107467
12 gpio_analog_en[37] gpio_dm1[37] 0
13 *119:9 *334:6 0.000227734
14 *119:11 *442:11 0
15 *119:11 *445:19 0
16 *119:11 *483:19 0.0824349
17 *119:11 *572:28 0.00728666
18 *119:11 *683:15 0.00174564
19 *119:15 *289:23 0.14119
20 *119:15 *336:15 0.0598225
21 *119:15 *481:15 0.000350337
22 *119:15 *547:13 0.084086
23 *119:15 *571:27 0.000857309
24 *119:15 *749:27 8.00368e-05
25 *119:15 *838:11 0.0301624
26 *119:21 gpio_dm2[40] 0.000171516
27 *119:23 *167:19 0.00179655
28 *119:23 *207:39 0.00617516
29 *119:23 *207:49 0.00482137
30 *119:23 *208:29 0.0182314
31 *119:23 *336:55 0.00142468
32 *119:23 *336:63 0.0117754
33 *119:23 *455:25 0.00340344
34 *119:23 *462:23 0.00632975
35 *119:23 *465:21 0.0003425
36 *119:23 *481:23 0.0163888
37 *119:23 *739:130 0.0421991
38 *119:23 *749:27 0.0180506
39 *119:23 *838:11 0.0266905
40 *119:23 *841:11 0.014815
41 *119:23 *868:11 5.98468e-05
42 *119:27 *207:51 0.000507068
43 *119:27 *289:33 3.96382e-05
44 *119:27 *294:27 0.0577061
45 *119:27 *339:27 0.0554203
46 *119:27 *446:25 0.000103408
47 *119:27 *544:17 0.000500538
48 *102:11 *119:11 0.000715957
49 *106:11 *119:11 0.000607248
50 *110:11 *119:11 0.00315423
51 *117:9 *119:9 0
52 *118:9 *119:9 0.000259325
*RES
1 *921:gpio_analog_en[37] *119:9 16.6837 
2 *119:9 *119:11 1114.15 
3 *119:11 *119:13 15 
4 *119:13 *119:15 1544.73 
5 *119:15 *119:21 25.4339 
6 *119:21 *119:23 286.421 
7 *119:23 *119:25 8 
8 *119:25 *119:27 749.505 
9 *119:27 gpio_analog_en[37] 19.6489 
*END

*D_NET *120 0.577333
*CONN
*P gpio_analog_en[38] O
*I *921:gpio_analog_en[38] O *D CF_CARAVEL_SOC
*CAP
1 gpio_analog_en[38] 0.00304219
2 *921:gpio_analog_en[38] 0.00926413
3 *120:15 0.0913177
4 *120:13 0.0882755
5 *120:11 0.0343036
6 *120:9 0.0435677
7 gpio_analog_en[38] *251:15 0.000107674
8 gpio_analog_en[38] *384:15 0.00278463
9 gpio_analog_en[38] *428:23 0.000182583
10 gpio_analog_en[38] *692:35 0.000197568
11 gpio_analog_en[38] *736:43 6.47829e-05
12 gpio_analog_en[38] *855:11 0.000496971
13 *120:9 *121:9 9.38214e-05
14 *120:11 *229:11 0.0198332
15 *120:11 *281:11 0.0446211
16 *120:11 *305:11 0
17 *120:11 *397:177 0
18 *120:11 *482:11 0
19 *120:11 *529:13 0
20 *120:11 *749:31 0
21 *120:11 *815:53 0
22 *120:15 gpio_out[39] 0.000647223
23 *120:15 *251:15 0.0125413
24 *120:15 *692:35 0.0230794
25 *120:15 *695:75 0.111622
26 *120:15 *698:27 0.00199599
27 *120:15 *742:120 0.00916923
28 *120:15 *839:15 0.000158459
29 *120:15 *855:11 0.0788485
30 *120:15 *866:11 0.00099108
31 gpio_analog_en[0] *120:11 0.00012757
*RES
1 *921:gpio_analog_en[38] *120:9 27.8539 
2 *120:9 *120:11 1147.43 
3 *120:11 *120:13 8 
4 *120:13 *120:15 436.903 
5 *120:15 gpio_analog_en[38] 19.1268 
*END

*D_NET *121 0.669094
*CONN
*P gpio_analog_en[39] O
*I *921:gpio_analog_en[39] O *D CF_CARAVEL_SOC
*CAP
1 gpio_analog_en[39] 0.00259242
2 *921:gpio_analog_en[39] 0.000478042
3 *121:15 0.0343463
4 *121:13 0.0317539
5 *121:11 0.0147649
6 *121:9 0.015243
7 gpio_analog_en[39] gpio_dm0[39] 0.000546259
8 *121:9 *123:9 0
9 *121:11 *123:11 0.0863074
10 *121:11 *126:11 0.000129477
11 *121:11 *164:15 0.00693662
12 *121:11 *164:23 0.00705392
13 *121:11 *209:11 0.000877235
14 *121:11 *345:11 0.0689841
15 *121:11 *846:9 0.000263208
16 *121:15 *165:15 0.021547
17 *121:15 *256:15 0.118294
18 *121:15 *257:15 0.0913802
19 *121:15 *296:23 0.0114288
20 *121:15 *299:23 0.0116252
21 *121:15 *325:71 0.0135944
22 *121:15 *338:19 0.013759
23 *121:15 *431:15 0.031024
24 *121:15 *432:15 0.058258
25 *121:15 *771:27 0.00838702
26 *121:15 *842:11 0.0149044
27 *109:11 *121:11 0.00452094
28 *120:9 *121:9 9.38214e-05
*RES
1 *921:gpio_analog_en[39] *121:9 9.25813 
2 *121:9 *121:11 1111.51 
3 *121:11 *121:13 8 
4 *121:13 *121:15 326.865 
5 *121:15 gpio_analog_en[39] 49.5839 
*END

*D_NET *122 0.0368548
*CONN
*P gpio_analog_en[3] O
*I *921:gpio_analog_en[3] O *D CF_CARAVEL_SOC
*CAP
1 gpio_analog_en[3] 0.00420364
2 *921:gpio_analog_en[3] 0.0075165
3 *122:13 0.0117201
4 gpio_analog_en[3] gpio_dm0[3] 0.00387875
5 gpio_analog_en[3] gpio_inp_dis[3] 0
6 *122:13 *127:9 0
7 *122:13 *133:11 0
8 *122:13 *177:11 0.00623212
9 *122:13 *260:19 0.000682401
10 *122:13 *266:11 0.0001646
11 *122:13 *312:19 0.000571788
12 *122:13 *326:11 0.000561154
13 *122:13 *535:121 0.000559343
14 *94:11 *122:13 0.000764334
15 *111:15 *122:13 0
*RES
1 *921:gpio_analog_en[3] *122:13 43.1283 
2 *122:13 gpio_analog_en[3] 10.7977 
*END

*D_NET *123 0.585002
*CONN
*P gpio_analog_en[40] O
*I *921:gpio_analog_en[40] O *D CF_CARAVEL_SOC
*CAP
1 gpio_analog_en[40] 0.00336441
2 *921:gpio_analog_en[40] 0.000373836
3 *123:17 0.00336441
4 *123:15 0.0258058
5 *123:13 0.0258058
6 *123:11 0.0141306
7 *123:9 0.0145045
8 gpio_analog_en[40] gpio_dm0[40] 0
9 gpio_analog_en[40] *478:13 0
10 *123:9 *124:7 0
11 *123:11 *126:11 0.0868633
12 *123:11 *164:23 0.00705392
13 *123:15 *341:18 0.145097
14 *123:15 *344:15 0.000158909
15 *123:15 *346:15 0.0622167
16 *123:15 *408:23 0.062485
17 *123:15 *442:15 0.0265972
18 *123:15 *531:24 0.010226
19 *123:15 *840:19 0.0103581
20 *109:11 *123:11 0.000288799
21 *121:9 *123:9 0
22 *121:11 *123:11 0.0863074
*RES
1 *921:gpio_analog_en[40] *123:9 8.9184 
2 *123:9 *123:11 1110.8 
3 *123:11 *123:13 8 
4 *123:13 *123:15 275.602 
5 *123:15 *123:17 8 
6 *123:17 gpio_analog_en[40] 49.4968 
*END

*D_NET *124 0.494529
*CONN
*P gpio_analog_en[41] O
*I *921:gpio_analog_en[41] O *D CF_CARAVEL_SOC
*CAP
1 gpio_analog_en[41] 0.0011637
2 *921:gpio_analog_en[41] 0.000177781
3 *124:13 0.0215633
4 *124:11 0.0203996
5 *124:9 0.0154208
6 *124:7 0.0155986
7 gpio_analog_en[41] *256:19 0
8 *124:7 *125:9 6.95928e-05
9 *124:9 *126:11 0.0885856
10 *124:9 *164:33 4.36401e-06
11 *124:9 *208:9 0.00648386
12 *124:9 *211:9 0.0877852
13 *124:9 *300:15 0
14 *124:9 *845:9 0.000963085
15 *124:9 *846:9 0.000472978
16 *124:13 *843:11 0.118317
17 *124:13 *849:11 0.00037266
18 *124:13 *862:11 0.117042
19 *124:13 *864:11 0.000109188
20 *123:9 *124:7 0
*RES
1 *921:gpio_analog_en[41] *124:7 8.50027 
2 *124:7 *124:9 1148.48 
3 *124:9 *124:11 8 
4 *124:11 *124:13 224.511 
5 *124:13 gpio_analog_en[41] 25.2446 
*END

*D_NET *125 0.367881
*CONN
*P gpio_analog_en[42] O
*I *921:gpio_analog_en[42] O *D CF_CARAVEL_SOC
*CAP
1 gpio_analog_en[42] 0.000158529
2 *921:gpio_analog_en[42] 0.0031928
3 *125:19 0.00338084
4 *125:17 0.00322231
5 *125:15 0.0159356
6 *125:13 0.0159356
7 *125:11 0.0253193
8 *125:9 0.0285121
9 *125:9 *126:9 0
10 *125:9 *334:6 0.000227734
11 *125:11 *314:19 0.00108351
12 *125:11 *336:11 0.0644614
13 *125:11 *338:11 0.00048906
14 *125:11 *350:11 0.00157843
15 *125:11 *443:11 0
16 *125:11 *443:19 0.00392159
17 *125:11 *452:11 0.0136047
18 *125:11 *463:11 0
19 *125:11 *474:11 0
20 *125:15 *322:39 0.00603726
21 *125:15 *325:39 0.0067057
22 *125:15 *444:23 0.00947946
23 *125:15 *444:39 0.00894905
24 *125:15 *444:55 0.0182296
25 *125:15 *529:9 0.00366293
26 *125:15 *532:16 0.000752308
27 *125:15 *533:102 0.00276441
28 *125:15 *536:29 0.00132999
29 *125:15 *537:10 0.00231049
30 *125:15 *572:16 0.0906388
31 *125:15 *696:95 0.000149867
32 *125:15 *697:109 0.0023172
33 *125:15 *740:79 0.00354527
34 *125:15 *826:127 0.00154349
35 *125:19 gpio_dm0[42] 0.00119541
36 *125:19 *339:21 0.000692441
37 *95:11 *125:11 0.0114348
38 *96:11 *125:11 0.0109901
39 *108:11 *125:11 0.000826872
40 *118:55 *125:15 0.00296564
41 *118:61 *125:15 0.000266404
42 *118:105 *125:19 0
43 *124:7 *125:9 6.95928e-05
*RES
1 *921:gpio_analog_en[42] *125:9 15.3957 
2 *125:9 *125:11 1113.8 
3 *125:11 *125:13 15 
4 *125:13 *125:15 994.451 
5 *125:15 *125:17 15 
6 *125:17 *125:19 53.7018 
7 *125:19 gpio_analog_en[42] 2.76536 
*END

*D_NET *126 0.345994
*CONN
*P gpio_analog_en[43] O
*I *921:gpio_analog_en[43] O *D CF_CARAVEL_SOC
*CAP
1 gpio_analog_en[43] 0.00209977
2 *921:gpio_analog_en[43] 0.000449768
3 *126:15 0.0183497
4 *126:13 0.0162499
5 *126:11 0.0149573
6 *126:9 0.0154071
7 gpio_analog_en[43] gpio_dm0[43] 0
8 gpio_analog_en[43] *845:17 0
9 *126:9 *334:6 0.000227734
10 *126:11 *164:23 0.00560663
11 *126:11 *208:9 0.00031186
12 *126:11 *211:9 0.000323573
13 *126:11 *846:9 0.000917506
14 *126:15 *168:15 0.0646487
15 *126:15 *249:15 0.0117969
16 *126:15 *343:15 0.0186535
17 *109:11 *126:11 0.000415877
18 *121:11 *126:11 0.000129477
19 *123:11 *126:11 0.0868633
20 *124:9 *126:11 0.0885856
21 *125:9 *126:9 0
*RES
1 *921:gpio_analog_en[43] *126:9 9.21333 
2 *126:9 *126:11 1142.5 
3 *126:11 *126:13 8 
4 *126:13 *126:15 122.416 
5 *126:15 gpio_analog_en[43] 38.5639 
*END

*D_NET *127 0.0810221
*CONN
*P gpio_analog_en[4] O
*I *921:gpio_analog_en[4] O *D CF_CARAVEL_SOC
*CAP
1 gpio_analog_en[4] 0.00816999
2 *921:gpio_analog_en[4] 0.00120025
3 *127:11 0.0128009
4 *127:9 0.00583118
5 gpio_analog_en[4] gpio_dm0[4] 0.000366013
6 gpio_analog_en[4] gpio_dm1[4] 0.00294046
7 gpio_analog_en[4] *181:9 0.00112569
8 gpio_analog_en[4] *182:9 0.00102647
9 gpio_analog_en[4] *281:11 0.000159738
10 gpio_analog_en[4] *375:59 9.66679e-05
11 *127:9 *128:9 0
12 *127:11 *228:11 0.0233361
13 *127:11 *237:11 0.0233295
14 *94:17 gpio_analog_en[4] 0.000639135
15 *122:13 *127:9 0
*RES
1 *921:gpio_analog_en[4] *127:9 10.8504 
2 *127:9 *127:11 54.2565 
3 *127:11 gpio_analog_en[4] 49.4687 
*END

*D_NET *128 0.112637
*CONN
*P gpio_analog_en[5] O
*I *921:gpio_analog_en[5] O *D CF_CARAVEL_SOC
*CAP
1 gpio_analog_en[5] 0.00527819
2 *921:gpio_analog_en[5] 0.00501263
3 *128:11 0.015183
4 *128:9 0.0149174
5 gpio_analog_en[5] gpio_dm0[5] 0.00251984
6 gpio_analog_en[5] gpio_inp_dis[5] 0
7 gpio_analog_en[5] *136:9 7.08995e-05
8 gpio_analog_en[5] *182:17 0
9 *128:9 *129:9 0
10 *128:11 *129:11 0.00907244
11 *128:11 *175:11 0.000351844
12 *128:11 *182:11 0.00452223
13 *128:11 *203:11 0.00996803
14 *128:11 *225:19 0.000488097
15 *128:11 *259:11 2.38407e-05
16 *128:11 *274:43 0.000425626
17 *128:11 *304:11 0.0408299
18 *128:11 *312:15 0.000242604
19 *128:11 *321:11 0.00251799
20 *112:11 *128:11 0.00121287
21 *127:9 *128:9 0
*RES
1 *921:gpio_analog_en[5] *128:9 19.8253 
2 *128:9 *128:11 96.0176 
3 *128:11 gpio_analog_en[5] 20.1641 
*END

*D_NET *129 0.151826
*CONN
*P gpio_analog_en[6] O
*I *921:gpio_analog_en[6] O *D CF_CARAVEL_SOC
*CAP
1 gpio_analog_en[6] 0.00549937
2 *921:gpio_analog_en[6] 0.00519916
3 *129:11 0.0205918
4 *129:9 0.0202915
5 gpio_analog_en[6] gpio_dm0[6] 0.000747097
6 gpio_analog_en[6] gpio_inp_dis[6] 0
7 *129:9 *130:9 0
8 *129:9 *312:15 4.92467e-05
9 *129:11 *136:11 0.0183147
10 *129:11 *162:11 0.00090476
11 *129:11 *171:13 0.00790742
12 *129:11 *176:11 0.000519183
13 *129:11 *181:11 0
14 *129:11 *182:11 0.0186011
15 *129:11 *203:11 0.0103049
16 *129:11 *215:13 0.00016532
17 *129:11 *259:11 0.023207
18 *129:11 *266:11 0.000304678
19 *129:11 *315:11 0.00715489
20 *129:11 *532:36 0.000129945
21 *129:11 *568:15 0.00286193
22 *128:9 *129:9 0
23 *128:11 *129:11 0.00907244
*RES
1 *921:gpio_analog_en[6] *129:9 20.3405 
2 *129:9 *129:11 137.398 
3 *129:11 gpio_analog_en[6] 19.3279 
*END

*D_NET *130 0.296184
*CONN
*P gpio_analog_en[7] O
*I *921:gpio_analog_en[7] O *D CF_CARAVEL_SOC
*CAP
1 gpio_analog_en[7] 0.00631454
2 *921:gpio_analog_en[7] 0.00438844
3 *130:11 0.0550653
4 *130:9 0.0531392
5 gpio_analog_en[7] gpio_analog_pol[7] 0
6 gpio_analog_en[7] gpio_dm0[7] 0
7 gpio_analog_en[7] gpio_dm1[7] 0
8 *130:9 *131:9 0
9 *130:11 *134:11 0.0906269
10 *130:11 *141:11 0.013005
11 *130:11 *144:11 0
12 *130:11 *155:11 0
13 *130:11 *179:11 0.0105017
14 *130:11 *180:11 0
15 *130:11 *216:11 0.0236844
16 *130:11 *223:19 0.011696
17 *130:11 *246:11 0.00122546
18 *130:11 *246:21 0.000700794
19 *130:11 *270:19 0.0106233
20 *130:11 *321:23 0.000386756
21 *130:11 *342:11 0.00610065
22 *130:11 *530:113 0.00125901
23 *130:11 *567:18 0.00154284
24 *93:11 *130:11 0.00119555
25 *103:11 *130:11 0.00472792
26 *129:9 *130:9 0
*RES
1 *921:gpio_analog_en[7] *130:9 18.2797 
2 *130:9 *130:11 301.142 
3 *130:11 gpio_analog_en[7] 22.1279 
*END

*D_NET *131 0.338924
*CONN
*P gpio_analog_en[8] O
*I *921:gpio_analog_en[8] O *D CF_CARAVEL_SOC
*CAP
1 gpio_analog_en[8] 0.00512605
2 *921:gpio_analog_en[8] 0.0048897
3 *131:11 0.0457623
4 *131:9 0.045526
5 gpio_analog_en[8] gpio_analog_pol[8] 0
6 gpio_analog_en[8] gpio_dm0[8] 0.000999242
7 gpio_analog_en[8] gpio_dm1[8] 0
8 *131:9 *132:9 0
9 *131:11 *175:11 0.0213248
10 *131:11 *188:11 0.00291411
11 *131:11 *225:19 0
12 *131:11 *304:11 0.00219829
13 *131:11 *310:11 0.14949
14 *131:11 *349:11 0.0606932
15 *130:9 *131:9 0
*RES
1 *921:gpio_analog_en[8] *131:9 19.5248 
2 *131:9 *131:11 1901.72 
3 *131:11 gpio_analog_en[8] 20.5468 
*END

*D_NET *132 0.368224
*CONN
*P gpio_analog_en[9] O
*I *921:gpio_analog_en[9] O *D CF_CARAVEL_SOC
*CAP
1 gpio_analog_en[9] 0.00354072
2 *921:gpio_analog_en[9] 0.00546536
3 *132:11 0.0505843
4 *132:9 0.0525089
5 gpio_analog_en[9] gpio_analog_pol[9] 0.00344221
6 gpio_analog_en[9] gpio_dm0[9] 0.00223084
7 gpio_analog_en[9] gpio_inp_dis[9] 0
8 *132:11 *171:13 0.00256719
9 *132:11 *176:11 0.0213497
10 *132:11 *177:11 0.00300663
11 *132:11 *215:13 0.000312591
12 *132:11 *259:11 0.000129945
13 *132:11 *266:11 0.167709
14 *132:11 *312:19 0
15 *132:11 *327:31 0.0053861
16 *132:11 *337:35 0.00487482
17 *132:11 *375:43 0.00198485
18 *132:11 *568:15 0.0405076
19 *132:11 *782:31 0.00262314
20 *131:9 *132:9 0
*RES
1 *921:gpio_analog_en[9] *132:9 20.7269 
2 *132:9 *132:11 2132.72 
3 *132:11 gpio_analog_en[9] 19.0329 
*END

*D_NET *133 0.238849
*CONN
*P gpio_analog_pol[0] O
*I *921:gpio_analog_pol[0] O *D CF_CARAVEL_SOC
*CAP
1 gpio_analog_pol[0] 0.0044292
2 *921:gpio_analog_pol[0] 0.006374
3 *133:11 0.0279284
4 *133:9 0.0298732
5 gpio_analog_pol[0] gpio_inp_dis[0] 0.00199656
6 gpio_analog_pol[0] *241:9 0
7 *133:9 *144:9 0
8 *133:11 *166:11 0.00741351
9 *133:11 *177:11 0
10 *133:11 *181:11 0.0135337
11 *133:11 *222:11 0.00108452
12 *133:11 *288:11 0.00377967
13 *133:11 *298:11 0.000273589
14 *133:11 *303:11 0.06241
15 *133:11 *307:11 0.00449014
16 *133:11 *435:27 0.010114
17 *133:11 *481:11 0.0122228
18 *133:11 *771:31 0.00110895
19 gpio_analog_en[0] gpio_analog_pol[0] 0.000350186
20 *89:11 *133:11 0.0463761
21 *94:11 *133:11 0.00224933
22 *100:11 *133:11 0
23 *104:11 *133:11 0.00187996
24 *113:11 *133:11 0.000961036
25 *122:13 *133:11 0
*RES
1 *921:gpio_analog_pol[0] *133:9 21.8861 
2 *133:9 *133:11 196.041 
3 *133:11 gpio_analog_pol[0] 18.7996 
*END

*D_NET *134 0.374609
*CONN
*P gpio_analog_pol[10] O
*I *921:gpio_analog_pol[10] O *D CF_CARAVEL_SOC
*CAP
1 gpio_analog_pol[10] 0.00502213
2 *921:gpio_analog_pol[10] 0.00445064
3 *134:11 0.0428464
4 *134:9 0.0422749
5 gpio_analog_pol[10] gpio_dm0[10] 0.00288562
6 gpio_analog_pol[10] gpio_inp_dis[10] 0
7 gpio_analog_pol[10] *268:11 0
8 gpio_analog_pol[10] *311:11 0
9 *134:9 gpio_slow_sel[5] 0.000614343
10 *134:9 *135:9 0
11 *134:9 *176:9 0
12 *134:11 *138:11 0.0282634
13 *134:11 *179:11 0.145936
14 *134:11 *180:11 0
15 *134:11 *223:19 0.00572119
16 *134:11 *270:19 0.00572119
17 gpio_analog_en[10] gpio_analog_pol[10] 0.000246404
18 *130:11 *134:11 0.0906269
*RES
1 *921:gpio_analog_pol[10] *134:9 18.108 
2 *134:9 *134:11 336.429 
3 *134:11 gpio_analog_pol[10] 40.1281 
*END

*D_NET *135 0.430788
*CONN
*P gpio_analog_pol[11] O
*I *921:gpio_analog_pol[11] O *D CF_CARAVEL_SOC
*CAP
1 gpio_analog_pol[11] 0.00479706
2 *921:gpio_analog_pol[11] 0.00514389
3 *135:11 0.0460937
4 *135:9 0.0464405
5 gpio_analog_pol[11] gpio_dm0[11] 0
6 gpio_analog_pol[11] gpio_inp_dis[11] 0.00111259
7 *135:9 gpio_slow_sel[5] 0
8 *135:9 *136:9 0
9 *135:11 *136:11 0
10 *135:11 *175:11 0.109179
11 *135:11 *180:11 0.163915
12 *135:11 *225:19 0.00522453
13 *135:11 *310:11 0.0244807
14 *135:11 *484:11 0.024401
15 *134:9 *135:9 0
*RES
1 *921:gpio_analog_pol[11] *135:9 19.3101 
2 *135:9 *135:11 377.81 
3 *135:11 gpio_analog_pol[11] 20.4703 
*END

*D_NET *136 0.353401
*CONN
*P gpio_analog_pol[12] O
*I *921:gpio_analog_pol[12] O *D CF_CARAVEL_SOC
*CAP
1 gpio_analog_pol[12] 0.003927
2 *921:gpio_analog_pol[12] 0.00570416
3 *136:11 0.0875915
4 *136:9 0.0893687
5 gpio_analog_pol[12] gpio_dm0[12] 0.00306974
6 gpio_analog_pol[12] gpio_inp_dis[12] 0.000242342
7 *136:9 *137:9 0
8 *136:9 *182:17 3.57554e-05
9 *136:11 *141:25 1.06699e-05
10 *136:11 *175:11 0
11 *136:11 *176:11 0.0716415
12 *136:11 *180:11 0
13 *136:11 *181:11 0
14 *136:11 *182:19 0.00521808
15 *136:11 *203:11 0.00268802
16 *136:11 *266:11 0.0239967
17 *136:11 *312:19 0.00521808
18 *136:11 *532:36 0.0357339
19 gpio_analog_en[12] gpio_analog_pol[12] 0.000569048
20 gpio_analog_en[5] *136:9 7.08995e-05
21 *129:11 *136:11 0.0183147
22 *135:9 *136:9 0
23 *135:11 *136:11 0
*RES
1 *921:gpio_analog_pol[12] *136:9 20.5123 
2 *136:9 *136:11 418.047 
3 *136:11 gpio_analog_pol[12] 39.1026 
*END

*D_NET *137 0.50153
*CONN
*P gpio_analog_pol[13] O
*I *921:gpio_analog_pol[13] O *D CF_CARAVEL_SOC
*CAP
1 gpio_analog_pol[13] 0.00299331
2 *921:gpio_analog_pol[13] 0.00625658
3 *137:11 0.0695813
4 *137:9 0.0728446
5 gpio_analog_pol[13] gpio_dm0[13] 0.00484781
6 gpio_analog_pol[13] gpio_inp_dis[13] 0.000410663
7 *137:9 gpio_inp_dis[5] 0.000175321
8 *137:9 *138:9 0
9 *137:9 *182:17 6.03018e-05
10 *137:11 *174:11 0.0900054
11 *137:11 *181:11 0.217516
12 *137:11 *224:19 0.015422
13 *137:11 *321:63 0.00139751
14 *137:11 *327:39 0.000877265
15 *137:11 *481:11 0.00282158
16 *94:19 *137:11 0.0163213
17 *136:9 *137:9 0
*RES
1 *921:gpio_analog_pol[13] *137:9 21.8861 
2 *137:9 *137:11 500.935 
3 *137:11 gpio_analog_pol[13] 17.9913 
*END

*D_NET *138 0.466868
*CONN
*P gpio_analog_pol[14] O
*I *921:gpio_analog_pol[14] O *D CF_CARAVEL_SOC
*CAP
1 gpio_analog_pol[14] 0.00365764
2 *921:gpio_analog_pol[14] 0.00464046
3 *138:18 0
4 *138:11 0.10109
5 *138:9 0.102073
6 gpio_analog_pol[14] gpio_dm0[14] 0
7 gpio_analog_pol[14] gpio_inp_dis[14] 0.00693724
8 *138:9 *139:9 0
9 *138:11 *179:11 0.00249857
10 *138:11 *223:19 0
11 *138:11 *270:19 0
12 *138:11 *533:202 0
13 *138:11 *832:49 2.92718e-05
14 *93:11 *138:11 0.217679
15 *134:11 *138:11 0.0282634
16 *137:9 *138:9 0
*RES
1 *921:gpio_analog_pol[14] *138:9 18.1509 
2 *138:9 *138:11 3237.75 
3 *138:11 gpio_analog_pol[14] 21.2925 
4 gpio_analog_pol[14] *138:18 0.0819512 
*END

*D_NET *139 0.422801
*CONN
*P gpio_analog_pol[15] O
*I *921:gpio_analog_pol[15] O *D CF_CARAVEL_SOC
*CAP
1 gpio_analog_pol[15] 9.49606e-05
2 *921:gpio_analog_pol[15] 0.00538253
3 *139:19 0.120782
4 *139:17 0.126256
5 *139:11 0.00961065
6 *139:9 0.00942472
7 gpio_analog_pol[15] gpio_dm0[15] 0
8 gpio_analog_pol[15] gpio_inp_dis[15] 0
9 *139:9 gpio_analog_sel[5] 0.000861291
10 *139:9 *140:13 0
11 *139:9 *194:33 0
12 *139:11 *162:11 0.0138448
13 *139:11 *203:11 0.0035899
14 *139:11 *225:19 5.4407e-05
15 *139:11 *315:11 0.00490048
16 *139:11 *532:36 0
17 *139:17 *183:15 0.00074795
18 *139:17 *683:11 0
19 *139:17 *700:6 0.000366138
20 *139:17 *701:11 0.00994031
21 *139:17 *744:11 0.000143738
22 *139:19 *140:109 0
23 *139:19 *227:19 0
24 *139:19 *274:145 0.00365159
25 *139:19 *536:161 0.0239003
26 *139:19 *537:126 0.0514798
27 *139:19 *538:155 0.0042128
28 *95:17 *139:17 0.0103403
29 *112:11 *139:11 0.0232164
30 *138:9 *139:9 0
*RES
1 *921:gpio_analog_pol[15] *139:9 20.1259 
2 *139:9 *139:11 298.762 
3 *139:11 *139:17 42.5888 
4 *139:17 *139:19 3122.24 
5 *139:19 gpio_analog_pol[15] 1.86429 
*END

*D_NET *140 0.43388
*CONN
*P gpio_analog_pol[16] O
*I *921:gpio_analog_pol[16] O *D CF_CARAVEL_SOC
*CAP
1 gpio_analog_pol[16] 0.00676589
2 *921:gpio_analog_pol[16] 0.000798361
3 *140:381 0.00854465
4 *140:371 0.00364654
5 *140:369 0.00186778
6 *140:367 0.00242833
7 *140:361 0.00369769
8 *140:355 0.00333429
9 *140:353 0.00230097
10 *140:347 0.00705962
11 *140:345 0.00785702
12 *140:339 0.00852955
13 *140:337 0.00787024
14 *140:331 0.00586603
15 *140:329 0.00632901
16 *140:323 0.00416516
17 *140:321 0.00395851
18 *140:315 0.00320575
19 *140:313 0.00359691
20 *140:307 0.00323203
21 *140:305 0.00221041
22 *140:303 0.00154064
23 *140:295 0.00332894
24 *140:283 0.0149253
25 *140:281 0.013137
26 *140:279 0.0020012
27 *140:273 0.00253195
28 *140:267 0.0264109
29 *140:265 0.0262424
30 *140:259 0.00453263
31 *140:257 0.00550685
32 *140:243 0.00326423
33 *140:237 0.00262564
34 *140:231 0.00296368
35 *140:229 0.00250573
36 *140:223 0.00201017
37 *140:215 0.00339776
38 *140:211 0.00389989
39 *140:199 0.00637779
40 *140:197 0.00447311
41 *140:191 0.00417677
42 *140:189 0.003809
43 *140:187 0.00155268
44 *140:175 0.00346609
45 *140:167 0.0034873
46 *140:163 0.003385
47 *140:155 0.00388047
48 *140:143 0.00373204
49 *140:131 0.00579969
50 *140:129 0.00413701
51 *140:127 0.00151656
52 *140:121 0.00195538
53 *140:115 0.00297384
54 *140:113 0.0040953
55 *140:109 0.0030153
56 *140:95 0.0132635
57 *140:93 0.0127371
58 *140:85 0.00284828
59 *140:81 0.00359942
60 *140:75 0.00469344
61 *140:73 0.00301365
62 *140:71 0.000936078
63 *140:63 0.00384968
64 *140:57 0.00388228
65 *140:53 0.00122409
66 *140:49 0.000596291
67 *140:43 0.00119004
68 *140:41 0.000849154
69 *140:39 0.000396234
70 *140:31 0.00289326
71 *140:29 0.00249703
72 *140:27 0.000855993
73 *140:25 0.00126242
74 *140:19 0.00113433
75 *140:13 0.00152626
76 gpio_analog_pol[16] gpio_dm0[16] 0
77 gpio_analog_pol[16] gpio_inp_dis[16] 0
78 *140:13 *141:9 0
79 *140:13 *194:33 4.93791e-05
80 *140:13 *204:9 0.00231243
81 *140:13 *327:23 0.00119142
82 *140:19 *153:19 0.000120707
83 *140:19 *204:9 0.000537516
84 *140:19 *204:15 0.000578984
85 *140:19 *204:17 0.00119646
86 *140:19 *327:23 0.000820807
87 *140:19 *329:50 0.000100494
88 *140:25 *787:49 6.17437e-06
89 *140:27 *142:11 2.093e-05
90 *140:27 *149:27 0.000301023
91 *140:27 *149:35 4.66645e-05
92 *140:27 *164:15 0.00381659
93 *140:27 *167:13 0.00287929
94 *140:27 *167:15 0.000822753
95 *140:27 *193:33 0.000704481
96 *140:39 *392:47 9.33613e-05
97 *140:39 *572:28 0.000125494
98 *140:39 *672:15 0.00129497
99 *140:39 *683:15 0.00129274
100 *140:43 *226:11 0.000782141
101 *140:53 *570:26 0.00170037
102 *140:53 *661:19 0.00169815
103 *140:63 *279:11 0.000492629
104 *140:63 *316:11 0.00279535
105 *140:63 *319:11 0.00279758
106 *140:63 *789:23 0.00133896
107 *140:63 *831:41 0
108 *140:71 *195:15 0
109 *140:71 *242:19 6.69637e-06
110 *140:71 *326:19 0.000733965
111 *140:71 *329:58 0
112 *140:71 *437:31 0.000755561
113 *140:75 *195:29 0
114 *140:75 *753:19 0.000651038
115 *140:81 *143:15 0.00097398
116 *140:81 *316:15 0
117 *140:93 *189:15 0.000193707
118 *140:93 *319:15 0.000206214
119 *140:109 *191:15 0.000205029
120 *140:109 *234:15 0.000202657
121 *140:109 *537:126 0
122 *140:113 *279:15 0.000549076
123 *140:127 *403:19 0
124 *140:127 *799:19 0.00104003
125 *140:131 *667:15 0
126 *140:143 *157:43 0
127 *140:163 *790:15 0.00158922
128 *140:187 *323:15 0.00022731
129 *140:187 *702:13 0.000781176
130 *140:187 *834:15 0
131 *140:211 *747:11 0
132 *140:229 *154:13 0.000185758
133 *140:229 *198:31 0
134 *140:257 *537:142 0
135 *140:265 *197:15 0
136 *140:279 *752:15 0.00107496
137 *140:329 *235:15 0
138 *140:329 *665:11 0.000414594
139 *140:353 *402:15 0.000138212
140 *140:361 *318:15 0.0010445
141 *140:371 *536:225 0
142 *92:11 *140:53 0.000245573
143 *95:19 *140:95 0.033743
144 *105:31 *140:353 0.000140584
145 *106:11 *140:43 0.00583094
146 *109:21 *140:13 0.000110915
147 *110:11 *140:43 0.00583094
148 *113:23 *140:143 0.000983794
149 *116:27 *140:19 0.00246841
150 *117:35 *140:71 0.000462473
151 *139:9 *140:13 0
152 *139:19 *140:109 0
*RES
1 *921:gpio_analog_pol[16] *140:13 38.9624 
2 *140:13 *140:19 44.4011 
3 *140:19 *140:25 35.3857 
4 *140:25 *140:27 58.6007 
5 *140:27 *140:29 15 
6 *140:29 *140:31 37.3064 
7 *140:31 *140:39 49.6993 
8 *140:39 *140:41 15 
9 *140:41 *140:43 74.095 
10 *140:43 *140:49 34.9093 
11 *140:49 *140:53 36.6257 
12 *140:53 *140:57 30.3907 
13 *140:57 *140:63 49.602 
14 *140:63 *140:71 46.0032 
15 *140:71 *140:73 15 
16 *140:73 *140:75 58.0725 
17 *140:75 *140:81 22.6677 
18 *140:81 *140:85 49.6979 
19 *140:85 *140:93 12.0731 
20 *140:93 *140:95 428.351 
21 *140:95 *140:109 49.4795 
22 *140:109 *140:113 12.5211 
23 *140:113 *140:115 56.4879 
24 *140:115 *140:121 17.344 
25 *140:121 *140:127 45.4076 
26 *140:127 *140:129 8 
27 *140:129 *140:131 93.1107 
28 *140:131 *140:143 49.2669 
29 *140:143 *140:155 48.0583 
30 *140:155 *140:163 48.6146 
31 *140:163 *140:167 43.3593 
32 *140:167 *140:175 46.0724 
33 *140:175 *140:187 49.5419 
34 *140:187 *140:189 8 
35 *140:189 *140:191 85.3636 
36 *140:191 *140:197 17.344 
37 *140:197 *140:199 93.815 
38 *140:199 *140:211 49.5757 
39 *140:211 *140:215 44.0636 
40 *140:215 *140:223 46.794 
41 *140:223 *140:229 17.1723 
42 *140:229 *140:231 50.1493 
43 *140:231 *140:237 18.632 
44 *140:237 *140:243 42.4872 
45 *140:243 *140:257 44.4636 
46 *140:257 *140:259 93.1107 
47 *140:259 *140:265 17.344 
48 *140:265 *140:267 585.406 
49 *140:267 *140:273 17.9451 
50 *140:273 *140:279 47.5031 
51 *140:279 *140:281 8 
52 *140:281 *140:283 298.762 
53 *140:283 *140:295 49.5419 
54 *140:295 *140:303 44.7844 
55 *140:303 *140:305 8 
56 *140:305 *140:307 50.1493 
57 *140:307 *140:313 18.632 
58 *140:313 *140:315 57.8964 
59 *140:315 *140:321 17.344 
60 *140:321 *140:323 75.5036 
61 *140:323 *140:329 19.92 
62 *140:329 *140:331 124.804 
63 *140:331 *140:337 17.344 
64 *140:337 *140:339 171.991 
65 *140:339 *140:345 19.92 
66 *140:345 *140:347 153.679 
67 *140:347 *140:353 17.344 
68 *140:353 *140:355 46.6279 
69 *140:355 *140:361 22.496 
70 *140:361 *140:367 46.5924 
71 *140:367 *140:369 8 
72 *140:369 *140:371 43.1064 
73 *140:371 *140:381 45.6721 
74 *140:381 gpio_analog_pol[16] 45.9828 
*END

*D_NET *141 0.673931
*CONN
*P gpio_analog_pol[17] O
*I *921:gpio_analog_pol[17] O *D CF_CARAVEL_SOC
*CAP
1 gpio_analog_pol[17] 0.000655236
2 *921:gpio_analog_pol[17] 0.00367234
3 *141:31 0.149382
4 *141:29 0.152647
5 *141:25 0.0563677
6 *141:11 0.0600254
7 *141:9 0.0112512
8 gpio_analog_pol[17] gpio_dm0[17] 0
9 gpio_analog_pol[17] gpio_inp_dis[17] 0
10 *141:9 gpio_out[5] 0.000652042
11 *141:9 *194:33 0
12 *141:9 *831:81 0.00408191
13 *141:11 *180:11 0.00914503
14 *141:11 *223:19 0.00353667
15 *141:11 *246:11 0.00404741
16 *141:11 *270:19 0.00404741
17 *141:11 *788:19 0.000346223
18 *141:25 *175:11 0.000155132
19 *141:25 *203:11 0.000172841
20 *141:25 *203:15 0.0151044
21 *141:25 *205:53 0.0118834
22 *141:25 *227:17 0.00155947
23 *141:25 *228:25 0.0160029
24 *141:25 *230:25 4.9738e-05
25 *141:25 *286:31 0.00701059
26 *141:25 *328:59 0.000355507
27 *141:25 *391:15 0.00801109
28 *141:25 *689:11 0.0139397
29 *141:25 *691:11 0.0133092
30 *141:25 *745:11 0.0207571
31 *141:25 *831:31 0.00267352
32 *141:25 *832:39 0.0129564
33 *141:29 gpio_dm0[17] 0.000220315
34 *141:31 gpio_dm0[17] 0.0470925
35 *103:11 *141:11 0.00341848
36 *114:23 *141:25 0.0149254
37 *115:11 *141:11 0.00293689
38 *117:39 *141:25 0.00852373
39 *130:11 *141:11 0.013005
40 *136:11 *141:25 1.06699e-05
41 *140:13 *141:9 0
*RES
1 *921:gpio_analog_pol[17] *141:9 18.6232 
2 *141:9 *141:11 53.368 
3 *141:11 *141:25 40.1492 
4 *141:25 *141:29 11.2411 
5 *141:29 *141:31 547.478 
6 *141:31 gpio_analog_pol[17] 28.9344 
*END

*D_NET *142 0.586687
*CONN
*P gpio_analog_pol[18] O
*I *921:gpio_analog_pol[18] O *D CF_CARAVEL_SOC
*CAP
1 gpio_analog_pol[18] 0.137402
2 *921:gpio_analog_pol[18] 0.000660476
3 *142:17 0.137402
4 *142:15 0.0281166
5 *142:13 0.0281166
6 *142:11 0.00426113
7 *142:9 0.0049216
8 gpio_analog_pol[18] gpio_dm0[18] 0
9 gpio_analog_pol[18] gpio_inp_dis[18] 0
10 gpio_analog_pol[18] *538:407 0
11 *142:9 *143:9 0
12 *142:9 *334:6 0.000227734
13 *142:11 *143:11 0.0223344
14 *142:11 *149:35 0
15 *142:11 *156:11 0.00201683
16 *142:11 *164:15 0.00855059
17 *142:11 *193:9 0
18 *142:11 *193:33 0.0138697
19 *142:11 *321:35 0.000612294
20 *142:15 *184:15 0.057385
21 *142:15 *227:17 0.00110173
22 *142:15 *689:11 0.00592947
23 *98:15 *142:15 0.12173
24 *99:15 *142:15 0.000346557
25 *114:23 *142:15 0.0115381
26 *116:27 *142:9 0.000142505
27 *140:27 *142:11 2.093e-05
*RES
1 *921:gpio_analog_pol[18] *142:9 9.47093 
2 *142:9 *142:11 292.952 
3 *142:11 *142:13 15 
4 *142:13 *142:15 1339.86 
5 *142:15 *142:17 15 
6 *142:17 gpio_analog_pol[18] 3109.67 
*END

*D_NET *143 0.576688
*CONN
*P gpio_analog_pol[19] O
*I *921:gpio_analog_pol[19] O *D CF_CARAVEL_SOC
*CAP
1 gpio_analog_pol[19] 0.134906
2 *921:gpio_analog_pol[19] 0.000603408
3 *143:17 0.134906
4 *143:15 0.0768397
5 *143:13 0.0768397
6 *143:11 0.00564044
7 *143:9 0.00624385
8 gpio_analog_pol[19] gpio_dm0[19] 0
9 gpio_analog_pol[19] gpio_inp_dis[19] 0
10 gpio_analog_pol[19] *759:19 0
11 *143:9 *145:9 5.22081e-05
12 *143:9 *334:6 0.000227734
13 *143:11 *145:11 0.0258089
14 *143:11 *149:35 0
15 *143:11 *156:11 0.00259037
16 *143:11 *193:9 9.53128e-05
17 *143:11 *321:35 0.000543488
18 *143:15 *145:15 0
19 *143:15 *185:15 0.0879404
20 *143:15 *316:15 0
21 *116:27 *143:9 0.000142505
22 *140:81 *143:15 0.00097398
23 *142:9 *143:9 0
24 *142:11 *143:11 0.0223344
*RES
1 *921:gpio_analog_pol[19] *143:9 9.38507 
2 *143:9 *143:11 336.089 
3 *143:11 *143:13 8 
4 *143:13 *143:15 336.482 
5 *143:15 *143:17 8 
6 *143:17 gpio_analog_pol[19] 3060.9 
*END

*D_NET *144 0.144188
*CONN
*P gpio_analog_pol[1] O
*I *921:gpio_analog_pol[1] O *D CF_CARAVEL_SOC
*CAP
1 gpio_analog_pol[1] 0.00457075
2 *921:gpio_analog_pol[1] 0.00432133
3 *144:19 0.00937108
4 *144:17 0.00517926
5 *144:11 0.0225885
6 *144:9 0.0265309
7 gpio_analog_pol[1] gpio_dm0[1] 0
8 gpio_analog_pol[1] gpio_inp_dis[1] 0.00645539
9 *144:9 *155:9 0
10 *144:11 *170:11 0.00164205
11 *144:11 *179:11 0.00580551
12 *144:11 *207:19 0.00441748
13 *144:11 *247:11 0.00605953
14 *144:11 *254:11 0.00656385
15 *144:11 *308:11 0.0016365
16 *144:11 *331:13 4.09577e-05
17 *144:11 *342:11 0.000206389
18 *144:11 *430:27 0.00140349
19 *144:11 *530:113 0.000948145
20 *144:11 *562:123 0.00127477
21 *144:17 gpio_dm2[2] 0.000351
22 *144:17 *326:9 0
23 *144:19 *223:19 0.00178071
24 *144:19 *246:11 0.00387493
25 *144:19 *254:11 0.000808072
26 *144:19 *270:19 0.00379654
27 *144:19 *342:11 0.000786888
28 *144:19 *567:18 0.00711865
29 *90:11 *144:11 0.0135493
30 *98:11 *144:11 0.00310586
31 *130:11 *144:11 0
32 *133:9 *144:9 0
*RES
1 *921:gpio_analog_pol[1] *144:9 17.4211 
2 *144:9 *144:11 110.615 
3 *144:11 *144:17 17.0435 
4 *144:17 *144:19 250.871 
5 *144:19 gpio_analog_pol[1] 21.2319 
*END

*D_NET *145 0.548851
*CONN
*P gpio_analog_pol[20] O
*I *921:gpio_analog_pol[20] O *D CF_CARAVEL_SOC
*CAP
1 gpio_analog_pol[20] 0.000134032
2 *921:gpio_analog_pol[20] 0.000339097
3 *145:19 0.13467
4 *145:17 0.134536
5 *145:15 0.107036
6 *145:13 0.107036
7 *145:11 0.00512023
8 *145:9 0.00545933
9 gpio_analog_pol[20] gpio_dm0[20] 0
10 gpio_analog_pol[20] gpio_inp_dis[20] 0
11 gpio_analog_pol[20] *541:135 0
12 *145:9 *193:15 0.000115353
13 *145:9 *334:26 0.000127265
14 *145:11 *146:9 0.00069248
15 *145:11 *147:11 1.85678e-05
16 *145:11 *147:13 0.0226653
17 *145:11 *148:9 0.000102288
18 *145:11 *149:13 0.00194868
19 *145:11 *149:35 0
20 *145:11 *156:11 0.00259037
21 *145:11 *193:9 2.79482e-05
22 *145:11 *204:9 0
23 *145:11 *334:26 0.00037028
24 *145:15 *185:15 0
25 *145:15 *330:25 0
26 *145:19 gpio_dm0[20] 0
27 *145:19 *233:19 0
28 *145:19 *541:135 0
29 *143:9 *145:9 5.22081e-05
30 *143:11 *145:11 0.0258089
31 *143:15 *145:15 0
*RES
1 *921:gpio_analog_pol[20] *145:9 8.9184 
2 *145:9 *145:11 339.611 
3 *145:11 *145:13 8 
4 *145:13 *145:15 384.481 
5 *145:15 *145:17 8 
6 *145:17 *145:19 3052.52 
7 *145:19 gpio_analog_pol[20] 1.86429 
*END

*D_NET *146 0.630001
*CONN
*P gpio_analog_pol[21] O
*I *921:gpio_analog_pol[21] O *D CF_CARAVEL_SOC
*CAP
1 gpio_analog_pol[21] 0.000134032
2 *921:gpio_analog_pol[21] 0.000202138
3 *146:25 0.0845185
4 *146:23 0.0843845
5 *146:21 0.119861
6 *146:19 0.119861
7 *146:17 0.00974061
8 *146:15 0.00982458
9 *146:9 0.000706791
10 *146:7 0.000824956
11 gpio_analog_pol[21] gpio_dm0[21] 0
12 gpio_analog_pol[21] gpio_inp_dis[21] 0
13 gpio_analog_pol[21] *542:55 0
14 *146:7 *147:11 0
15 *146:7 *334:26 4.71048e-05
16 *146:9 *147:11 0.0028207
17 *146:9 *149:13 0.00195092
18 *146:9 *204:9 0.000223438
19 *146:9 *334:26 0.000170919
20 *146:17 *147:13 0.0542088
21 *146:17 *148:9 0.00215652
22 *146:17 *149:35 0
23 *146:17 *151:9 7.54757e-05
24 *146:17 *154:9 0.0568047
25 *146:21 *538:227 0.00300488
26 *146:25 gpio_dm0[21] 0
27 *146:25 *234:19 0
28 *146:25 *542:55 0
29 *146:25 *670:7 0.0721463
30 *109:27 *146:17 0.00564118
31 *145:11 *146:9 0.00069248
*RES
1 *921:gpio_analog_pol[21] *146:7 8.50027 
2 *146:7 *146:9 41.8739 
3 *146:9 *146:15 31.5536 
4 *146:15 *146:17 727.848 
5 *146:17 *146:19 8 
6 *146:19 *146:21 432.309 
7 *146:21 *146:23 8 
8 *146:23 *146:25 2616.57 
9 *146:25 gpio_analog_pol[21] 1.86429 
*END

*D_NET *147 0.940383
*CONN
*P gpio_analog_pol[22] O
*I *921:gpio_analog_pol[22] O *D CF_CARAVEL_SOC
*CAP
1 gpio_analog_pol[22] 0.116982
2 *921:gpio_analog_pol[22] 0.000817441
3 *147:19 0.116982
4 *147:17 0.0358794
5 *147:15 0.0358794
6 *147:13 0.0153203
7 *147:11 0.0161377
8 gpio_analog_pol[22] gpio_dm0[22] 0
9 gpio_analog_pol[22] gpio_inp_dis[22] 0
10 gpio_analog_pol[22] *543:47 0
11 gpio_analog_pol[22] *709:7 0
12 *147:11 *148:7 0
13 *147:11 *148:9 0.000104065
14 *147:11 *151:9 0.00113049
15 *147:11 *204:9 0.000890038
16 *147:11 *204:15 0.000448038
17 *147:11 *329:36 5.63512e-06
18 *147:13 *148:9 0.000112617
19 *147:13 *149:35 0
20 *147:13 *151:9 8.33951e-06
21 *147:13 *156:11 0.0074624
22 *147:17 *679:13 0.0146497
23 *147:17 *720:9 0
24 *102:23 *147:17 0.235781
25 *103:15 *147:17 0.262078
26 *145:11 *147:11 1.85678e-05
27 *145:11 *147:13 0.0226653
28 *146:7 *147:11 0
29 *146:9 *147:11 0.0028207
30 *146:17 *147:13 0.0542088
*RES
1 *921:gpio_analog_pol[22] *147:11 46.6323 
2 *147:11 *147:13 693.162 
3 *147:13 *147:15 8 
4 *147:15 *147:17 480.394 
5 *147:17 *147:19 8 
6 *147:19 gpio_analog_pol[22] 2653.12 
*END

*D_NET *148 0.826808
*CONN
*P gpio_analog_pol[23] O
*I *921:gpio_analog_pol[23] O *D CF_CARAVEL_SOC
*CAP
1 gpio_analog_pol[23] 0.00229409
2 *921:gpio_analog_pol[23] 0.000185609
3 *148:17 0.135929
4 *148:15 0.133635
5 *148:13 0.0917455
6 *148:11 0.0917455
7 *148:9 0.00823271
8 *148:7 0.00841831
9 gpio_analog_pol[23] gpio_dm0[23] 0
10 gpio_analog_pol[23] gpio_inp_dis[23] 0
11 *148:7 *327:29 3.29305e-05
12 *148:7 *329:36 3.6433e-07
13 *148:9 *149:27 0.000158856
14 *148:9 *150:19 0.00103399
15 *148:9 *154:9 0.00242848
16 *148:9 *156:11 0.010801
17 *148:9 *164:15 0.000109643
18 *148:9 *193:31 0
19 *148:9 *205:21 0.000100261
20 *148:9 *321:35 5.68352e-05
21 *148:9 *334:26 0.00145141
22 *148:13 *230:25 0.00807645
23 *148:13 *290:15 0.289102
24 *148:13 *330:23 0
25 *148:13 *361:33 0.0162183
26 *148:13 *394:15 0
27 *148:13 *440:23 0
28 *148:13 *730:19 0
29 *148:17 *236:19 0
30 *148:17 *539:251 0
31 *148:17 *544:33 0
32 *109:23 *148:9 0.0225749
33 *145:11 *148:9 0.000102288
34 *146:17 *148:9 0.00215652
35 *147:11 *148:7 0
36 *147:11 *148:9 0.000104065
37 *147:13 *148:9 0.000112617
*RES
1 *921:gpio_analog_pol[23] *148:7 8.37147 
2 *148:7 *148:9 53.3045 
3 *148:9 *148:11 8 
4 *148:11 *148:13 528.179 
5 *148:13 *148:15 8 
6 *148:15 *148:17 3033.57 
7 *148:17 gpio_analog_pol[23] 49.8489 
*END

*D_NET *149 0.626487
*CONN
*P gpio_analog_pol[24] O
*I *921:gpio_analog_pol[24] O *D CF_CARAVEL_SOC
*CAP
1 gpio_analog_pol[24] 0.000578191
2 *921:gpio_analog_pol[24] 0.0007347
3 *149:43 0.00289172
4 *149:41 0.00231353
5 *149:39 0.159201
6 *149:37 0.159201
7 *149:35 0.133122
8 *149:33 0.133225
9 *149:27 0.00249784
10 *149:13 0.00312931
11 gpio_analog_pol[24] gpio_dm0[24] 0
12 gpio_analog_pol[24] gpio_inp_dis[24] 0
13 *149:13 *327:29 4.32671e-05
14 *149:13 *334:26 0.000104065
15 *149:27 *153:19 6.27677e-06
16 *149:27 *156:11 0.00395598
17 *149:27 *164:15 0.000711094
18 *149:27 *167:13 0.000129945
19 *149:27 *167:15 0.000316371
20 *149:27 *193:31 0.00151431
21 *149:27 *285:11 6.48651e-05
22 *149:33 *165:9 8.70846e-05
23 *149:33 *167:13 0.000130761
24 *149:35 *151:9 0
25 *149:35 *154:9 0
26 *149:35 *156:11 0.00792532
27 *149:35 *167:13 6.17582e-05
28 *149:35 *193:33 0.00461508
29 *149:35 *197:11 0
30 *149:35 *285:11 0.00391052
31 *149:39 *446:7 0
32 *149:43 gpio_dm0[24] 0
33 *149:43 *193:63 0
34 *149:43 *325:167 0.00161002
35 *105:31 gpio_analog_pol[24] 0
36 *140:27 *149:27 0.000301023
37 *140:27 *149:35 4.66645e-05
38 *142:11 *149:35 0
39 *143:11 *149:35 0
40 *145:11 *149:13 0.00194868
41 *145:11 *149:35 0
42 *146:9 *149:13 0.00195092
43 *146:17 *149:35 0
44 *147:13 *149:35 0
45 *148:9 *149:27 0.000158856
*RES
1 *921:gpio_analog_pol[24] *149:13 48.6767 
2 *149:13 *149:27 48.9485 
3 *149:27 *149:33 16.3565 
4 *149:33 *149:35 3054.63 
5 *149:35 *149:37 8 
6 *149:37 *149:39 568.064 
7 *149:39 *149:41 8 
8 *149:41 *149:43 61.4179 
9 *149:43 gpio_analog_pol[24] 9.442 
*END

*D_NET *150 0.65729
*CONN
*P gpio_analog_pol[25] O
*I *921:gpio_analog_pol[25] O *D CF_CARAVEL_SOC
*CAP
1 gpio_analog_pol[25] 9.36339e-05
2 *921:gpio_analog_pol[25] 0.00396081
3 *150:31 0.159096
4 *150:29 0.159002
5 *150:27 0.0649549
6 *150:25 0.0653323
7 *150:19 0.0052416
8 *150:17 0.00778457
9 *150:11 0.00439097
10 *150:9 0.00543147
11 *150:11 *288:47 0.00248707
12 *150:11 *683:15 0.00183012
13 *150:17 *169:9 0.00080047
14 *150:17 *170:9 0.000525511
15 *150:17 *788:33 0.00233898
16 *150:19 *152:19 0.00515721
17 *150:19 *204:21 0.00427327
18 *150:19 *241:19 0.00842062
19 *150:19 *330:13 0
20 *150:19 *831:55 0.00244863
21 *150:19 *831:61 0.000977059
22 *150:25 *186:15 8.94691e-05
23 *150:25 *330:25 4.01866e-05
24 *150:27 *152:27 0.120802
25 *150:27 *242:27 0
26 *150:27 *281:19 0.0120685
27 *150:27 *281:27 0
28 *150:27 *326:31 0.00832193
29 *150:31 gpio_dm0[25] 0.000587842
30 *150:31 gpio_inp_dis[25] 0
31 *150:31 *274:267 0
32 *102:11 *150:11 0.000897449
33 *106:23 *150:31 0
34 *109:23 *150:19 0.000389263
35 *110:11 *150:11 0.00757091
36 *116:35 *150:19 0.000941961
37 *148:9 *150:19 0.00103399
*RES
1 *921:gpio_analog_pol[25] *150:9 16.3029 
2 *150:9 *150:11 96.6321 
3 *150:11 *150:17 24.0416 
4 *150:17 *150:19 225.516 
5 *150:19 *150:25 17.1293 
6 *150:25 *150:27 359.531 
7 *150:27 *150:29 8 
8 *150:29 *150:31 566.834 
9 *150:31 gpio_analog_pol[25] 0.359333 
*END

*D_NET *151 0.624563
*CONN
*P gpio_analog_pol[26] O
*I *921:gpio_analog_pol[26] O *D CF_CARAVEL_SOC
*CAP
1 gpio_analog_pol[26] 0.000502945
2 *921:gpio_analog_pol[26] 0.000167994
3 *151:13 0.160336
4 *151:11 0.159833
5 *151:9 0.056117
6 *151:7 0.056285
7 gpio_analog_pol[26] gpio_dm0[26] 0.000234056
8 gpio_analog_pol[26] gpio_inp_dis[26] 0
9 gpio_analog_pol[26] *459:13 0.000878574
10 *151:7 *334:26 5.01014e-05
11 *151:9 *154:9 0.109088
12 *151:9 *157:11 0.00342464
13 *151:9 *204:15 0.000249774
14 *151:9 *204:17 0.00109939
15 *151:9 *204:21 0.0120729
16 *151:9 *241:19 0.0290389
17 *151:13 gpio_analog_sel[26] 0
18 *109:23 *151:9 0.00216808
19 *109:27 *151:9 0.0318018
20 *146:17 *151:9 7.54757e-05
21 *147:11 *151:9 0.00113049
22 *147:13 *151:9 8.33951e-06
23 *149:35 *151:9 0
*RES
1 *921:gpio_analog_pol[26] *151:7 8.32853 
2 *151:7 *151:9 2078.84 
3 *151:9 *151:11 8 
4 *151:11 *151:13 567.721 
5 *151:13 gpio_analog_pol[26] 27.8599 
*END

*D_NET *152 0.655841
*CONN
*P gpio_analog_pol[27] O
*I *921:gpio_analog_pol[27] O *D CF_CARAVEL_SOC
*CAP
1 gpio_analog_pol[27] 0.00339703
2 *921:gpio_analog_pol[27] 0.00298033
3 *152:31 0.16028
4 *152:29 0.156883
5 *152:27 0.0262719
6 *152:25 0.0264696
7 *152:19 0.0034709
8 *152:17 0.00553947
9 *152:11 0.00389811
10 *152:9 0.00461215
11 gpio_analog_pol[27] gpio_dm0[27] 0
12 gpio_analog_pol[27] gpio_inp_dis[27] 0.000443566
13 *152:9 *153:19 0
14 *152:9 *193:31 0
15 *152:9 *321:35 0
16 *152:9 *329:50 0.000287215
17 *152:11 *160:11 0.00402305
18 *152:11 *534:15 0.0024804
19 *152:17 *153:25 0.000160956
20 *152:17 *170:9 0.00138478
21 *152:19 *332:13 0.00119625
22 *152:19 *333:11 0.0105568
23 *152:19 *334:32 0.00195269
24 *152:19 *831:55 0.00245085
25 *152:25 *273:15 0.000395995
26 *152:25 *332:19 0.000308174
27 *152:27 *153:27 1.08063e-05
28 *152:27 *241:27 0.0550764
29 *152:27 *242:27 0
30 *152:27 *333:19 0.0523254
31 gpio_analog_en[27] gpio_analog_pol[27] 0
32 *91:11 *152:11 0.000826872
33 *107:11 *152:11 0.00152903
34 *108:15 *152:31 0
35 *109:27 *152:27 0
36 *116:27 *152:9 0.000112317
37 *116:35 *152:19 0.000557714
38 *150:19 *152:19 0.00515721
39 *150:27 *152:27 0.120802
*RES
1 *921:gpio_analog_pol[27] *152:9 14.2384 
2 *152:9 *152:11 88.885 
3 *152:11 *152:17 21.8949 
4 *152:17 *152:19 170.582 
5 *152:19 *152:25 16.7859 
6 *152:25 *152:27 287.433 
7 *152:27 *152:29 8 
8 *152:29 *152:31 560.594 
9 *152:31 gpio_analog_pol[27] 7.35373 
*END

*D_NET *153 0.723723
*CONN
*P gpio_analog_pol[28] O
*I *921:gpio_analog_pol[28] O *D CF_CARAVEL_SOC
*CAP
1 gpio_analog_pol[28] 0.00309861
2 *921:gpio_analog_pol[28] 0.00754468
3 *153:31 0.103571
4 *153:29 0.100472
5 *153:27 0.0429009
6 *153:25 0.0437108
7 *153:19 0.00835464
8 gpio_analog_pol[28] gpio_dm0[28] 0.000615671
9 gpio_analog_pol[28] gpio_inp_dis[28] 0
10 *153:19 *154:7 3.7808e-05
11 *153:19 *156:11 0.00016384
12 *153:19 *168:9 0.000201542
13 *153:19 *193:31 8.25419e-05
14 *153:19 *279:11 0.00524754
15 *153:19 *285:11 0.00141266
16 *153:19 *316:11 0.000231276
17 *153:19 *329:50 0.000364411
18 *153:19 *483:11 0.000281986
19 *153:27 *157:29 0.00142495
20 *153:27 *157:37 0.00353541
21 *153:27 *163:19 0.0017454
22 *153:27 *241:27 0.0310513
23 *153:27 *330:13 0.00151978
24 *153:27 *330:23 0.00220268
25 *153:27 *332:13 0.0019544
26 *153:27 *333:11 0.00170426
27 *153:27 *333:19 0.0295779
28 *153:27 *334:32 0.014266
29 *153:31 gpio_dm0[28] 0.000661903
30 *153:31 *241:31 0.301631
31 *153:31 *538:305 0.00030499
32 *91:11 *153:19 0
33 *109:23 *153:27 0.000722788
34 *109:27 *153:27 0.0124788
35 *109:31 *153:31 0
36 *116:27 *153:19 0.000142505
37 *116:45 *153:25 0
38 *117:11 *153:19 0.000208942
39 *140:19 *153:19 0.000120707
40 *149:27 *153:19 6.27677e-06
41 *152:9 *153:19 0
42 *152:17 *153:25 0.000160956
43 *152:27 *153:27 1.08063e-05
*RES
1 *921:gpio_analog_pol[28] *153:19 48.0819 
2 *153:19 *153:25 17.7733 
3 *153:25 *153:27 277.659 
4 *153:27 *153:29 8 
5 *153:29 *153:31 561.109 
6 *153:31 gpio_analog_pol[28] 7.01773 
*END

*D_NET *154 0.565685
*CONN
*P gpio_analog_pol[29] O
*I *921:gpio_analog_pol[29] O *D CF_CARAVEL_SOC
*CAP
1 gpio_analog_pol[29] 0.000524003
2 *921:gpio_analog_pol[29] 0.000230289
3 *154:13 0.161521
4 *154:11 0.160997
5 *154:9 0.0275917
6 *154:7 0.027822
7 gpio_analog_pol[29] gpio_dm0[29] 0.000244124
8 gpio_analog_pol[29] gpio_inp_dis[29] 0
9 gpio_analog_pol[29] *459:13 0.000936406
10 *154:13 gpio_inp_dis[29] 0
11 *109:27 *154:9 0.017274
12 *140:229 *154:13 0.000185758
13 *146:17 *154:9 0.0568047
14 *148:9 *154:9 0.00242848
15 *149:35 *154:9 0
16 *151:9 *154:9 0.109088
17 *153:19 *154:7 3.7808e-05
*RES
1 *921:gpio_analog_pol[29] *154:7 8.4144 
2 *154:7 *154:9 1390.05 
3 *154:9 *154:11 8 
4 *154:11 *154:13 567.806 
5 *154:13 gpio_analog_pol[29] 28.6057 
*END

*D_NET *155 0.137248
*CONN
*P gpio_analog_pol[2] O
*I *921:gpio_analog_pol[2] O *D CF_CARAVEL_SOC
*CAP
1 gpio_analog_pol[2] 0.005757
2 *921:gpio_analog_pol[2] 0.00513226
3 *155:11 0.024842
4 *155:9 0.0242172
5 gpio_analog_pol[2] gpio_dm0[2] 0
6 gpio_analog_pol[2] gpio_inp_dis[2] 0.00190356
7 *155:9 *166:9 0
8 *155:11 *180:11 0.0148471
9 *155:11 *188:11 0.0297872
10 *155:11 *216:11 0
11 *155:11 *304:11 0.0110498
12 *155:11 *310:11 0.00457529
13 *155:11 *342:11 0
14 *155:11 *444:11 0.00571585
15 *155:11 *484:11 0.00810632
16 *111:15 *155:11 0.000760156
17 *115:11 *155:11 0.000554695
18 *130:11 *155:11 0
19 *144:9 *155:9 0
*RES
1 *921:gpio_analog_pol[2] *155:9 19.3101 
2 *155:9 *155:11 114.296 
3 *155:11 gpio_analog_pol[2] 20.9649 
*END

*D_NET *156 0.491754
*CONN
*P gpio_analog_pol[30] O
*I *921:gpio_analog_pol[30] O *D CF_CARAVEL_SOC
*CAP
1 gpio_analog_pol[30] 0.00166835
2 *921:gpio_analog_pol[30] 0.000666775
3 *156:15 0.16042
4 *156:13 0.158752
5 *156:11 0.0419219
6 *156:9 0.0425887
7 gpio_analog_pol[30] gpio_dm0[30] 5.79513e-05
8 gpio_analog_pol[30] gpio_inp_dis[30] 0.00029045
9 gpio_analog_pol[30] *447:17 0
10 gpio_analog_pol[30] *548:23 0.000277438
11 *156:9 *329:50 0.000210019
12 *156:9 *787:43 0
13 *156:11 *193:33 0.00150747
14 *156:11 *285:11 0
15 *156:15 gpio_inp_dis[30] 0.00589752
16 *156:15 *538:265 0
17 *109:23 *156:11 0.000986183
18 *109:27 *156:11 0.0390035
19 *112:31 *156:15 0
20 *142:11 *156:11 0.00201683
21 *143:11 *156:11 0.00259037
22 *145:11 *156:11 0.00259037
23 *147:13 *156:11 0.0074624
24 *148:9 *156:11 0.010801
25 *149:27 *156:11 0.00395598
26 *149:35 *156:11 0.00792532
27 *153:19 *156:11 0.00016384
*RES
1 *921:gpio_analog_pol[30] *156:9 9.08827 
2 *156:9 *156:11 210.131 
3 *156:11 *156:13 8 
4 *156:13 *156:15 565.445 
5 *156:15 gpio_analog_pol[30] 23.158 
*END

*D_NET *157 0.456398
*CONN
*P gpio_analog_pol[31] O
*I *921:gpio_analog_pol[31] O *D CF_CARAVEL_SOC
*CAP
1 gpio_analog_pol[31] 0.00355673
2 *921:gpio_analog_pol[31] 0.000510831
3 *157:43 0.160816
4 *157:41 0.15726
5 *157:39 0.0277685
6 *157:37 0.0303649
7 *157:29 0.00365864
8 *157:17 0.00143355
9 *157:11 0.000969546
10 *157:9 0.00110908
11 gpio_analog_pol[31] gpio_dm0[31] 0
12 gpio_analog_pol[31] gpio_inp_dis[31] 0.00015149
13 *157:9 *288:47 2.64715e-05
14 *157:9 *333:11 0.000112317
15 *157:9 *334:26 0.000287215
16 *157:9 *787:43 4.74805e-05
17 *157:11 *204:17 0.00342464
18 *157:29 *158:18 0.000233317
19 *157:29 *158:22 0.000602524
20 *157:29 *163:19 0.000131084
21 *157:29 *328:51 0.000194978
22 *157:29 *329:54 0.000610232
23 *157:29 *329:58 0
24 *157:29 *330:13 0.000196677
25 *157:29 *334:32 5.88321e-05
26 *157:29 *392:45 0.000234426
27 *157:37 *158:22 0.0089062
28 *157:37 *161:15 0.000559534
29 *157:37 *333:19 1.87002e-05
30 *157:37 *436:23 0.000130115
31 *157:37 *694:6 0.000556843
32 *157:37 *831:43 0.000911662
33 *157:39 *195:29 6.24189e-06
34 *157:39 *195:31 0.0224449
35 *157:39 *198:27 0
36 *157:39 *753:19 0.00826636
37 *157:39 *754:27 0.0105119
38 *109:23 *157:11 0.000173453
39 *113:23 gpio_analog_pol[31] 0
40 *116:45 *157:29 0
41 *117:27 *157:29 0.00176777
42 *140:143 *157:43 0
43 *151:9 *157:11 0.00342464
44 *153:27 *157:29 0.00142495
45 *153:27 *157:37 0.00353541
*RES
1 *921:gpio_analog_pol[31] *157:9 8.91467 
2 *157:9 *157:11 43.9868 
3 *157:11 *157:17 34.9093 
4 *157:17 *157:29 44.0269 
5 *157:29 *157:37 38.8629 
6 *157:37 *157:39 132.828 
7 *157:39 *157:41 8 
8 *157:41 *157:43 558.361 
9 *157:43 gpio_analog_pol[31] 7.15213 
*END

*D_NET *158 0.765693
*CONN
*P gpio_analog_pol[32] O
*I *921:gpio_analog_pol[32] O *D CF_CARAVEL_SOC
*CAP
1 gpio_analog_pol[32] 0.000116206
2 *921:gpio_analog_pol[32] 0.00156509
3 *158:32 0.0167382
4 *158:30 0.019381
5 *158:24 0.0382609
6 *158:22 0.0401114
7 *158:18 0.00617453
8 *158:18 *205:29 0.00140355
9 *158:18 *328:43 0.000858547
10 *158:18 *328:51 0.0019588
11 *158:18 *329:54 0.000878382
12 *158:18 *330:13 0.000464375
13 *158:22 *196:27 0
14 *158:22 *205:29 0.000664955
15 *158:22 *242:27 0
16 *158:22 *328:51 0.000266481
17 *158:22 *328:53 0.00194281
18 *158:22 *329:58 0.000119031
19 *158:22 *333:19 0.00109749
20 *158:22 *334:32 0
21 *158:22 *831:41 0.000359398
22 *158:24 *228:25 0.000318611
23 *158:24 *229:15 0.0852111
24 *158:24 *230:25 0.0220646
25 *158:24 *244:15 0.000455124
26 *158:24 *246:23 0.268969
27 *158:24 *277:23 0.00138853
28 *158:24 *286:31 0.0140855
29 *158:24 *801:15 0.180845
30 *158:30 *334:42 0
31 *158:32 gpio_dm0[32] 0.00152857
32 *114:29 *158:30 0
33 *114:31 *158:32 0.0379566
34 *116:45 *158:22 0.0104556
35 *117:27 *158:18 0.000311434
36 *157:29 *158:18 0.000233317
37 *157:29 *158:22 0.000602524
38 *157:37 *158:22 0.0089062
*RES
1 *921:gpio_analog_pol[32] *158:18 19.5285 
2 *158:18 *158:22 39.8192 
3 *158:22 *158:24 492.931 
4 *158:24 *158:30 24.5605 
5 *158:30 *158:32 73.9592 
6 *158:32 gpio_analog_pol[32] 0.346267 
*END

*D_NET *159 0.767931
*CONN
*P gpio_analog_pol[33] O
*I *921:gpio_analog_pol[33] O *D CF_CARAVEL_SOC
*CAP
1 gpio_analog_pol[33] 0.00894891
2 *921:gpio_analog_pol[33] 0.00422677
3 *159:21 0.0131996
4 *159:15 0.0556246
5 *159:13 0.0559411
6 *159:9 0.00879396
7 gpio_analog_pol[33] gpio_dm0[33] 0
8 gpio_analog_pol[33] gpio_inp_dis[33] 0
9 gpio_analog_pol[33] *206:57 0
10 gpio_analog_pol[33] *389:9 0
11 gpio_analog_pol[33] *390:9 0.000501294
12 *159:9 *160:9 0
13 *159:9 *788:53 0.000650932
14 *159:13 *170:11 0.00049723
15 *159:13 *179:11 0.00589919
16 *159:13 *247:11 0.00241688
17 *159:13 *288:59 0.00112525
18 *159:13 *391:29 0.00581813
19 *159:13 *831:75 0.000225986
20 *159:15 *337:39 0.295476
21 *159:15 *692:11 0.00614879
22 *159:15 *698:13 0.00614478
23 *159:15 *731:14 0.00220041
24 *159:15 *833:23 0.272207
25 *159:21 *355:11 0.00179503
26 *159:21 *359:11 0.00154215
27 *159:21 *371:11 0.0109248
28 *159:21 *393:11 0
29 *90:11 *159:13 0.00178334
30 *98:11 *159:13 0.00211481
31 *101:11 *159:13 0.00148768
32 *105:17 *159:9 0.000177916
33 *115:35 *159:21 0.00205849
*RES
1 *921:gpio_analog_pol[33] *159:9 17.4211 
2 *159:9 *159:13 41.8203 
3 *159:13 *159:15 559.391 
4 *159:15 *159:21 41.0619 
5 *159:21 gpio_analog_pol[33] 18.1039 
*END

*D_NET *160 0.750347
*CONN
*P gpio_analog_pol[34] O
*I *921:gpio_analog_pol[34] O *D CF_CARAVEL_SOC
*CAP
1 gpio_analog_pol[34] 0.010904
2 *921:gpio_analog_pol[34] 0.00279191
3 *160:27 0.0216118
4 *160:25 0.0107078
5 *160:23 0.0321087
6 *160:21 0.0321758
7 *160:15 0.0199038
8 *160:13 0.0198367
9 *160:11 0.00508139
10 *160:9 0.0078733
11 gpio_analog_pol[34] gpio_dm0[34] 0.000162025
12 gpio_analog_pol[34] *354:9 0
13 gpio_analog_pol[34] *355:9 0.00230865
14 gpio_analog_pol[34] *556:52 0
15 *160:9 *161:9 0
16 *160:11 *534:15 0
17 *160:15 *392:31 0.132894
18 *160:15 *393:23 0.0155323
19 *160:15 *683:11 0.00710297
20 *160:15 *687:11 0.0192235
21 *160:15 *688:11 0.000422465
22 *160:15 *693:19 0.111494
23 *160:21 *672:9 0
24 *160:23 *541:131 0.0183693
25 *160:23 *661:13 0.00135259
26 *160:23 *661:15 0.000414036
27 *160:23 *687:11 0.073327
28 *160:23 *687:17 0.00106301
29 *160:27 *449:13 0.00179503
30 *160:27 *752:11 0.00347621
31 *160:27 *758:9 0.0292188
32 gpio_analog_en[34] gpio_analog_pol[34] 0
33 *91:11 *160:11 0.00181933
34 *97:11 *160:11 1.98354e-05
35 *99:11 *160:11 0.000122982
36 *107:11 *160:11 0.014801
37 *116:55 *160:15 0.00166801
38 *116:55 *160:23 0.000681072
39 *116:63 *160:23 0.146062
40 *152:11 *160:11 0.00402305
41 *159:9 *160:9 0
*RES
1 *921:gpio_analog_pol[34] *160:9 13.7717 
2 *160:9 *160:11 196.465 
3 *160:11 *160:13 15 
4 *160:13 *160:15 1491.37 
5 *160:15 *160:21 24.0254 
6 *160:21 *160:23 282.343 
7 *160:23 *160:25 8 
8 *160:25 *160:27 67.8384 
9 *160:27 gpio_analog_pol[34] 31.1887 
*END

*D_NET *161 0.564895
*CONN
*P gpio_analog_pol[35] O
*I *921:gpio_analog_pol[35] O *D CF_CARAVEL_SOC
*CAP
1 gpio_analog_pol[35] 0.0117234
2 *921:gpio_analog_pol[35] 0.00615379
3 *161:19 0.024341
4 *161:17 0.0126176
5 *161:15 0.0974151
6 *161:13 0.102599
7 *161:9 0.0113375
8 gpio_analog_pol[35] gpio_dm0[35] 0.00347724
9 gpio_analog_pol[35] *322:289 0.000200278
10 gpio_analog_pol[35] *353:11 0.000363588
11 gpio_analog_pol[35] *765:9 0.000427924
12 gpio_analog_pol[35] *798:19 0.000774714
13 gpio_analog_pol[35] *819:11 0.00287239
14 gpio_analog_pol[35] *834:11 0
15 *161:9 *162:9 0
16 *161:9 *327:37 4.05202e-05
17 *161:13 *176:11 0.0079175
18 *161:13 *181:11 0.00556915
19 *161:13 *182:19 0.00227807
20 *161:13 *312:19 0.00189576
21 *161:13 *326:11 0.00189576
22 *161:13 *535:121 0.00227807
23 *161:15 *183:15 0
24 *161:15 *202:25 1.08929e-05
25 *161:15 *271:25 0.00319501
26 *161:15 *288:65 8.18773e-05
27 *161:15 *315:25 0.00150416
28 *161:15 *333:17 0.000118597
29 *161:15 *436:23 0.00491141
30 *161:15 *692:11 0.0117167
31 *161:15 *694:6 0.00303574
32 *161:15 *731:14 0.00467297
33 *161:15 *734:11 0.0341581
34 *161:15 *738:11 0.000355907
35 *161:15 *740:11 0.038837
36 *161:15 *743:11 0.000355907
37 *161:15 *808:21 0.00339773
38 *161:15 *833:21 0.00407446
39 *161:15 *833:23 0.0748725
40 *161:19 *356:11 0.00192611
41 *161:19 *360:11 0.00231937
42 *161:19 *391:11 0.032068
43 *161:19 *393:11 0.00813513
44 *161:19 *448:13 0.000747542
45 *161:19 *751:11 0.00262508
46 *161:19 *797:19 0.00516432
47 *161:19 *798:19 0.000823027
48 *161:19 *819:11 0.025923
49 *161:19 *834:11 0
50 *104:27 *161:13 0.00144677
51 *113:11 *161:13 0.00121966
52 *117:23 *161:9 0.000460864
53 *157:37 *161:15 0.000559534
54 *160:9 *161:9 0
*RES
1 *921:gpio_analog_pol[35] *161:9 21.1992 
2 *161:9 *161:13 40.2971 
3 *161:13 *161:15 561.967 
4 *161:15 *161:17 8 
5 *161:17 *161:19 93.7365 
6 *161:19 gpio_analog_pol[35] 40.3465 
*END

*D_NET *162 0.904739
*CONN
*P gpio_analog_pol[36] O
*I *921:gpio_analog_pol[36] O *D CF_CARAVEL_SOC
*CAP
1 gpio_analog_pol[36] 0.00295355
2 *921:gpio_analog_pol[36] 0.00568581
3 *162:27 0.0157331
4 *162:25 0.0159707
5 *162:15 0.0429869
6 *162:13 0.0397958
7 *162:11 0.00230544
8 *162:9 0.00799125
9 gpio_analog_pol[36] gpio_dm0[36] 0.00352886
10 gpio_analog_pol[36] gpio_inp_dis[36] 0
11 *162:11 *203:11 0.00070172
12 *162:11 *315:11 0.0133227
13 *162:11 *532:36 0
14 *162:15 *183:15 0.000824505
15 *162:15 *198:15 0.00707055
16 *162:15 *204:33 0.0125742
17 *162:15 *436:23 0.00293721
18 *162:15 *690:11 0.259509
19 *162:15 *694:6 0.0205871
20 *162:15 *727:11 0.279314
21 *162:15 *731:6 0.0187667
22 *162:15 *733:6 0.00381778
23 *162:15 *734:11 0.000464151
24 *162:15 *738:11 2.02872e-05
25 *162:15 *739:6 0.00223281
26 *162:15 *740:11 0.00290349
27 *162:25 *163:31 0.000205998
28 *162:25 *355:11 0.000281259
29 *162:25 *437:29 0.000561256
30 *162:25 *690:21 0.00519838
31 *162:25 *736:21 0.00194462
32 *162:25 *790:11 0.000283491
33 *162:27 *249:27 0.0175503
34 *162:27 *465:11 0.00209074
35 *162:27 *754:11 0.0511178
36 *162:27 *773:11 0.0418448
37 *162:27 *802:11 0.00618331
38 *112:15 *162:15 0.000267628
39 *115:33 *162:15 3.7122e-06
40 *117:23 *162:9 0.000458203
41 *129:11 *162:11 0.00090476
42 *139:11 *162:11 0.0138448
43 *161:9 *162:9 0
*RES
1 *921:gpio_analog_pol[36] *162:9 20.2117 
2 *162:9 *162:11 176.745 
3 *162:11 *162:13 15 
4 *162:13 *162:15 3118.85 
5 *162:15 *162:25 45.4601 
6 *162:25 *162:27 820.638 
7 *162:27 gpio_analog_pol[36] 15.4508 
*END

*D_NET *163 0.933859
*CONN
*P gpio_analog_pol[37] O
*I *921:gpio_analog_pol[37] O *D CF_CARAVEL_SOC
*CAP
1 gpio_analog_pol[37] 0.000328877
2 *921:gpio_analog_pol[37] 0.000732697
3 *163:35 0.0188097
4 *163:33 0.0184808
5 *163:31 0.0072843
6 *163:23 0.0440677
7 *163:21 0.0367834
8 *163:19 0.00199338
9 *163:17 0.00211727
10 *163:11 0.000856579
11 gpio_analog_pol[37] gpio_dm0[37] 0.000465276
12 gpio_analog_pol[37] gpio_inp_dis[37] 5.97119e-05
13 *163:11 *333:11 0.00257845
14 *163:11 *334:32 0.000697123
15 *163:19 *330:13 0.0112184
16 *163:19 *332:13 0.0112256
17 *163:23 *291:15 0.284177
18 *163:23 *541:131 0
19 *163:23 *688:11 0.00373763
20 *163:23 *716:11 0.277828
21 *163:23 *744:11 0.0507762
22 *163:31 *204:41 0
23 *163:31 *291:23 0.00110424
24 *163:31 *437:29 0.004071
25 *163:31 *688:11 0.00355195
26 *163:31 *690:21 5.95885e-05
27 *163:31 *736:21 0.000373559
28 *163:31 *796:11 4.5745e-05
29 *163:35 *204:45 0.000215389
30 *163:35 *206:59 0.0535723
31 *163:35 *291:27 0.0106917
32 *163:35 *459:13 0
33 *163:35 *466:11 0.0812973
34 *116:35 *163:11 0.0024595
35 *117:23 *163:11 0.000116312
36 *153:27 *163:19 0.0017454
37 *157:29 *163:19 0.000131084
38 *162:25 *163:31 0.000205998
*RES
1 *921:gpio_analog_pol[37] *163:11 40.0078 
2 *163:11 *163:17 31.5743 
3 *163:17 *163:19 144.171 
4 *163:19 *163:21 15 
5 *163:21 *163:23 3034.04 
6 *163:23 *163:31 43.4785 
7 *163:31 *163:33 8 
8 *163:33 *163:35 1047.42 
9 *163:35 gpio_analog_pol[37] 9.05187 
*END

*D_NET *164 0.735425
*CONN
*P gpio_analog_pol[38] O
*I *921:gpio_analog_pol[38] O *D CF_CARAVEL_SOC
*CAP
1 gpio_analog_pol[38] 0.00211919
2 *921:gpio_analog_pol[38] 0.000667132
3 *164:43 0.0152146
4 *164:41 0.0132587
5 *164:35 0.0314589
6 *164:33 0.031433
7 *164:23 0.0248764
8 *164:21 0.0248884
9 *164:15 0.0142722
10 *164:13 0.0147899
11 gpio_analog_pol[38] gpio_dm0[38] 0
12 gpio_analog_pol[38] gpio_inp_dis[38] 0
13 gpio_analog_pol[38] *541:55 0
14 *164:13 *165:9 0
15 *164:13 *193:31 2.55744e-05
16 *164:15 *167:15 0.0122835
17 *164:15 *193:9 0
18 *164:15 *193:17 0.00187137
19 *164:15 *209:11 0.0013529
20 *164:15 *344:11 0.00033972
21 *164:15 *345:11 0.00089126
22 *164:21 *343:9 2.04049e-05
23 *164:23 *208:9 0.038202
24 *164:23 *209:11 0.0679758
25 *164:33 *168:15 0.000263905
26 *164:33 *253:15 0.000257314
27 *164:35 *168:15 0.0211404
28 *164:35 *238:15 0.169324
29 *164:35 *340:39 0.0109091
30 *164:35 *386:207 0.0138192
31 *164:35 *429:19 0.000588415
32 *164:35 *545:11 0.0383254
33 *164:35 *554:13 0.00599141
34 *164:41 gpio_dm0[39] 0.000189344
35 *164:43 *339:23 0.0532305
36 *164:43 *390:23 0.0115984
37 *164:43 *760:23 0.0100534
38 *164:43 *827:19 0.015376
39 *164:43 *852:11 0.0100462
40 *109:11 *164:15 0.0240212
41 *116:19 *164:15 0.0145061
42 *121:11 *164:15 0.00693662
43 *121:11 *164:23 0.00705392
44 *123:11 *164:23 0.00705392
45 *124:9 *164:33 4.36401e-06
46 *126:11 *164:23 0.00560663
47 *140:27 *164:15 0.00381659
48 *142:11 *164:15 0.00855059
49 *148:9 *164:15 0.000109643
50 *149:27 *164:15 0.000711094
*RES
1 *921:gpio_analog_pol[38] *164:13 9.288 
2 *164:13 *164:15 732.602 
3 *164:15 *164:21 16.2707 
4 *164:21 *164:23 158.469 
5 *164:23 *164:33 31.8493 
6 *164:33 *164:35 1808.67 
7 *164:35 *164:41 25.7861 
8 *164:41 *164:43 100.692 
9 *164:43 gpio_analog_pol[38] 38.2739 
*END

*D_NET *165 0.579921
*CONN
*P gpio_analog_pol[39] O
*I *921:gpio_analog_pol[39] O *D CF_CARAVEL_SOC
*CAP
1 gpio_analog_pol[39] 0.00258172
2 *921:gpio_analog_pol[39] 0.00762388
3 *165:23 0.0197017
4 *165:21 0.0173085
5 *165:15 0.0192175
6 *165:13 0.019029
7 *165:11 0.0408244
8 *165:9 0.0484482
9 gpio_analog_pol[39] gpio_dm0[39] 0
10 gpio_analog_pol[39] gpio_inp_dis[39] 0
11 *165:9 *167:13 0.000105448
12 *165:9 *193:31 0
13 *165:9 *288:53 0
14 *165:9 *782:37 0.000456412
15 *165:9 *831:71 0
16 *165:11 *195:11 0.0249297
17 *165:11 *241:11 0
18 *165:11 *263:11 0.0541377
19 *165:11 *277:11 0.0127573
20 *165:11 *692:15 0.00850061
21 *165:11 *692:23 0
22 *165:11 *793:31 0.0043859
23 *165:11 *804:27 0
24 *165:15 *325:71 0.0257118
25 *165:15 *338:19 0.0773983
26 *165:15 *339:15 0.0920868
27 *165:15 *484:15 0.000763288
28 *165:15 *548:11 0.00820803
29 *165:15 *771:27 0
30 *165:15 *842:11 0.0137795
31 *165:21 gpio_analog_sel[41] 5.34972e-05
32 *165:23 *296:23 0.0259687
33 *165:23 *434:23 0.00812979
34 *165:23 *470:15 0.00324969
35 *165:23 *543:11 0.010409
36 *165:23 *847:16 0.0124711
37 *105:23 *165:9 4.96824e-05
38 *121:15 *165:15 0.021547
39 *149:33 *165:9 8.70846e-05
40 *164:13 *165:9 0
*RES
1 *921:gpio_analog_pol[39] *165:9 24.2475 
2 *165:9 *165:11 1609.97 
3 *165:11 *165:13 15 
4 *165:13 *165:15 1310.32 
5 *165:15 *165:21 26.1382 
6 *165:21 *165:23 105.157 
7 *165:23 gpio_analog_pol[39] 45.4825 
*END

*D_NET *166 0.084599
*CONN
*P gpio_analog_pol[3] O
*I *921:gpio_analog_pol[3] O *D CF_CARAVEL_SOC
*CAP
1 gpio_analog_pol[3] 0.00428426
2 *921:gpio_analog_pol[3] 0.00642053
3 *166:11 0.0149559
4 *166:9 0.0170922
5 gpio_analog_pol[3] gpio_dm0[3] 0
6 gpio_analog_pol[3] gpio_inp_dis[3] 0.00186832
7 gpio_analog_pol[3] *281:11 0.000186888
8 gpio_analog_pol[3] *375:59 0.000113015
9 *166:9 *171:9 0
10 *166:11 *169:11 0.00172328
11 *166:11 *178:15 0.00891114
12 *166:11 *181:11 0.000533045
13 *166:11 *199:11 0.0013878
14 *166:11 *224:19 0.00191596
15 *166:11 *242:11 0.000148344
16 *166:11 *303:11 0.0168539
17 *166:11 *481:11 0.000306877
18 *104:19 *166:9 4.24588e-05
19 *104:19 *166:11 0.000293149
20 *114:11 *166:11 0.000148344
21 *133:11 *166:11 0.00741351
22 *155:9 *166:9 0
*RES
1 *921:gpio_analog_pol[3] *166:9 22.2296 
2 *166:9 *166:11 72.9157 
3 *166:11 gpio_analog_pol[3] 38.3449 
*END

*D_NET *167 0.509764
*CONN
*P gpio_analog_pol[40] O
*I *921:gpio_analog_pol[40] O *D CF_CARAVEL_SOC
*CAP
1 gpio_analog_pol[40] 0.00163149
2 *921:gpio_analog_pol[40] 0.00200295
3 *167:19 0.0519229
4 *167:17 0.0502914
5 *167:15 0.0239673
6 *167:13 0.0259702
7 gpio_analog_pol[40] gpio_dm0[40] 0
8 gpio_analog_pol[40] gpio_inp_dis[40] 0.000181366
9 gpio_analog_pol[40] *208:27 0
10 *167:13 *197:11 0
11 *167:15 *193:17 0.00355021
12 *167:15 *197:11 0
13 *167:15 *205:21 0.00135792
14 *167:15 *206:27 0.00697221
15 *167:15 *207:11 0.0116288
16 *167:15 *209:11 0.0039738
17 *167:15 *213:11 0.107954
18 *167:15 *252:11 0
19 *167:15 *274:51 0.00232499
20 *167:15 *343:11 0.0687149
21 *167:15 *344:11 0.000288799
22 *167:15 *847:6 8.68052e-05
23 *167:15 *852:9 0
24 *167:19 *208:19 4.73828e-05
25 *167:19 *297:14 2.57582e-05
26 *167:19 *571:27 0.0164832
27 *167:19 *749:27 0.0191501
28 *167:19 *838:11 0.0713184
29 *167:19 *841:11 0.0195197
30 *109:23 *167:13 0.000227734
31 *116:19 *167:15 0.00150295
32 *116:35 *167:13 0.000142505
33 *119:23 *167:19 0.00179655
34 *140:27 *167:13 0.00287929
35 *140:27 *167:15 0.000822753
36 *149:27 *167:13 0.000129945
37 *149:27 *167:15 0.000316371
38 *149:33 *167:13 0.000130761
39 *149:35 *167:13 6.17582e-05
40 *164:15 *167:15 0.0122835
41 *165:9 *167:13 0.000105448
*RES
1 *921:gpio_analog_pol[40] *167:13 47.3042 
2 *167:13 *167:15 1591.64 
3 *167:15 *167:17 8 
4 *167:17 *167:19 274.915 
5 *167:19 gpio_analog_pol[40] 33.5511 
*END

*D_NET *168 0.558826
*CONN
*P gpio_analog_pol[41] O
*I *921:gpio_analog_pol[41] O *D CF_CARAVEL_SOC
*CAP
1 gpio_analog_pol[41] 0.00223782
2 *921:gpio_analog_pol[41] 0.00713252
3 *168:15 0.028236
4 *168:13 0.0259982
5 *168:11 0.0561803
6 *168:9 0.0633128
7 gpio_analog_pol[41] gpio_inp_dis[41] 0
8 gpio_analog_pol[41] *256:19 0
9 *168:9 *169:9 0
10 *168:9 *787:33 0.000275276
11 *168:9 *831:71 0.00402423
12 *168:11 *218:11 0
13 *168:11 *269:11 0
14 *168:11 *273:11 0.0874208
15 *168:11 *306:11 0
16 *168:11 *348:11 0
17 *168:11 *386:211 0
18 *168:11 *408:101 0
19 *168:11 *760:35 0
20 *168:11 *832:59 0
21 *168:15 *169:15 0.000769668
22 *168:15 *238:15 0.0249593
23 *168:15 *253:15 0.00088442
24 *168:15 *255:15 5.40953e-05
25 *168:15 *340:39 0.117252
26 *168:15 *343:15 8.57944e-05
27 *168:15 *386:207 0.000610198
28 *168:15 *845:19 0.0531377
29 *126:15 *168:15 0.0646487
30 *153:19 *168:9 0.000201542
31 *164:33 *168:15 0.000263905
32 *164:35 *168:15 0.0211404
*RES
1 *921:gpio_analog_pol[41] *168:9 25.1061 
2 *168:9 *168:11 1629.86 
3 *168:11 *168:13 8 
4 *168:13 *168:15 239.71 
5 *168:15 gpio_analog_pol[41] 40.5111 
*END

*D_NET *169 0.444294
*CONN
*P gpio_analog_pol[42] O
*I *921:gpio_analog_pol[42] O *D CF_CARAVEL_SOC
*CAP
1 gpio_analog_pol[42] 0.00246401
2 *921:gpio_analog_pol[42] 0.00629932
3 *169:15 0.0341685
4 *169:13 0.0317045
5 *169:11 0.0332798
6 *169:9 0.0395791
7 gpio_analog_pol[42] gpio_dm0[42] 0
8 gpio_analog_pol[42] gpio_inp_dis[42] 0.000216189
9 *169:9 *170:9 0
10 *169:9 *280:17 1.92442e-05
11 *169:9 *391:33 0
12 *169:9 *788:33 0.00234245
13 *169:9 *831:71 0
14 *169:11 *178:15 0.00281001
15 *169:11 *222:11 0.00221203
16 *169:11 *224:19 0.0329277
17 *169:11 *242:11 0.103162
18 *169:11 *267:15 0.00411359
19 *169:11 *298:11 0.00204595
20 *169:11 *435:27 0
21 *169:11 *531:28 0
22 *169:11 *692:23 0
23 *169:11 *771:31 0
24 *169:15 *170:23 0.00882001
25 *169:15 *209:15 0.000202314
26 *169:15 *213:15 0.0896992
27 *169:15 *253:15 0.000299371
28 *169:15 *257:15 0
29 *169:15 *296:23 0.00365722
30 *169:15 *322:75 0.000277582
31 *169:15 *434:23 0.00474124
32 *169:15 *474:15 0.000350498
33 *169:15 *480:15 0.00012144
34 *169:15 *847:16 0.00110971
35 *94:19 *169:11 0.0321247
36 *104:19 *169:11 0.00225319
37 *150:17 *169:9 0.00080047
38 *166:11 *169:11 0.00172328
39 *168:9 *169:9 0
40 *168:15 *169:15 0.000769668
*RES
1 *921:gpio_analog_pol[42] *169:9 22.5301 
2 *169:9 *169:11 1631.97 
3 *169:11 *169:13 8 
4 *169:13 *169:15 185.957 
5 *169:15 gpio_analog_pol[42] 44.1982 
*END

*D_NET *170 0.371898
*CONN
*P gpio_analog_pol[43] O
*I *921:gpio_analog_pol[43] O *D CF_CARAVEL_SOC
*CAP
1 gpio_analog_pol[43] 0.00258024
2 *921:gpio_analog_pol[43] 0.0037686
3 *170:23 0.0228228
4 *170:21 0.0202426
5 *170:19 0.0291502
6 *170:17 0.032025
7 *170:11 0.0074331
8 *170:9 0.00832695
9 gpio_analog_pol[43] gpio_dm0[43] 0
10 gpio_analog_pol[43] gpio_inp_dis[43] 0
11 gpio_analog_pol[43] *296:21 2.75733e-06
12 gpio_analog_pol[43] *345:21 0.00010052
13 gpio_analog_pol[43] *545:9 0
14 *170:9 *391:33 0.000107013
15 *170:11 *179:11 0.000586936
16 *170:11 *247:11 0.0288042
17 *170:17 gpio_out[4] 0.00012591
18 *170:17 gpio_vtrip_sel[4] 0.000508793
19 *170:19 *185:11 0.000136683
20 *170:19 *212:19 0.0204667
21 *170:19 *228:11 0.00672583
22 *170:19 *234:11 0
23 *170:19 *240:11 0.0268418
24 *170:19 *249:11 0
25 *170:19 *274:19 0.0201626
26 *170:19 *325:11 0.010928
27 *170:19 *325:19 0
28 *170:19 *858:7 0
29 *170:23 *257:15 0.0649897
30 *170:23 *296:15 0.0116494
31 *170:23 *771:27 0.0116423
32 *98:11 *170:11 0.0288042
33 *102:17 *170:9 9.59396e-05
34 *144:11 *170:11 0.00164205
35 *150:17 *170:9 0.000525511
36 *152:17 *170:9 0.00138478
37 *159:13 *170:11 0.00049723
38 *169:9 *170:9 0
39 *169:15 *170:23 0.00882001
*RES
1 *921:gpio_analog_pol[43] *170:9 17.464 
2 *170:9 *170:11 367.782 
3 *170:11 *170:17 22.8395 
4 *170:17 *170:19 1265.75 
5 *170:19 *170:21 8 
6 *170:21 *170:23 123.189 
7 *170:23 gpio_analog_pol[43] 46.3111 
*END

*D_NET *171 0.0566497
*CONN
*P gpio_analog_pol[4] O
*I *921:gpio_analog_pol[4] O *D CF_CARAVEL_SOC
*CAP
1 gpio_analog_pol[4] 0.00421458
2 *921:gpio_analog_pol[4] 0.00579107
3 *171:13 0.0113103
4 *171:9 0.0128868
5 gpio_analog_pol[4] gpio_dm0[4] 0
6 gpio_analog_pol[4] gpio_inp_dis[4] 0.000813821
7 gpio_analog_pol[4] *183:9 0
8 gpio_analog_pol[4] *184:9 0.003522
9 *171:9 gpio_analog_pol[5] 0
10 *171:13 *181:11 0
11 *171:13 *215:13 0.00123256
12 *171:13 *260:19 0.000935226
13 *171:13 *266:11 0.00256719
14 *171:13 *312:19 0.000935226
15 *171:13 *532:36 0.00196638
16 *129:11 *171:13 0.00790742
17 *132:11 *171:13 0.00256719
18 *166:9 *171:9 0
*RES
1 *921:gpio_analog_pol[4] *171:9 20.684 
2 *171:9 *171:13 40.8048 
3 *171:13 gpio_analog_pol[4] 10.7595 
*END

*D_NET *172 0.0327688
*CONN
*P gpio_analog_pol[5] O
*I *921:gpio_analog_pol[5] O *D CF_CARAVEL_SOC
*CAP
1 gpio_analog_pol[5] 0.0112228
2 *921:gpio_analog_pol[5] 0.0112228
3 gpio_analog_pol[5] gpio_dm0[5] 0.00022577
4 gpio_analog_pol[5] gpio_inp_dis[5] 0.00297294
5 gpio_analog_pol[5] *173:9 0
6 gpio_analog_pol[5] *174:11 0.00255009
7 gpio_analog_pol[5] *181:11 0.000336894
8 gpio_analog_pol[5] *224:19 0.000292436
9 gpio_analog_pol[5] *375:49 8.24476e-05
10 gpio_analog_pol[5] *391:43 0.000439423
11 *104:19 gpio_analog_pol[5] 0.00342317
12 *171:9 gpio_analog_pol[5] 0
*RES
1 *921:gpio_analog_pol[5] gpio_analog_pol[5] 47.7361 
*END

*D_NET *173 0.0595592
*CONN
*P gpio_analog_pol[6] O
*I *921:gpio_analog_pol[6] O *D CF_CARAVEL_SOC
*CAP
1 gpio_analog_pol[6] 0.00317852
2 *921:gpio_analog_pol[6] 0.00592617
3 *173:18 0
4 *173:11 0.0169436
5 *173:9 0.0196913
6 gpio_analog_pol[6] gpio_dm0[6] 0
7 gpio_analog_pol[6] gpio_inp_dis[6] 0.0041527
8 gpio_analog_pol[6] *782:29 0.000584273
9 *173:9 *174:9 0
10 *173:9 *178:15 6.66256e-05
11 *173:9 *375:49 0.000177103
12 *173:9 *480:9 0.00215745
13 *173:11 *174:11 0
14 *173:11 *242:11 0.000731781
15 gpio_analog_pol[5] *173:9 0
16 *104:19 *173:11 0.00504001
17 *114:11 *173:11 0.000909627
*RES
1 *921:gpio_analog_pol[6] *173:9 22.9165 
2 *173:9 *173:11 49.4331 
3 *173:11 gpio_analog_pol[6] 16.5269 
4 gpio_analog_pol[6] *173:18 0.101818 
*END

*D_NET *174 0.209598
*CONN
*P gpio_analog_pol[7] O
*I *921:gpio_analog_pol[7] O *D CF_CARAVEL_SOC
*CAP
1 gpio_analog_pol[7] 0.00384804
2 *921:gpio_analog_pol[7] 0.00608667
3 *174:11 0.0372696
4 *174:9 0.0395082
5 gpio_analog_pol[7] gpio_dm0[7] 0.000724117
6 gpio_analog_pol[7] gpio_inp_dis[7] 0.00152365
7 *174:9 *175:9 0
8 *174:9 *206:25 0.000544168
9 *174:9 *480:9 0
10 *174:11 *181:11 0.00149248
11 *174:11 *224:19 0.0102535
12 *174:11 *481:11 0.000231929
13 gpio_analog_en[7] gpio_analog_pol[7] 0
14 gpio_analog_pol[5] *174:11 0.00255009
15 *94:19 *174:11 0.00771852
16 *104:19 *174:11 0.00542598
17 *114:21 *174:11 0.00241586
18 *137:11 *174:11 0.0900054
19 *173:9 *174:9 0
20 *173:11 *174:11 0
*RES
1 *921:gpio_analog_pol[7] *174:9 22.0579 
2 *174:9 *174:11 213.304 
3 *174:11 gpio_analog_pol[7] 18.0287 
*END

*D_NET *175 0.256215
*CONN
*P gpio_analog_pol[8] O
*I *921:gpio_analog_pol[8] O *D CF_CARAVEL_SOC
*CAP
1 gpio_analog_pol[8] 0.00499652
2 *921:gpio_analog_pol[8] 0.00493969
3 *175:11 0.0444286
4 *175:9 0.0443718
5 gpio_analog_pol[8] gpio_dm0[8] 0.000435266
6 gpio_analog_pol[8] gpio_inp_dis[8] 0.000347523
7 *175:9 *176:9 0
8 *175:9 *206:25 0.000544168
9 *175:11 *180:11 0.00074625
10 *175:11 *203:11 0.0101157
11 *175:11 *225:19 0.00916559
12 *175:11 *274:93 0.000683156
13 *175:11 *304:11 0.000953532
14 *175:11 *349:11 0.00329596
15 *175:11 *787:35 0.000180981
16 gpio_analog_en[8] gpio_analog_pol[8] 0
17 *128:11 *175:11 0.000351844
18 *131:11 *175:11 0.0213248
19 *135:11 *175:11 0.109179
20 *136:11 *175:11 0
21 *141:25 *175:11 0.000155132
22 *174:9 *175:9 0
*RES
1 *921:gpio_analog_pol[8] *175:9 19.4819 
2 *175:9 *175:11 254.557 
3 *175:11 gpio_analog_pol[8] 20.4105 
*END

*D_NET *176 0.266488
*CONN
*P gpio_analog_pol[9] O
*I *921:gpio_analog_pol[9] O *D CF_CARAVEL_SOC
*CAP
1 gpio_analog_pol[9] 0.00396122
2 *921:gpio_analog_pol[9] 0.00588086
3 *176:11 0.0463999
4 *176:9 0.0483196
5 gpio_analog_pol[9] gpio_dm0[9] 0.000551137
6 gpio_analog_pol[9] gpio_inp_dis[9] 0.000240543
7 gpio_analog_pol[9] *268:11 0
8 gpio_analog_pol[9] *311:11 0
9 *176:9 gpio_slow_sel[5] 0
10 *176:11 *181:11 0
11 *176:11 *182:19 0.00602766
12 *176:11 *202:25 0.0024187
13 *176:11 *312:19 0.00674026
14 *176:11 *326:11 0.000963597
15 *176:11 *327:31 0.00105235
16 *176:11 *337:35 0.000878847
17 *176:11 *375:43 0.00193611
18 *176:11 *535:121 0.0046053
19 *176:11 *568:15 0.00011563
20 *176:11 *782:31 0.000897478
21 gpio_analog_en[9] gpio_analog_pol[9] 0.00344221
22 *113:19 *176:11 0.030629
23 *129:11 *176:11 0.000519183
24 *132:11 *176:11 0.0213497
25 *134:9 *176:9 0
26 *136:11 *176:11 0.0716415
27 *161:13 *176:11 0.0079175
28 *175:9 *176:9 0
*RES
1 *921:gpio_analog_pol[9] *176:9 20.8557 
2 *176:9 *176:11 294.922 
3 *176:11 gpio_analog_pol[9] 38.7442 
*END

*D_NET *177 0.17681
*CONN
*P gpio_analog_sel[0] O
*I *921:gpio_analog_sel[0] O *D CF_CARAVEL_SOC
*CAP
1 gpio_analog_sel[0] 0.00442548
2 *921:gpio_analog_sel[0] 0.00565442
3 *177:11 0.0177568
4 *177:9 0.0189858
5 gpio_analog_sel[0] gpio_dm2[0] 0.00265493
6 gpio_analog_sel[0] *242:9 0.000329264
7 *177:9 *188:9 0
8 *177:11 *232:11 0.00922363
9 *177:11 *259:11 0.0646837
10 *177:11 *260:19 0.000100357
11 *177:11 *326:11 0.000100357
12 *177:11 *419:197 0.00651057
13 *177:11 *535:121 0.00299638
14 *94:11 *177:11 0.00464359
15 *100:11 *177:11 0.0295058
16 *122:13 *177:11 0.00623212
17 *132:11 *177:11 0.00300663
18 *133:11 *177:11 0
*RES
1 *921:gpio_analog_sel[0] *177:9 20.684 
2 *177:9 *177:11 148.949 
3 *177:11 gpio_analog_sel[0] 19.5799 
*END

*D_NET *178 0.338646
*CONN
*P gpio_analog_sel[10] O
*I *921:gpio_analog_sel[10] O *D CF_CARAVEL_SOC
*CAP
1 gpio_analog_sel[10] 0.00399194
2 *921:gpio_analog_sel[10] 0.00630359
3 *178:19 0.0410321
4 *178:17 0.0370401
5 *178:15 0.0092728
6 *178:9 0.0155764
7 gpio_analog_sel[10] gpio_inp_dis[10] 0
8 gpio_analog_sel[10] *354:15 0
9 *178:9 *179:9 0
10 *178:9 *220:9 0
11 *178:9 *479:9 0.00126525
12 *178:15 *242:11 0.00319163
13 *178:15 *337:11 0.00155698
14 *178:15 *480:9 4.34222e-05
15 *178:19 *267:23 0.147874
16 *178:19 *274:67 0.00175755
17 *178:19 *321:47 0.00485087
18 *178:19 *445:11 0.0378706
19 *178:19 *787:19 0.00673236
20 *178:19 *832:51 0.00259366
21 *94:19 *178:15 0.00191596
22 *104:19 *178:15 0.0014704
23 *114:11 *178:15 0.00251817
24 *166:11 *178:15 0.00891114
25 *169:11 *178:15 0.00281001
26 *173:9 *178:15 6.66256e-05
*RES
1 *921:gpio_analog_sel[10] *178:9 22.5731 
2 *178:9 *178:15 49.3373 
3 *178:15 *178:17 8 
4 *178:17 *178:19 1904.53 
5 *178:19 gpio_analog_sel[10] 17.0375 
*END

*D_NET *179 0.444738
*CONN
*P gpio_analog_sel[11] O
*I *921:gpio_analog_sel[11] O *D CF_CARAVEL_SOC
*CAP
1 gpio_analog_sel[11] 0.00572658
2 *921:gpio_analog_sel[11] 0.00439714
3 *179:11 0.06993
4 *179:9 0.0686005
5 gpio_analog_sel[11] gpio_dm2[11] 0
6 gpio_analog_sel[11] *355:15 0
7 *179:9 *180:9 0
8 *179:11 *180:11 0
9 *179:11 *223:19 0.00179956
10 *179:11 *226:11 0
11 *179:11 *270:19 0.00198015
12 *179:11 *288:57 0.000340931
13 *179:11 *288:67 0.030351
14 *179:11 *530:113 0.0549079
15 *179:11 *831:75 0.00103337
16 *90:11 *179:11 0
17 *93:11 *179:11 0.031275
18 *98:11 *179:11 0.000586936
19 *101:11 *179:11 0.00258119
20 *130:11 *179:11 0.0105017
21 *134:11 *179:11 0.145936
22 *138:11 *179:11 0.00249857
23 *144:11 *179:11 0.00580551
24 *159:13 *179:11 0.00589919
25 *170:11 *179:11 0.000586936
26 *178:9 *179:9 0
*RES
1 *921:gpio_analog_sel[11] *179:9 17.9363 
2 *179:9 *179:11 425.029 
3 *179:11 gpio_analog_sel[11] 22.1391 
*END

*D_NET *180 0.412442
*CONN
*P gpio_analog_sel[12] O
*I *921:gpio_analog_sel[12] O *D CF_CARAVEL_SOC
*CAP
1 gpio_analog_sel[12] 0.00417815
2 *921:gpio_analog_sel[12] 0.00366081
3 *180:11 0.0852032
4 *180:9 0.0846858
5 gpio_analog_sel[12] gpio_dm2[12] 0.00330132
6 gpio_analog_sel[12] gpio_holdover[12] 0
7 *180:9 gpio_slow_sel[4] 0.00555338
8 *180:11 *216:11 0.0024344
9 *180:11 *246:21 0.000463475
10 *180:11 *304:11 0.00103832
11 *180:11 *444:11 0.0316305
12 *115:11 *180:11 0.00163891
13 *130:11 *180:11 0
14 *134:11 *180:11 0
15 *135:11 *180:11 0.163915
16 *136:11 *180:11 0
17 *141:11 *180:11 0.00914503
18 *155:11 *180:11 0.0148471
19 *175:11 *180:11 0.00074625
20 *179:9 *180:9 0
21 *179:11 *180:11 0
*RES
1 *921:gpio_analog_sel[12] *180:9 19.1384 
2 *180:9 *180:11 466.536 
3 *180:11 gpio_analog_sel[12] 20.4143 
*END

*D_NET *181 0.499509
*CONN
*P gpio_analog_sel[13] O
*I *921:gpio_analog_sel[13] O *D CF_CARAVEL_SOC
*CAP
1 gpio_analog_sel[13] 0.00445793
2 *921:gpio_analog_sel[13] 0.00566583
3 *181:11 0.0891368
4 *181:9 0.0903447
5 *181:9 gpio_slow_sel[4] 0
6 *181:9 *182:9 0
7 *181:11 *202:11 0.00515898
8 *181:11 *202:25 0.00160988
9 *181:11 *215:13 0
10 *181:11 *288:11 0.00121966
11 *181:11 *307:11 0.020516
12 *181:11 *326:11 0.000935226
13 *181:11 *375:51 0.000333621
14 *181:11 *481:11 0.00170146
15 *181:11 *535:121 0.0101764
16 gpio_analog_en[4] *181:9 0.00112569
17 gpio_analog_pol[5] *181:11 0.000336894
18 *94:11 *181:11 6.84295e-05
19 *94:17 *181:9 8.34876e-05
20 *104:11 *181:11 0.00270595
21 *104:19 *181:11 0.000105741
22 *113:11 *181:11 0.00350865
23 *113:19 *181:11 0.0216737
24 *129:11 *181:11 0
25 *133:11 *181:11 0.0135337
26 *136:11 *181:11 0
27 *137:11 *181:11 0.217516
28 *161:13 *181:11 0.00556915
29 *166:11 *181:11 0.000533045
30 *171:13 *181:11 0
31 *174:11 *181:11 0.00149248
32 *176:11 *181:11 0
*RES
1 *921:gpio_analog_sel[13] *181:9 21.7144 
2 *181:9 *181:11 547.9 
3 *181:11 gpio_analog_sel[13] 18.7119 
*END

*D_NET *182 0.630051
*CONN
*P gpio_analog_sel[14] O
*I *921:gpio_analog_sel[14] O *D CF_CARAVEL_SOC
*CAP
1 gpio_analog_sel[14] 0.00353464
2 *921:gpio_analog_sel[14] 0.00499367
3 *182:19 0.0558029
4 *182:17 0.0526812
5 *182:11 0.0052784
6 *182:9 0.00985916
7 gpio_analog_sel[14] gpio_dm2[14] 0.00374664
8 gpio_analog_sel[14] *358:23 0
9 *182:9 *183:9 0
10 *182:11 *203:11 0.0104052
11 *182:11 *315:11 0.00221846
12 *182:11 *321:11 0.00122575
13 *182:17 gpio_inp_dis[5] 0.000197039
14 *182:19 *202:25 0.000521056
15 *182:19 *312:19 0.18397
16 *182:19 *535:121 0.256612
17 gpio_analog_en[4] *182:9 0.00102647
18 gpio_analog_en[5] *182:17 0
19 *112:11 *182:11 0.000887379
20 *113:19 *182:19 0.000346923
21 *128:11 *182:11 0.00452223
22 *129:11 *182:11 0.0186011
23 *136:9 *182:17 3.57554e-05
24 *136:11 *182:19 0.00521808
25 *137:9 *182:17 6.03018e-05
26 *161:13 *182:19 0.00227807
27 *176:11 *182:19 0.00602766
28 *181:9 *182:9 0
*RES
1 *921:gpio_analog_sel[14] *182:9 20.1688 
2 *182:9 *182:11 43.2133 
3 *182:11 *182:17 17.0435 
4 *182:17 *182:19 3260.28 
5 *182:19 gpio_analog_sel[14] 18.6204 
*END

*D_NET *183 0.411541
*CONN
*P gpio_analog_sel[15] O
*I *921:gpio_analog_sel[15] O *D CF_CARAVEL_SOC
*CAP
1 gpio_analog_sel[15] 8.48806e-05
2 *921:gpio_analog_sel[15] 0.00757974
3 *183:19 0.140258
4 *183:17 0.140173
5 *183:15 0.0103525
6 *183:11 0.0270326
7 *183:9 0.0242598
8 gpio_analog_sel[15] gpio_dm2[15] 0
9 *183:9 gpio_dm0[4] 0.00114707
10 *183:9 *184:9 0
11 *183:11 *201:11 0.0352177
12 *183:11 *269:11 0
13 *183:11 *273:11 0.00343559
14 *183:15 *202:25 1.91847e-05
15 *183:15 *288:65 1.46527e-05
16 *183:15 *692:11 0
17 *183:15 *694:6 0.000377966
18 *183:15 *699:6 0.00584568
19 *183:15 *700:6 0.0122014
20 *183:19 *315:27 0
21 gpio_analog_pol[4] *183:9 0
22 *97:15 *183:15 0.0012783
23 *107:15 *183:15 0.000420632
24 *112:15 *183:15 0.000268925
25 *139:17 *183:15 0.00074795
26 *161:15 *183:15 0
27 *162:15 *183:15 0.000824505
28 *182:9 *183:9 0
*RES
1 *921:gpio_analog_sel[15] *183:9 25.3637 
2 *183:9 *183:11 544.558 
3 *183:11 *183:15 42.6603 
4 *183:15 *183:17 8 
5 *183:17 *183:19 3124.36 
6 *183:19 gpio_analog_sel[15] 1.86429 
*END

*D_NET *184 0.54968
*CONN
*P gpio_analog_sel[16] O
*I *921:gpio_analog_sel[16] O *D CF_CARAVEL_SOC
*CAP
1 gpio_analog_sel[16] 0.137289
2 *921:gpio_analog_sel[16] 0.00721622
3 *184:17 0.137289
4 *184:15 0.0117386
5 *184:13 0.0117386
6 *184:11 0.00861121
7 *184:9 0.0158274
8 gpio_analog_sel[16] gpio_dm2[16] 0
9 *184:9 gpio_inp_dis[4] 0.00477802
10 *184:9 *185:9 0
11 *184:11 *198:11 0.0360425
12 *184:11 *229:11 0.00169177
13 *184:11 *281:11 0.0431369
14 *184:11 *375:35 0.000675506
15 *184:15 *272:15 0.0560225
16 *184:15 *281:15 0.00438424
17 *184:15 *286:15 0
18 gpio_analog_pol[4] *184:9 0.003522
19 *98:15 *184:15 0.00230431
20 *101:15 *184:15 8.06804e-06
21 *104:31 *184:15 0.000172095
22 *114:23 *184:15 0.00984663
23 *142:15 *184:15 0.057385
24 *183:9 *184:9 0
*RES
1 *921:gpio_analog_sel[16] *184:9 27.8539 
2 *184:9 *184:11 556.003 
3 *184:11 *184:13 15 
4 *184:13 *184:15 733.369 
5 *184:15 *184:17 15 
6 *184:17 gpio_analog_sel[16] 3109.32 
*END

*D_NET *185 0.494441
*CONN
*P gpio_analog_sel[17] O
*I *921:gpio_analog_sel[17] O *D CF_CARAVEL_SOC
*CAP
1 gpio_analog_sel[17] 0.121172
2 *921:gpio_analog_sel[17] 0.00102763
3 *185:17 0.121172
4 *185:15 0.0297457
5 *185:13 0.0297457
6 *185:11 0.0188921
7 *185:9 0.0199198
8 gpio_analog_sel[17] gpio_dm2[17] 0
9 gpio_analog_sel[17] *538:315 0.0317112
10 *185:9 *186:9 0
11 *185:11 *186:11 0.023068
12 *185:11 *192:11 0.000236054
13 *185:11 *212:19 0.00227632
14 *185:11 *228:11 0.00565315
15 *185:11 *240:11 0
16 *185:11 *274:19 0.0017438
17 *143:15 *185:15 0.0879404
18 *145:15 *185:15 0
19 *170:19 *185:11 0.000136683
20 *184:9 *185:9 0
*RES
1 *921:gpio_analog_sel[17] *185:9 10.6357 
2 *185:9 *185:11 598.084 
3 *185:11 *185:13 8 
4 *185:13 *185:15 162.859 
5 *185:15 *185:17 8 
6 *185:17 gpio_analog_sel[17] 3060.19 
*END

*D_NET *186 0.509399
*CONN
*P gpio_analog_sel[18] O
*I *921:gpio_analog_sel[18] O *D CF_CARAVEL_SOC
*CAP
1 gpio_analog_sel[18] 0.135856
2 *921:gpio_analog_sel[18] 0.000993243
3 *186:17 0.135856
4 *186:15 0.0689326
5 *186:13 0.0689326
6 *186:11 0.0100953
7 *186:9 0.0110885
8 gpio_analog_sel[18] gpio_dm2[18] 0
9 *186:9 *187:9 0
10 *186:11 *187:11 0.0472024
11 *186:11 *192:11 0.00521059
12 *186:11 *212:19 0.00177409
13 *186:11 *228:11 0.000173264
14 *186:11 *240:11 0
15 *186:11 *275:11 0
16 *186:15 *187:15 0
17 *186:15 *274:143 0.000125699
18 *186:15 *330:25 0
19 *150:25 *186:15 8.94691e-05
20 *185:9 *186:9 0
21 *185:11 *186:11 0.023068
*RES
1 *921:gpio_analog_sel[18] *186:9 10.5909 
2 *186:9 *186:11 612.169 
3 *186:11 *186:13 8 
4 *186:13 *186:15 245.721 
5 *186:15 *186:17 8 
6 *186:17 gpio_analog_sel[18] 3039.77 
*END

*D_NET *187 0.582664
*CONN
*P gpio_analog_sel[19] O
*I *921:gpio_analog_sel[19] O *D CF_CARAVEL_SOC
*CAP
1 gpio_analog_sel[19] 0.133647
2 *921:gpio_analog_sel[19] 0.00106747
3 *187:17 0.133647
4 *187:15 0.0933836
5 *187:13 0.0933836
6 *187:11 0.00833005
7 *187:9 0.00939751
8 gpio_analog_sel[19] gpio_dm2[19] 0
9 *187:9 *189:9 0
10 *187:9 *334:6 0.000227734
11 *187:11 *189:11 0.0473092
12 *187:11 *192:11 0.00607109
13 *187:11 *228:11 0.000157373
14 *187:11 *240:11 0
15 *187:11 *275:11 0
16 *187:15 *274:143 0.000125699
17 *187:15 *319:15 0
18 *187:15 *538:161 0.00871396
19 *186:9 *187:9 0
20 *186:11 *187:11 0.0472024
21 *186:15 *187:15 0
*RES
1 *921:gpio_analog_sel[19] *187:9 10.7589 
2 *187:9 *187:11 612.169 
3 *187:11 *187:13 8 
4 *187:13 *187:15 340.689 
5 *187:15 *187:17 8 
6 *187:17 gpio_analog_sel[19] 3032.73 
*END

*D_NET *188 0.135386
*CONN
*P gpio_analog_sel[1] O
*I *921:gpio_analog_sel[1] O *D CF_CARAVEL_SOC
*CAP
1 gpio_analog_sel[1] 0.00541222
2 *921:gpio_analog_sel[1] 0.00505149
3 *188:11 0.0134671
4 *188:9 0.0131063
5 gpio_analog_sel[1] gpio_dm2[1] 0.00223173
6 gpio_analog_sel[1] gpio_holdover[1] 0.000399354
7 gpio_analog_sel[1] *283:9 0.00014566
8 *188:9 *199:9 0
9 *188:11 *243:11 0.000645111
10 *188:11 *287:11 0.0153278
11 *188:11 *304:11 0.0467262
12 *188:11 *484:11 0.000171422
13 *111:15 *188:11 0
14 *131:11 *188:11 0.00291411
15 *155:11 *188:11 0.0297872
16 *177:9 *188:9 0
*RES
1 *921:gpio_analog_sel[1] *188:9 19.4819 
2 *188:9 *188:11 107.442 
3 *188:11 gpio_analog_sel[1] 21.118 
*END

*D_NET *189 0.635258
*CONN
*P gpio_analog_sel[20] O
*I *921:gpio_analog_sel[20] O *D CF_CARAVEL_SOC
*CAP
1 gpio_analog_sel[20] 0.000134032
2 *921:gpio_analog_sel[20] 0.00094692
3 *189:19 0.121988
4 *189:17 0.121854
5 *189:15 0.108299
6 *189:13 0.108299
7 *189:11 0.00852792
8 *189:9 0.00947484
9 gpio_analog_sel[20] gpio_dm2[20] 0
10 gpio_analog_sel[20] *321:71 0
11 *189:9 *190:9 0.000228778
12 *189:9 *334:6 0.000227734
13 *189:11 *190:11 0.000271422
14 *189:11 *191:11 0.047699
15 *189:11 *192:11 0.00629079
16 *189:11 *240:11 0
17 *189:11 *275:11 7.48354e-05
18 *189:15 *231:15 0
19 *189:15 *538:169 0
20 *189:19 *321:71 0
21 *189:19 *722:9 0.053437
22 *140:93 *189:15 0.000193707
23 *187:9 *189:9 0
24 *187:11 *189:11 0.0473092
*RES
1 *921:gpio_analog_sel[20] *189:9 10.6731 
2 *189:9 *189:11 621.325 
3 *189:11 *189:13 8 
4 *189:13 *189:15 388.689 
5 *189:15 *189:17 8 
6 *189:17 *189:19 3016.6 
7 *189:19 gpio_analog_sel[20] 1.86429 
*END

*D_NET *190 0.657173
*CONN
*P gpio_analog_sel[21] O
*I *921:gpio_analog_sel[21] O *D CF_CARAVEL_SOC
*CAP
1 gpio_analog_sel[21] 0.000134032
2 *921:gpio_analog_sel[21] 0.000820254
3 *190:19 0.115005
4 *190:17 0.114871
5 *190:15 0.121703
6 *190:13 0.121703
7 *190:11 0.0139921
8 *190:9 0.0148124
9 gpio_analog_sel[21] gpio_dm2[21] 0
10 *190:9 gpio_vtrip_sel[4] 0
11 *190:9 *191:9 0
12 *190:11 *191:11 0.0803389
13 *190:11 *194:35 0.00950946
14 *190:11 *200:11 0.0201541
15 *190:11 *275:11 0.042653
16 *190:11 *285:11 0.000975715
17 *190:15 *191:15 0
18 *190:19 gpio_dm2[21] 0
19 *190:19 *669:7 0
20 *189:9 *190:9 0.000228778
21 *189:11 *190:11 0.000271422
*RES
1 *921:gpio_analog_sel[21] *190:9 9.9936 
2 *190:9 *190:11 1032.63 
3 *190:11 *190:13 8 
4 *190:13 *190:15 436.516 
5 *190:15 *190:17 8 
6 *190:17 *190:19 2602.48 
7 *190:19 gpio_analog_sel[21] 1.86429 
*END

*D_NET *191 0.749275
*CONN
*P gpio_analog_sel[22] O
*I *921:gpio_analog_sel[22] O *D CF_CARAVEL_SOC
*CAP
1 gpio_analog_sel[22] 0.0898492
2 *921:gpio_analog_sel[22] 0.000927148
3 *191:17 0.0898492
4 *191:15 0.134911
5 *191:13 0.134911
6 *191:11 0.0196979
7 *191:9 0.020625
8 gpio_analog_sel[22] gpio_dm2[22] 0
9 gpio_analog_sel[22] *539:431 0
10 gpio_analog_sel[22] *708:7 0.118469
11 *191:9 gpio_vtrip_sel[4] 0.000281183
12 *191:9 *192:9 0
13 *191:11 *192:11 0.0110019
14 *191:11 *200:11 0.0001977
15 *191:11 *240:11 0
16 *191:15 *234:15 0
17 *191:15 *538:239 0.000311251
18 *140:109 *191:15 0.000205029
19 *189:11 *191:11 0.047699
20 *190:9 *191:9 0
21 *190:11 *191:11 0.0803389
22 *190:15 *191:15 0
*RES
1 *921:gpio_analog_sel[22] *191:9 10.3333 
2 *191:9 *191:11 1032.63 
3 *191:11 *191:13 8 
4 *191:13 *191:15 484.602 
5 *191:15 *191:17 8 
6 *191:17 gpio_analog_sel[22] 2596.77 
*END

*D_NET *192 0.694852
*CONN
*P gpio_analog_sel[23] O
*I *921:gpio_analog_sel[23] O *D CF_CARAVEL_SOC
*CAP
1 gpio_analog_sel[23] 0.00229409
2 *921:gpio_analog_sel[23] 0.00117109
3 *192:19 0.101935
4 *192:17 0.099641
5 *192:15 0.148494
6 *192:13 0.148494
7 *192:11 0.0386745
8 *192:9 0.0398456
9 gpio_analog_sel[23] gpio_dm2[23] 0
10 *192:9 *193:7 5.82642e-05
11 *192:9 *334:6 0.000227734
12 *192:11 *194:35 0.0482058
13 *192:11 *205:21 0.000118562
14 *192:11 *228:11 0.0225431
15 *192:11 *237:19 0.00736855
16 *192:11 *285:11 0.00635447
17 *192:15 *713:11 0
18 *192:19 *322:375 0.000615693
19 *192:19 *324:19 0
20 *192:19 *722:17 0
21 *185:11 *192:11 0.000236054
22 *186:11 *192:11 0.00521059
23 *187:11 *192:11 0.00607109
24 *189:11 *192:11 0.00629079
25 *191:9 *192:9 0
26 *191:11 *192:11 0.0110019
*RES
1 *921:gpio_analog_sel[23] *192:9 10.716 
2 *192:9 *192:11 235.137 
3 *192:11 *192:13 8 
4 *192:13 *192:15 532.73 
5 *192:15 *192:17 8 
6 *192:17 *192:19 2269.42 
7 *192:19 gpio_analog_sel[23] 49.8489 
*END

*D_NET *193 0.973336
*CONN
*P gpio_analog_sel[24] O
*I *921:gpio_analog_sel[24] O *D CF_CARAVEL_SOC
*CAP
1 gpio_analog_sel[24] 0.000320906
2 *921:gpio_analog_sel[24] 0.000173396
3 *193:63 0.0847331
4 *193:61 0.088251
5 *193:57 0.0147542
6 *193:37 0.137587
7 *193:35 0.126672
8 *193:33 0.00331816
9 *193:31 0.00506462
10 *193:17 0.00239056
11 *193:15 0.000892812
12 *193:9 0.00724745
13 *193:7 0.00717213
14 gpio_analog_sel[24] gpio_dm2[24] 0
15 gpio_analog_sel[24] gpio_inp_dis[24] 0
16 gpio_analog_sel[24] *237:23 1.17413e-05
17 *193:9 *204:9 0.00557448
18 *193:9 *211:9 0.00704274
19 *193:15 *334:26 5.10636e-05
20 *193:17 *205:21 0.000438596
21 *193:31 *197:11 0.00036021
22 *193:31 *205:21 0.000256778
23 *193:31 *285:11 0.00426593
24 *193:37 *205:53 0.124799
25 *193:37 *705:35 0.0805743
26 *193:57 *203:15 0.000414125
27 *193:57 *205:53 0.00031092
28 *193:57 *286:31 0.00231358
29 *193:57 *322:317 0
30 *193:57 *392:23 0.00017401
31 *193:57 *407:17 0.000101554
32 *193:57 *407:19 0.000393226
33 *193:57 *689:11 0.000517264
34 *193:57 *691:11 5.10545e-05
35 *193:57 *705:23 0.000104046
36 *193:57 *764:21 0.000350108
37 *193:57 *832:39 0.000357835
38 *193:61 *691:11 0.000842496
39 *193:61 *782:15 0
40 *193:63 *197:21 0
41 *193:63 *286:41 0.0911509
42 *193:63 *325:167 0
43 *193:63 *459:11 0.000397165
44 *193:63 *459:13 0.144578
45 *193:63 *466:11 0
46 *193:63 *809:19 0.00113853
47 *104:31 *193:37 0
48 *109:11 *193:9 0
49 *117:39 *193:57 0.000152199
50 *117:39 *193:61 0
51 *140:27 *193:33 0.000704481
52 *142:11 *193:9 0
53 *142:11 *193:33 0.0138697
54 *143:11 *193:9 9.53128e-05
55 *145:9 *193:15 0.000115353
56 *145:11 *193:9 2.79482e-05
57 *148:9 *193:31 0
58 *149:27 *193:31 0.00151431
59 *149:35 *193:33 0.00461508
60 *149:43 *193:63 0
61 *152:9 *193:31 0
62 *153:19 *193:31 8.25419e-05
63 *156:11 *193:33 0.00150747
64 *164:13 *193:31 2.55744e-05
65 *164:15 *193:9 0
66 *164:15 *193:17 0.00187137
67 *165:9 *193:31 0
68 *167:15 *193:17 0.00355021
69 *192:9 *193:7 5.82642e-05
*RES
1 *921:gpio_analog_sel[24] *193:7 8.50027 
2 *193:7 *193:9 227.277 
3 *193:9 *193:15 16.6571 
4 *193:15 *193:17 45.2193 
5 *193:17 *193:31 42.8416 
6 *193:31 *193:33 178.505 
7 *193:33 *193:35 15 
8 *193:35 *193:37 3006.41 
9 *193:37 *193:57 46.0883 
10 *193:57 *193:61 15.9128 
11 *193:61 *193:63 2927.16 
12 *193:63 gpio_analog_sel[24] 8.8036 
*END

*D_NET *194 0.689506
*CONN
*P gpio_analog_sel[25] O
*I *921:gpio_analog_sel[25] O *D CF_CARAVEL_SOC
*CAP
1 gpio_analog_sel[25] 1.67811e-05
2 *921:gpio_analog_sel[25] 0.00030725
3 *194:39 0.160055
4 *194:37 0.160038
5 *194:35 0.0685669
6 *194:33 0.0692982
7 *194:27 0.00418839
8 *194:11 0.00422984
9 *194:9 0.00107995
10 *194:9 *195:9 1.46507e-05
11 *194:9 *334:6 0.000227734
12 *194:11 *197:9 0.000120707
13 *194:11 *200:9 0.000120707
14 *194:11 *274:27 0.00335858
15 *194:11 *327:19 0.00473729
16 *194:11 *328:11 0.00075474
17 *194:27 *207:9 0
18 *194:27 *208:7 3.31108e-06
19 *194:27 *208:9 0.000112199
20 *194:27 *209:11 0
21 *194:27 *212:9 0.000364411
22 *194:27 *213:9 0.000364411
23 *194:27 *214:9 0.000210019
24 *194:27 *327:19 0.000391268
25 *194:27 *328:11 0.000565721
26 *194:27 *334:6 0.00726729
27 *194:33 *831:81 0
28 *194:35 *205:21 0.000159265
29 *194:35 *237:19 0
30 *194:35 *275:11 0.00358489
31 *194:35 *285:11 0.13342
32 *194:39 gpio_dm2[25] 0
33 *194:39 *274:267 0
34 *194:39 *326:35 0
35 *109:21 *194:27 0.00818283
36 *139:9 *194:33 0
37 *140:13 *194:33 4.93791e-05
38 *141:9 *194:33 0
39 *190:11 *194:35 0.00950946
40 *192:11 *194:35 0.0482058
*RES
1 *921:gpio_analog_sel[25] *194:9 8.69813 
2 *194:9 *194:11 60.7343 
3 *194:11 *194:27 47.2022 
4 *194:27 *194:33 17.6016 
5 *194:33 *194:35 424.14 
6 *194:35 *194:37 8 
7 *194:37 *194:39 569.582 
8 *194:39 gpio_analog_sel[25] 0.0644 
*END

*D_NET *195 0.861164
*CONN
*P gpio_analog_sel[26] O
*I *921:gpio_analog_sel[26] O *D CF_CARAVEL_SOC
*CAP
1 gpio_analog_sel[26] 0.00320833
2 *921:gpio_analog_sel[26] 0.0074344
3 *195:35 0.102014
4 *195:33 0.0988057
5 *195:31 0.0531428
6 *195:29 0.0538706
7 *195:15 0.00594007
8 *195:13 0.00521231
9 *195:11 0.00766856
10 *195:9 0.015103
11 gpio_analog_sel[26] *327:67 0.000624575
12 *195:9 *196:9 0
13 *195:11 *263:11 0.00171244
14 *195:11 *277:11 0.000260802
15 *195:11 *692:15 0.0369124
16 *195:11 *787:27 0.00670734
17 *195:15 *196:15 0.000165886
18 *195:15 *437:31 0
19 *195:29 *198:25 9.22387e-05
20 *195:29 *198:27 6.99019e-05
21 *195:29 *205:53 4.62763e-05
22 *195:31 *196:27 0.000885661
23 *195:31 *198:27 0.0507265
24 *195:31 *281:27 0.0283438
25 *195:31 *753:19 0.00853335
26 *195:31 *754:27 0.0161637
27 *195:35 *327:67 0.305388
28 *97:15 *195:15 0.00387284
29 *107:15 *195:15 1.21972e-05
30 *112:15 *195:15 0.000702127
31 *116:53 *195:29 9.81985e-05
32 *117:35 *195:29 0
33 *117:39 *195:29 5.10545e-05
34 *140:71 *195:15 0
35 *140:75 *195:29 0
36 *151:13 gpio_analog_sel[26] 0
37 *157:39 *195:29 6.24189e-06
38 *157:39 *195:31 0.0224449
39 *165:11 *195:11 0.0249297
40 *194:9 *195:9 1.46507e-05
*RES
1 *921:gpio_analog_sel[26] *195:9 24.1616 
2 *195:9 *195:11 483.461 
3 *195:11 *195:13 15 
4 *195:13 *195:15 102.101 
5 *195:15 *195:29 41.3385 
6 *195:29 *195:31 328.686 
7 *195:31 *195:33 8 
8 *195:33 *195:35 558.876 
9 *195:35 gpio_analog_sel[26] 7.3948 
*END

*D_NET *196 0.90926
*CONN
*P gpio_analog_sel[27] O
*I *921:gpio_analog_sel[27] O *D CF_CARAVEL_SOC
*CAP
1 gpio_analog_sel[27] 0.00155339
2 *921:gpio_analog_sel[27] 0.00882765
3 *196:31 0.102191
4 *196:29 0.100637
5 *196:27 0.0236187
6 *196:25 0.0238814
7 *196:15 0.00378528
8 *196:13 0.00352257
9 *196:11 0.00878917
10 *196:9 0.0176168
11 gpio_analog_sel[27] *328:65 0.00176071
12 gpio_analog_sel[27] *410:11 2.95428e-05
13 gpio_analog_sel[27] *811:11 5.35241e-05
14 *196:11 *206:35 0.00110524
15 *196:11 *230:11 0.00680588
16 *196:11 *283:11 0.000230535
17 *196:11 *337:27 0.0116961
18 *196:11 *698:15 0.0364432
19 *196:15 *198:15 0.0101475
20 *196:25 *198:25 7.93588e-05
21 *196:25 *392:35 0.000138242
22 *196:27 *198:27 0.0903706
23 *196:27 *242:27 0.0908019
24 *196:27 *281:27 0.0328941
25 *196:27 *326:31 0.0187536
26 *196:27 *831:41 0.00037317
27 *196:31 *240:15 0
28 *196:31 *328:65 0.30506
29 *95:17 *196:25 9.4972e-05
30 *112:15 *196:15 0.00685584
31 *116:53 *196:25 9.14695e-05
32 *158:22 *196:27 0
33 *195:9 *196:9 0
34 *195:15 *196:15 0.000165886
35 *195:31 *196:27 0.000885661
*RES
1 *921:gpio_analog_sel[27] *196:9 26.6517 
2 *196:9 *196:11 476.066 
3 *196:11 *196:13 15 
4 *196:13 *196:15 113.535 
5 *196:15 *196:25 35.7316 
6 *196:25 *196:27 289.972 
7 *196:27 *196:29 8 
8 *196:29 *196:31 562.268 
9 *196:31 gpio_analog_sel[27] 21.5529 
*END

*D_NET *197 0.561397
*CONN
*P gpio_analog_sel[28] O
*I *921:gpio_analog_sel[28] O *D CF_CARAVEL_SOC
*CAP
1 gpio_analog_sel[28] 0.000572647
2 *921:gpio_analog_sel[28] 0.000902147
3 *197:21 0.00160904
4 *197:15 0.161597
5 *197:13 0.160561
6 *197:11 0.0574323
7 *197:9 0.0583344
8 gpio_analog_sel[28] gpio_dm2[28] 0
9 *197:9 *198:9 0.000172103
10 *197:9 *274:27 0.000142505
11 *197:9 *334:6 0.000227734
12 *197:11 *200:11 0.0378247
13 *197:11 *206:27 4.18025e-05
14 *197:11 *214:11 0.000763562
15 *197:11 *227:11 0.0377581
16 *197:11 *274:51 0.00142993
17 *197:11 *285:11 0.0237942
18 *197:11 *831:83 0.01428
19 *197:15 gpio_oeb[28] 0
20 *197:15 *322:375 0.000303059
21 *197:15 *538:289 0.000608486
22 *197:15 *681:21 0
23 *197:21 *325:167 0.00256187
24 *140:265 *197:15 0
25 *149:35 *197:11 0
26 *167:13 *197:11 0
27 *167:15 *197:11 0
28 *193:31 *197:11 0.00036021
29 *193:63 *197:21 0
30 *194:11 *197:9 0.000120707
*RES
1 *921:gpio_analog_sel[28] *197:9 10.1579 
2 *197:9 *197:11 1826.36 
3 *197:11 *197:13 8 
4 *197:13 *197:15 568.322 
5 *197:15 *197:21 49.2464 
6 *197:21 gpio_analog_sel[28] 1.30013 
*END

*D_NET *198 0.672839
*CONN
*P gpio_analog_sel[29] O
*I *921:gpio_analog_sel[29] O *D CF_CARAVEL_SOC
*CAP
1 gpio_analog_sel[29] 0.0017116
2 *921:gpio_analog_sel[29] 0.0094311
3 *198:31 0.14412
4 *198:29 0.142409
5 *198:27 0.0190821
6 *198:25 0.0193699
7 *198:15 0.00427103
8 *198:13 0.00398323
9 *198:11 0.00771629
10 *198:9 0.0171474
11 gpio_analog_sel[29] *330:33 0.000295865
12 gpio_analog_sel[29] *447:17 0
13 gpio_analog_sel[29] *548:23 0.000277438
14 *198:11 *229:11 0.0112622
15 *198:11 *375:35 0.0132368
16 *198:15 *436:23 0.00023236
17 *198:25 *392:35 0
18 *198:25 *744:11 9.57706e-06
19 *198:31 gpio_holdover[29] 0.00175199
20 *198:31 *330:33 0.0816131
21 *198:31 *726:21 0
22 *95:17 *198:25 4.93913e-05
23 *112:15 *198:15 7.19639e-05
24 *116:53 *198:25 2.55744e-05
25 *140:229 *198:31 0
26 *157:39 *198:27 0
27 *162:15 *198:15 0.00707055
28 *184:11 *198:11 0.0360425
29 *195:29 *198:25 9.22387e-05
30 *195:29 *198:27 6.99019e-05
31 *195:31 *198:27 0.0507265
32 *196:15 *198:15 0.0101475
33 *196:25 *198:25 7.93588e-05
34 *196:27 *198:27 0.0903706
35 *197:9 *198:9 0.000172103
*RES
1 *921:gpio_analog_sel[29] *198:9 27.9397 
2 *198:9 *198:11 464.445 
3 *198:11 *198:13 15 
4 *198:13 *198:15 122.111 
5 *198:15 *198:25 35.9979 
6 *198:25 *198:27 208.861 
7 *198:27 *198:29 8 
8 *198:29 *198:31 562.526 
9 *198:31 gpio_analog_sel[29] 23.326 
*END

*D_NET *199 0.070264
*CONN
*P gpio_analog_sel[2] O
*I *921:gpio_analog_sel[2] O *D CF_CARAVEL_SOC
*CAP
1 gpio_analog_sel[2] 0.00388966
2 *921:gpio_analog_sel[2] 0.00658215
3 *199:11 0.0233607
4 *199:9 0.0260532
5 gpio_analog_sel[2] gpio_dm2[2] 0.00115369
6 gpio_analog_sel[2] *267:21 0
7 *199:9 *210:9 0
8 *199:11 *242:11 0.000865592
9 *199:11 *298:11 0.00195433
10 *199:11 *303:11 0
11 *199:11 *337:11 0.00406395
12 *114:11 *199:11 0.000952997
13 *166:11 *199:11 0.0013878
14 *188:9 *199:9 0
*RES
1 *921:gpio_analog_sel[2] *199:9 22.9165 
2 *199:9 *199:11 67.2037 
3 *199:11 gpio_analog_sel[2] 16.8247 
*END

*D_NET *200 0.531409
*CONN
*P gpio_analog_sel[30] O
*I *921:gpio_analog_sel[30] O *D CF_CARAVEL_SOC
*CAP
1 gpio_analog_sel[30] 0.000686937
2 *921:gpio_analog_sel[30] 0.00097585
3 *200:15 0.16268
4 *200:13 0.161993
5 *200:11 0.0267166
6 *200:9 0.0276924
7 gpio_analog_sel[30] *332:25 3.18008e-05
8 gpio_analog_sel[30] *459:13 0.00120481
9 *200:9 *201:9 0.000190339
10 *200:9 *274:27 0.000142505
11 *200:9 *334:6 0.000227734
12 *200:11 *227:11 0.0368774
13 *200:11 *275:11 0.0384659
14 *200:11 *285:11 0.0152272
15 *200:15 gpio_vtrip_sel[30] 0
16 *200:15 *728:21 0
17 *190:11 *200:11 0.0201541
18 *191:11 *200:11 0.0001977
19 *194:11 *200:9 0.000120707
20 *197:11 *200:11 0.0378247
*RES
1 *921:gpio_analog_sel[30] *200:9 10.3296 
2 *200:9 *200:11 1386.18 
3 *200:11 *200:13 8 
4 *200:13 *200:15 569.094 
5 *200:15 gpio_analog_sel[30] 32.1478 
*END

*D_NET *201 0.502835
*CONN
*P gpio_analog_sel[31] O
*I *921:gpio_analog_sel[31] O *D CF_CARAVEL_SOC
*CAP
1 gpio_analog_sel[31] 0.000111488
2 *921:gpio_analog_sel[31] 0.0080297
3 *201:15 0.168665
4 *201:13 0.168553
5 *201:11 0.0381942
6 *201:9 0.0462239
7 *201:9 *202:9 0
8 *201:11 *218:11 0
9 *201:11 *269:11 0
10 *201:11 *273:11 0.03765
11 *201:15 gpio_dm2[31] 0
12 *201:15 gpio_holdover[31] 0
13 *201:15 *770:17 0
14 *183:11 *201:11 0.0352177
15 *200:9 *201:9 0.000190339
*RES
1 *921:gpio_analog_sel[31] *201:9 25.2779 
2 *201:9 *201:11 1173.48 
3 *201:11 *201:13 8 
4 *201:13 *201:15 584.995 
5 *201:15 gpio_analog_sel[31] 0.3332 
*END

*D_NET *202 0.651927
*CONN
*P gpio_analog_sel[32] O
*I *921:gpio_analog_sel[32] O *D CF_CARAVEL_SOC
*CAP
1 gpio_analog_sel[32] 0.00175954
2 *921:gpio_analog_sel[32] 0.00621857
3 *202:27 0.0988426
4 *202:25 0.0995949
5 *202:11 0.00943035
6 *202:9 0.0131372
7 gpio_analog_sel[32] *334:44 0.000412169
8 gpio_analog_sel[32] *447:17 0
9 gpio_analog_sel[32] *548:23 0.000277445
10 *202:9 *203:9 0
11 *202:11 *307:11 0.0102613
12 *202:25 *312:19 0.000454367
13 *202:25 *535:121 0.000521056
14 *202:25 *692:11 3.1036e-05
15 *202:27 *316:15 0.011531
16 *202:27 *334:36 0.0670923
17 *202:27 *334:44 0.000124629
18 *202:27 *361:33 0.00912494
19 *202:27 *681:15 0.000548002
20 *202:27 *685:15 0.000831972
21 *202:27 *723:15 0.00271444
22 *202:27 *725:13 0.0010371
23 *202:27 *726:15 0
24 *202:27 *728:15 0.00296175
25 *202:27 *729:15 0.00139991
26 *202:27 *730:19 0
27 *202:27 *753:15 0.0363764
28 *202:27 *754:23 0.0422172
29 *202:27 *757:15 0.00363859
30 *202:27 *759:15 0.0131998
31 *202:27 *761:15 0.0978743
32 *202:27 *873:61 0.0687342
33 *104:11 *202:11 0.00639304
34 *104:27 *202:25 0.000129945
35 *113:11 *202:11 0.0349372
36 *113:11 *202:25 0.000359774
37 *113:19 *202:25 2.13985e-05
38 *161:15 *202:25 1.08929e-05
39 *176:11 *202:25 0.0024187
40 *181:11 *202:11 0.00515898
41 *181:11 *202:25 0.00160988
42 *182:19 *202:25 0.000521056
43 *183:15 *202:25 1.91847e-05
44 *201:9 *202:9 0
*RES
1 *921:gpio_analog_sel[32] *202:9 21.5856 
2 *202:9 *202:11 445.254 
3 *202:11 *202:25 35.1907 
4 *202:25 *202:27 577.638 
5 *202:27 gpio_analog_sel[32] 23.2588 
*END

*D_NET *203 0.898805
*CONN
*P gpio_analog_sel[33] O
*I *921:gpio_analog_sel[33] O *D CF_CARAVEL_SOC
*CAP
1 gpio_analog_sel[33] 0.00787121
2 *921:gpio_analog_sel[33] 0.00593503
3 *203:21 0.0135232
4 *203:15 0.0501904
5 *203:13 0.0445385
6 *203:11 0.0102226
7 *203:9 0.0161576
8 gpio_analog_sel[33] gpio_dm2[33] 0
9 gpio_analog_sel[33] *472:25 0.000624743
10 gpio_analog_sel[33] *737:39 0.000153901
11 *203:9 *204:7 0
12 *203:11 *225:19 0.00430213
13 *203:11 *274:89 0.000154405
14 *203:11 *315:11 0.000637361
15 *203:11 *321:11 0.000126798
16 *203:15 *205:53 0.000364275
17 *203:15 *246:21 4.51815e-05
18 *203:15 *691:11 0.280064
19 *203:15 *705:23 0.044537
20 *203:15 *745:11 0.0137362
21 *203:15 *832:39 0.307414
22 *203:15 *832:49 0.000817541
23 *203:21 *247:19 0.00205849
24 *203:21 *363:11 0.00154215
25 *203:21 *374:11 0.0133587
26 *203:21 *376:11 0.00156004
27 *203:21 *453:25 0.00011563
28 *203:21 *458:11 0.00140071
29 *104:31 *203:15 0.00806002
30 *112:11 *203:11 0.00582825
31 *114:23 *203:15 0
32 *128:11 *203:11 0.00996803
33 *129:11 *203:11 0.0103049
34 *136:11 *203:11 0.00268802
35 *139:11 *203:11 0.0035899
36 *141:25 *203:11 0.000172841
37 *141:25 *203:15 0.0151044
38 *162:11 *203:11 0.00070172
39 *175:11 *203:11 0.0101157
40 *182:11 *203:11 0.0104052
41 *193:57 *203:15 0.000414125
42 *202:9 *203:9 0
*RES
1 *921:gpio_analog_sel[33] *203:9 19.9971 
2 *203:9 *203:11 82.1819 
3 *203:11 *203:13 8 
4 *203:13 *203:15 564.543 
5 *203:15 *203:21 47.2816 
6 *203:21 gpio_analog_sel[33] 15.8228 
*END

*D_NET *204 0.742319
*CONN
*P gpio_analog_sel[34] O
*I *921:gpio_analog_sel[34] O *D CF_CARAVEL_SOC
*CAP
1 gpio_analog_sel[34] 0.000487741
2 *921:gpio_analog_sel[34] 0.00013504
3 *204:45 0.0065948
4 *204:43 0.00610706
5 *204:41 0.00853988
6 *204:33 0.0631566
7 *204:31 0.0549301
8 *204:25 0.00122008
9 *204:21 0.00309667
10 *204:19 0.00221742
11 *204:17 0.00116041
12 *204:15 0.00147059
13 *204:9 0.00380103
14 *204:7 0.00359839
15 gpio_analog_sel[34] gpio_dm2[34] 0
16 gpio_analog_sel[34] gpio_inp_dis[34] 6.66938e-05
17 *204:7 *205:21 0
18 *204:9 *208:9 0.000219695
19 *204:9 *211:9 0.00263635
20 *204:9 *288:23 2.11066e-05
21 *204:9 *327:19 0.00574543
22 *204:9 *327:23 0.000183893
23 *204:17 *288:37 0.000238476
24 *204:17 *334:32 0.000151253
25 *204:17 *787:43 0.000792818
26 *204:17 *788:37 0.00171366
27 *204:17 *788:53 1.11421e-05
28 *204:21 *241:19 0.00172602
29 *204:21 *788:37 0.000423959
30 *204:21 *831:61 0.00146425
31 *204:25 *274:125 0.000419804
32 *204:25 *326:15 0.000774016
33 *204:25 *436:23 0
34 *204:25 *692:11 0.000130115
35 *204:31 *698:13 0
36 *204:33 *456:15 0.00273112
37 *204:33 *690:11 0.258869
38 *204:33 *693:11 0.0105517
39 *204:33 *699:6 0.0242337
40 *204:33 *731:6 0.000176174
41 *204:33 *732:6 0.00172472
42 *204:33 *733:6 0.0197833
43 *204:33 *735:11 0.000650307
44 *204:33 *736:11 0.111431
45 *204:33 *739:6 0.00360579
46 *204:33 *740:11 0.000334413
47 *204:33 *741:6 0.00432695
48 *204:41 *206:51 9.38911e-05
49 *204:41 *325:165 0.000207896
50 *204:41 *690:21 0.000385269
51 *204:41 *731:14 0
52 *204:41 *733:6 0.00485291
53 *204:41 *734:11 0.00547056
54 *204:45 *206:59 0.0009426
55 *204:45 *291:27 0.00501964
56 *204:45 *322:293 0.0168901
57 *204:45 *459:13 0.0297004
58 *97:15 *204:33 0.0165876
59 *107:15 *204:33 7.50355e-05
60 *109:21 *204:9 0.000346889
61 *109:23 *204:15 0.000100494
62 *109:23 *204:17 0.000104065
63 *109:23 *204:21 0.00215096
64 *112:15 *204:33 0.0012138
65 *116:27 *204:17 0.000852976
66 *140:13 *204:9 0.00231243
67 *140:19 *204:9 0.000537516
68 *140:19 *204:15 0.000578984
69 *140:19 *204:17 0.00119646
70 *145:11 *204:9 0
71 *146:9 *204:9 0.000223438
72 *147:11 *204:9 0.000890038
73 *147:11 *204:15 0.000448038
74 *150:19 *204:21 0.00427327
75 *151:9 *204:15 0.000249774
76 *151:9 *204:17 0.00109939
77 *151:9 *204:21 0.0120729
78 *157:11 *204:17 0.00342464
79 *162:15 *204:33 0.0125742
80 *163:31 *204:41 0
81 *163:35 *204:45 0.000215389
82 *193:9 *204:9 0.00557448
83 *203:9 *204:7 0
*RES
1 *921:gpio_analog_sel[34] *204:7 8.32853 
2 *204:7 *204:9 191.856 
3 *204:9 *204:15 15.6807 
4 *204:15 *204:17 71.9821 
5 *204:17 *204:19 0.621429 
6 *204:19 *204:21 154.208 
7 *204:21 *204:25 36.5843 
8 *204:25 *204:31 35.075 
9 *204:31 *204:33 3001.65 
10 *204:33 *204:41 47.0164 
11 *204:41 *204:43 8 
12 *204:43 *204:45 382.572 
13 *204:45 gpio_analog_sel[34] 9.2236 
*END

*D_NET *205 1.09179
*CONN
*P gpio_analog_sel[35] O
*I *921:gpio_analog_sel[35] O *D CF_CARAVEL_SOC
*CAP
1 gpio_analog_sel[35] 0.00446102
2 *921:gpio_analog_sel[35] 0.0101415
3 *205:65 0.0174459
4 *205:63 0.0149302
5 *205:57 0.00553967
6 *205:55 0.0035943
7 *205:53 0.0545251
8 *205:51 0.0545251
9 *205:49 0.00150091
10 *205:47 0.00293969
11 *205:35 0.00240828
12 *205:31 0.000969498
13 *205:29 0.0128339
14 *205:21 0.0229754
15 gpio_analog_sel[35] gpio_dm2[35] 0.000503876
16 gpio_analog_sel[35] *761:9 0
17 *205:21 *206:27 0.000547621
18 *205:21 *207:11 0.00010083
19 *205:21 *209:11 0.00100595
20 *205:21 *213:11 0.000393165
21 *205:21 *214:11 0.00343779
22 *205:21 *228:11 0.000118562
23 *205:21 *235:11 0.000118562
24 *205:21 *274:51 0.000729615
25 *205:21 *285:11 0.00731644
26 *205:21 *321:35 0.00567056
27 *205:29 *328:43 0
28 *205:29 *392:35 0.000228601
29 *205:35 *206:43 0.0036221
30 *205:35 *283:11 0.00080798
31 *205:35 *327:61 0.000430483
32 *205:47 gpio_dm2[6] 0.000137076
33 *205:47 *206:43 0.000577584
34 *205:47 *283:11 0.00106707
35 *205:47 *327:61 0.000530002
36 *205:49 *218:11 0.000753397
37 *205:49 *273:11 0
38 *205:49 *274:111 6.10551e-06
39 *205:49 *437:37 0.00295616
40 *205:49 *789:27 0.00345483
41 *205:53 *246:21 4.96824e-05
42 *205:53 *392:23 0.165889
43 *205:53 *661:15 0.000832887
44 *205:53 *672:11 9.21034e-06
45 *205:53 *683:11 0
46 *205:53 *691:11 0.000419067
47 *205:53 *705:23 0.0528474
48 *205:53 *705:35 0.0155433
49 *205:53 *765:17 0.000283106
50 *205:53 *832:37 0.00153442
51 *205:53 *832:39 0.307566
52 *205:53 *832:49 0.000544487
53 *205:57 *404:11 0.0182273
54 *205:57 *691:15 0.00076359
55 *205:57 *789:19 0.0166649
56 *205:63 *378:9 0.000189654
57 *205:65 *398:19 0.00396307
58 *205:65 *412:11 0.00290461
59 *205:65 *422:11 0.0300703
60 *205:65 *437:11 0.000546669
61 *205:65 *769:11 0
62 *205:65 *813:11 0.00482467
63 *205:65 *814:11 0.00582832
64 *109:21 *205:21 0
65 *116:45 *205:29 0.000800684
66 *117:35 *205:29 0.000153528
67 *117:39 *205:53 0.0761271
68 *141:25 *205:53 0.0118834
69 *148:9 *205:21 0.000100261
70 *158:18 *205:29 0.00140355
71 *158:22 *205:29 0.000664955
72 *167:15 *205:21 0.00135792
73 *192:11 *205:21 0.000118562
74 *193:17 *205:21 0.000438596
75 *193:31 *205:21 0.000256778
76 *193:37 *205:53 0.124799
77 *193:57 *205:53 0.00031092
78 *194:35 *205:21 0.000159265
79 *195:29 *205:53 4.62763e-05
80 *203:15 *205:53 0.000364275
81 *204:7 *205:21 0
*RES
1 *921:gpio_analog_sel[35] *205:21 49.1723 
2 *205:21 *205:29 45.207 
3 *205:29 *205:31 8 
4 *205:31 *205:35 47.415 
5 *205:35 *205:47 39.5618 
6 *205:47 *205:49 64.9393 
7 *205:49 *205:51 8 
8 *205:51 *205:53 579.484 
9 *205:53 *205:55 8 
10 *205:55 *205:57 235.376 
11 *205:57 *205:63 19.7053 
12 *205:63 *205:65 69.7424 
13 *205:65 gpio_analog_sel[35] 16.8265 
*END

*D_NET *206 1.13184
*CONN
*P gpio_analog_sel[36] O
*I *921:gpio_analog_sel[36] O *D CF_CARAVEL_SOC
*CAP
1 gpio_analog_sel[36] 0.000521128
2 *921:gpio_analog_sel[36] 0.00499925
3 *206:59 0.0120118
4 *206:57 0.0195554
5 *206:51 0.0129154
6 *206:49 0.0048507
7 *206:47 0.0451778
8 *206:45 0.0451778
9 *206:43 0.00384437
10 *206:41 0.00427209
11 *206:35 0.00204398
12 *206:33 0.00895148
13 *206:27 0.00842259
14 *206:25 0.00293299
15 *206:19 0.00308596
16 *206:17 0.00124034
17 *206:15 0.00499925
18 gpio_analog_sel[36] gpio_dm2[36] 0
19 *206:15 *207:9 0.000176898
20 *206:15 *288:23 0.000121456
21 *206:15 *321:23 0.000121456
22 *206:15 *683:15 0.000600469
23 *206:19 *314:19 0
24 *206:19 *337:19 0.00151304
25 *206:19 *351:11 0.000300664
26 *206:19 *699:10 0.00507948
27 *206:27 *274:51 0.0068445
28 *206:33 *327:29 0.00569404
29 *206:35 *230:11 0.00810324
30 *206:35 *337:27 0.00585924
31 *206:43 *230:11 0
32 *206:43 *274:119 2.22518e-05
33 *206:43 *274:121 0.00105006
34 *206:43 *283:11 0
35 *206:43 *392:53 0.000267239
36 *206:43 *436:27 0.0110497
37 *206:43 *571:39 0.000926332
38 *206:47 *228:25 0.0141704
39 *206:47 *230:21 0
40 *206:47 *247:15 0.302803
41 *206:47 *274:133 0.000694031
42 *206:47 *286:31 0.0598818
43 *206:47 *321:67 0.076318
44 *206:47 *375:31 0.307222
45 *206:51 *375:27 0.000421
46 *206:51 *454:17 0
47 *206:51 *472:27 0.0110995
48 *206:51 *541:127 0
49 *206:51 *544:25 4.84171e-05
50 *206:51 *737:17 0
51 *206:51 *737:27 0.00139371
52 *206:51 *756:6 0.00205849
53 *206:57 gpio_dm0[33] 0.00700264
54 *206:57 *390:9 0.00652478
55 *206:57 *454:23 0.000132577
56 *206:57 *543:37 0
57 *206:59 *322:293 0.0330598
58 *206:59 *459:13 0.00551045
59 gpio_analog_en[33] *206:57 0.000293021
60 gpio_analog_pol[33] *206:57 0
61 *102:11 *206:15 0.000242014
62 *110:11 *206:15 0.0016664
63 *163:35 *206:59 0.0535723
64 *167:15 *206:27 0.00697221
65 *174:9 *206:25 0.000544168
66 *175:9 *206:25 0.000544168
67 *196:11 *206:35 0.00110524
68 *197:11 *206:27 4.18025e-05
69 *204:41 *206:51 9.38911e-05
70 *204:45 *206:59 0.0009426
71 *205:21 *206:27 0.000547621
72 *205:35 *206:43 0.0036221
73 *205:47 *206:43 0.000577584
*RES
1 *921:gpio_analog_sel[36] *206:15 47.5626 
2 *206:15 *206:17 8 
3 *206:17 *206:19 64.9393 
4 *206:19 *206:25 21.0363 
5 *206:25 *206:27 88.885 
6 *206:27 *206:33 33.4869 
7 *206:33 *206:35 104.379 
8 *206:35 *206:41 16.7429 
9 *206:41 *206:43 167.765 
10 *206:43 *206:45 8 
11 *206:45 *206:47 562.74 
12 *206:47 *206:49 8 
13 *206:49 *206:51 164.244 
14 *206:51 *206:57 38.3813 
15 *206:57 *206:59 690.345 
16 *206:59 gpio_analog_sel[36] 9.30573 
*END

*D_NET *207 1.02621
*CONN
*P gpio_analog_sel[37] O
*I *921:gpio_analog_sel[37] O *D CF_CARAVEL_SOC
*CAP
1 gpio_analog_sel[37] 0.00509432
2 *921:gpio_analog_sel[37] 0.000628198
3 *207:51 0.0157656
4 *207:49 0.0121015
5 *207:39 0.0130711
6 *207:37 0.0128656
7 *207:31 0.0235571
8 *207:29 0.023291
9 *207:23 0.0103027
10 *207:21 0.00934413
11 *207:19 0.0332581
12 *207:17 0.0332581
13 *207:15 0.00292612
14 *207:13 0.00292612
15 *207:11 0.00193021
16 *207:9 0.00255841
17 gpio_analog_sel[37] gpio_dm2[37] 0.000730221
18 gpio_analog_sel[37] gpio_holdover[37] 0.000961892
19 *207:11 *209:11 0.000285881
20 *207:19 *247:11 0.0677814
21 *207:19 *254:11 0.00121259
22 *207:19 *270:15 0.00225883
23 *207:19 *331:13 0.000786888
24 *207:19 *430:27 0.00928709
25 *207:19 *445:19 0
26 *207:19 *530:113 0
27 *207:19 *567:18 0
28 *207:23 *335:17 0.0597657
29 *207:23 *353:31 0.0688913
30 *207:23 *830:15 0.00472569
31 *207:23 *849:11 0.000101881
32 *207:23 *856:11 0.00180083
33 *207:23 *864:11 0.0117883
34 *207:29 gpio_dm1[43] 0
35 *207:31 *297:22 0.0052731
36 *207:31 *428:23 0.00398202
37 *207:31 *549:13 0.176675
38 *207:31 *692:35 0.00794802
39 *207:31 *693:193 0.00949521
40 *207:31 *697:115 0.00406728
41 *207:31 *741:168 0.000252122
42 *207:31 *848:11 0.176669
43 *207:39 *336:55 0.00902993
44 *207:39 *435:23 0.0242577
45 *207:39 *553:13 1.47709e-05
46 *207:39 *749:27 0.00303734
47 *207:49 *465:21 0.0048244
48 *207:49 *851:15 1.10604e-05
49 *207:49 *853:17 1.28019e-05
50 *207:51 *339:27 0.0554181
51 *207:51 *544:17 0.0565345
52 *98:11 *207:19 0.015996
53 *116:19 *207:11 0.011631
54 *119:23 *207:39 0.00617516
55 *119:23 *207:49 0.00482137
56 *119:27 *207:51 0.000507068
57 *144:11 *207:19 0.00441748
58 *167:15 *207:11 0.0116288
59 *194:27 *207:9 0
60 *205:21 *207:11 0.00010083
61 *206:15 *207:9 0.000176898
*RES
1 *921:gpio_analog_sel[37] *207:9 9.47467 
2 *207:9 *207:11 148.925 
3 *207:11 *207:13 15 
4 *207:13 *207:15 45.8821 
5 *207:15 *207:17 15 
6 *207:17 *207:19 1221.38 
7 *207:19 *207:21 15 
8 *207:21 *207:23 736.704 
9 *207:23 *207:29 44.2307 
10 *207:29 *207:31 1886.8 
11 *207:31 *207:37 47.4 
12 *207:37 *207:39 464.663 
13 *207:39 *207:49 41.0887 
14 *207:49 *207:51 728.376 
15 *207:51 gpio_analog_sel[37] 19.7199 
*END

*D_NET *208 0.674883
*CONN
*P gpio_analog_sel[38] O
*I *921:gpio_analog_sel[38] O *D CF_CARAVEL_SOC
*CAP
1 gpio_analog_sel[38] 0.00155709
2 *921:gpio_analog_sel[38] 0.000169681
3 *208:29 0.020284
4 *208:27 0.0188634
5 *208:21 0.0211375
6 *208:19 0.0211329
7 *208:9 0.0520874
8 *208:7 0.0521252
9 gpio_analog_sel[38] gpio_dm2[38] 0
10 *208:7 *209:9 0
11 *208:9 *209:11 0.0145718
12 *208:9 *211:9 0.0092856
13 *208:9 *328:11 0.00265339
14 *208:9 *334:6 0.0165471
15 *208:9 *340:19 0.00482804
16 *208:9 *341:12 0.0022474
17 *208:9 *341:14 0
18 *208:19 *255:15 1.61994e-05
19 *208:19 *845:9 1.76016e-05
20 *208:21 *289:23 0.142501
21 *208:21 *571:27 0.0906072
22 *208:21 *749:27 0.0186928
23 *208:21 *838:11 0.0260696
24 *208:27 gpio_dm0[40] 6.72854e-05
25 *208:29 *435:23 0.0145054
26 *208:29 *739:130 0.0421991
27 *208:29 *841:11 0.0391046
28 gpio_analog_pol[40] *208:27 0
29 *119:23 *208:29 0.0182314
30 *124:9 *208:9 0.00648386
31 *126:11 *208:9 0.00031186
32 *164:23 *208:9 0.038202
33 *167:19 *208:19 4.73828e-05
34 *194:27 *208:7 3.31108e-06
35 *194:27 *208:9 0.000112199
36 *204:9 *208:9 0.000219695
*RES
1 *921:gpio_analog_sel[38] *208:7 8.37147 
2 *208:7 *208:9 247.132 
3 *208:9 *208:19 31.858 
4 *208:19 *208:21 1522.33 
5 *208:21 *208:27 26.1382 
6 *208:27 *208:29 149.55 
7 *208:29 gpio_analog_sel[38] 30.0504 
*END

*D_NET *209 0.727004
*CONN
*P gpio_analog_sel[39] O
*I *921:gpio_analog_sel[39] O *D CF_CARAVEL_SOC
*CAP
1 gpio_analog_sel[39] 0.0024207
2 *921:gpio_analog_sel[39] 0.000378653
3 *209:15 0.0321899
4 *209:13 0.0297692
5 *209:11 0.0492726
6 *209:9 0.0496513
7 gpio_analog_sel[39] gpio_dm2[39] 0
8 *209:9 *211:7 0
9 *209:9 *321:23 2.86947e-05
10 *209:11 *214:11 0.0405566
11 *209:11 *343:11 0.00353471
12 *209:11 *344:11 0.00560663
13 *209:11 *345:11 0.00715799
14 *209:15 *213:15 0.0895069
15 *209:15 *253:15 0.170735
16 *209:15 *294:15 0.0308931
17 *209:15 *474:15 0.0113156
18 *209:15 *559:19 0.0296769
19 *209:15 *847:16 0.0807956
20 *109:11 *209:11 0.00215079
21 *109:21 *209:9 0.000269528
22 *109:21 *209:11 2.28446e-05
23 *116:19 *209:11 0.000825374
24 *121:11 *209:11 0.000877235
25 *164:15 *209:11 0.0013529
26 *164:23 *209:11 0.0679758
27 *167:15 *209:11 0.0039738
28 *169:15 *209:15 0.000202314
29 *194:27 *209:11 0
30 *205:21 *209:11 0.00100595
31 *207:11 *209:11 0.000285881
32 *208:7 *209:9 0
33 *208:9 *209:11 0.0145718
*RES
1 *921:gpio_analog_sel[39] *209:9 9.00613 
2 *209:9 *209:11 246.561 
3 *209:11 *209:13 8 
4 *209:13 *209:15 323.043 
5 *209:15 gpio_analog_sel[39] 42.7689 
*END

*D_NET *210 0.0493053
*CONN
*P gpio_analog_sel[3] O
*I *921:gpio_analog_sel[3] O *D CF_CARAVEL_SOC
*CAP
1 gpio_analog_sel[3] 0.00104841
2 *921:gpio_analog_sel[3] 0.00950387
3 *210:11 0.00314417
4 *210:9 0.0115996
5 gpio_analog_sel[3] gpio_dm2[3] 0.00145016
6 *210:9 *215:13 0
7 *210:11 *262:11 0.0112806
8 *210:11 *782:55 0.0112785
9 *199:9 *210:9 0
*RES
1 *921:gpio_analog_sel[3] *210:9 28.5408 
2 *210:9 *210:11 145.228 
3 *210:11 gpio_analog_sel[3] 11.0287 
*END

*D_NET *211 0.578619
*CONN
*P gpio_analog_sel[40] O
*I *921:gpio_analog_sel[40] O *D CF_CARAVEL_SOC
*CAP
1 gpio_analog_sel[40] 5.40232e-05
2 *921:gpio_analog_sel[40] 0.000176996
3 *211:17 0.00296992
4 *211:13 0.0290412
5 *211:11 0.0261253
6 *211:9 0.0369422
7 *211:7 0.0371192
8 *211:7 *212:9 5.0495e-05
9 *211:9 *258:11 0
10 *211:9 *258:15 0
11 *211:9 *300:15 0
12 *211:9 *327:19 0.00987111
13 *211:9 *328:11 0
14 *211:9 *340:11 0
15 *211:9 *340:31 0
16 *211:13 *212:23 0.116304
17 *211:13 *256:15 0.000192096
18 *211:13 *292:15 0.0262966
19 *211:13 *295:15 0.0305883
20 *211:13 *299:23 0.143111
21 *211:13 *815:49 0.00393013
22 *211:13 *839:91 0.00245686
23 *211:13 *839:103 0.00238515
24 *211:13 *839:125 0.001911
25 *211:13 *858:11 0.00201952
26 *211:17 gpio_dm2[40] 0
27 *109:11 *211:9 0
28 *124:9 *211:9 0.0877852
29 *126:11 *211:9 0.000323573
30 *193:9 *211:9 0.00704274
31 *204:9 *211:9 0.00263635
32 *208:9 *211:9 0.0092856
33 *209:9 *211:7 0
*RES
1 *921:gpio_analog_sel[40] *211:7 8.4144 
2 *211:7 *211:9 1365.4 
3 *211:9 *211:11 8 
4 *211:11 *211:13 271.481 
5 *211:13 *211:17 49.905 
6 *211:17 gpio_analog_sel[40] 1.00464 
*END

*D_NET *212 0.497677
*CONN
*P gpio_analog_sel[41] O
*I *921:gpio_analog_sel[41] O *D CF_CARAVEL_SOC
*CAP
1 gpio_analog_sel[41] 0.00306191
2 *921:gpio_analog_sel[41] 0.00244471
3 *212:25 0.00306191
4 *212:23 0.0216737
5 *212:21 0.0216737
6 *212:19 0.028662
7 *212:17 0.0298191
8 *212:11 0.00406129
9 *212:9 0.00534895
10 gpio_analog_sel[41] gpio_dm2[41] 0
11 *212:9 *213:9 0
12 *212:9 *288:23 0.0013364
13 *212:9 *321:23 0
14 *212:11 *534:15 0
15 *212:17 gpio_vtrip_sel[4] 0.00167265
16 *212:19 *228:11 0.00664665
17 *212:19 *249:11 0.0268709
18 *212:19 *255:11 0
19 *212:19 *274:19 0.00959535
20 *212:19 *275:11 0
21 *212:19 *289:11 0.00119327
22 *212:19 *295:11 0
23 *212:19 *325:11 0.0209625
24 *212:23 *256:15 0.000252225
25 *212:23 *258:29 0.00306529
26 *212:23 *539:43 0.00120191
27 *212:23 *815:49 0.00909007
28 *212:23 *839:17 0.0554314
29 *212:23 *839:45 0.007668
30 *212:23 *839:59 0.0190903
31 *212:23 *839:77 0.0135272
32 *212:23 *858:11 0.0211071
33 *91:11 *212:11 0.000684392
34 *107:11 *212:11 0.00801849
35 *118:11 *212:19 0.0278539
36 *118:107 *212:23 0.00131206
37 *165:21 gpio_analog_sel[41] 5.34972e-05
38 *170:19 *212:19 0.0204667
39 *185:11 *212:19 0.00227632
40 *186:11 *212:19 0.00177409
41 *194:27 *212:9 0.000364411
42 *211:7 *212:9 5.0495e-05
43 *211:13 *212:23 0.116304
*RES
1 *921:gpio_analog_sel[41] *212:9 14.2795 
2 *212:9 *212:11 102.266 
3 *212:11 *212:17 19.4048 
4 *212:17 *212:19 1265.04 
5 *212:19 *212:21 8 
6 *212:21 *212:23 222.107 
7 *212:23 *212:25 8 
8 *212:25 gpio_analog_sel[41] 44.2561 
*END

*D_NET *213 0.455916
*CONN
*P gpio_analog_sel[42] O
*I *921:gpio_analog_sel[42] O *D CF_CARAVEL_SOC
*CAP
1 gpio_analog_sel[42] 0.00241978
2 *921:gpio_analog_sel[42] 0.000858341
3 *213:15 0.0182317
4 *213:13 0.015812
5 *213:11 0.0272659
6 *213:9 0.0281243
7 gpio_analog_sel[42] gpio_dm2[42] 0
8 gpio_analog_sel[42] gpio_holdover[42] 0
9 gpio_analog_sel[42] *541:15 0
10 gpio_analog_sel[42] *560:25 0.000367547
11 gpio_analog_sel[42] *740:167 0
12 *213:9 *214:9 0
13 *213:9 *288:23 0
14 *213:11 *214:11 0.00782502
15 *213:11 *227:11 0
16 *213:11 *274:51 0.000874086
17 *213:11 *294:11 0
18 *213:11 *346:11 0.024398
19 *213:11 *831:83 0.00396182
20 *213:15 *253:15 9.41002e-05
21 *213:15 *474:15 0.0163025
22 *213:15 *480:15 0.0190299
23 *116:11 *213:11 0.00243325
24 *167:15 *213:11 0.107954
25 *169:15 *213:15 0.0896992
26 *194:27 *213:9 0.000364411
27 *205:21 *213:11 0.000393165
28 *209:15 *213:15 0.0895069
29 *212:9 *213:9 0
*RES
1 *921:gpio_analog_sel[42] *213:9 9.90027 
2 *213:9 *213:11 1381.25 
3 *213:11 *213:13 8 
4 *213:13 *213:15 169.9 
5 *213:15 gpio_analog_sel[42] 43.9704 
*END

*D_NET *214 0.371151
*CONN
*P gpio_analog_sel[43] O
*I *921:gpio_analog_sel[43] O *D CF_CARAVEL_SOC
*CAP
1 gpio_analog_sel[43] 0.0447423
2 *921:gpio_analog_sel[43] 0.000795668
3 *214:11 0.0810889
4 *214:9 0.0371423
5 gpio_analog_sel[43] gpio_dm2[43] 0
6 gpio_analog_sel[43] *252:15 0.000277302
7 gpio_analog_sel[43] *322:47 0.00119542
8 gpio_analog_sel[43] *322:105 0.000658323
9 gpio_analog_sel[43] *397:173 0.00367207
10 gpio_analog_sel[43] *408:97 0.00368688
11 gpio_analog_sel[43] *419:173 0.000253966
12 gpio_analog_sel[43] *419:189 0.000466321
13 gpio_analog_sel[43] *444:15 0.00938122
14 gpio_analog_sel[43] *444:35 0.00147915
15 gpio_analog_sel[43] *529:9 0.00995016
16 gpio_analog_sel[43] *530:89 0.000518324
17 gpio_analog_sel[43] *530:105 0.000476724
18 gpio_analog_sel[43] *532:24 0.00226846
19 gpio_analog_sel[43] *535:65 0.000643171
20 gpio_analog_sel[43] *535:93 0.00211262
21 gpio_analog_sel[43] *535:109 0.000248765
22 gpio_analog_sel[43] *536:63 0.00181959
23 gpio_analog_sel[43] *540:22 0.00164849
24 gpio_analog_sel[43] *551:121 0.00349792
25 gpio_analog_sel[43] *561:12 0.00157594
26 gpio_analog_sel[43] *562:119 0.00341212
27 gpio_analog_sel[43] *563:8 0.000696729
28 gpio_analog_sel[43] *566:13 5.81413e-05
29 gpio_analog_sel[43] *697:109 0.00226639
30 gpio_analog_sel[43] *740:79 0.00564401
31 gpio_analog_sel[43] *741:140 0.000624174
32 *214:11 *285:11 0.0639746
33 *214:11 *289:11 0.0237953
34 *214:11 *346:11 0.00584865
35 *214:11 *831:83 0.000875633
36 *116:11 *214:11 0.000584858
37 *118:23 gpio_analog_sel[43] 0.000977861
38 *194:27 *214:9 0.000210019
39 *197:11 *214:11 0.000763562
40 *205:21 *214:11 0.00343779
41 *209:11 *214:11 0.0405566
42 *213:9 *214:9 0
43 *213:11 *214:11 0.00782502
*RES
1 *921:gpio_analog_sel[43] *214:9 9.7752 
2 *214:9 *214:11 247.195 
3 *214:11 gpio_analog_sel[43] 47.2413 
*END

*D_NET *215 0.0346256
*CONN
*P gpio_analog_sel[4] O
*I *921:gpio_analog_sel[4] O *D CF_CARAVEL_SOC
*CAP
1 gpio_analog_sel[4] 0.00487127
2 *921:gpio_analog_sel[4] 0.00815883
3 *215:18 0
4 *215:13 0.0130301
5 gpio_analog_sel[4] gpio_dm2[4] 0.00125453
6 *215:13 *216:9 0
7 *215:13 *259:11 0.00269037
8 *215:13 *260:19 0.000149504
9 *215:13 *312:19 0.0001646
10 *215:13 *326:11 0.000122544
11 *215:13 *535:121 0.000122544
12 *94:11 *215:13 0.00235082
13 *129:11 *215:13 0.00016532
14 *132:11 *215:13 0.000312591
15 *171:13 *215:13 0.00123256
16 *181:11 *215:13 0
17 *210:9 *215:13 0
*RES
1 *921:gpio_analog_sel[4] *215:13 43.636 
2 *215:13 gpio_analog_sel[4] 10.5877 
3 gpio_analog_sel[4] *215:18 0.0746667 
*END

*D_NET *216 0.0819067
*CONN
*P gpio_analog_sel[5] O
*I *921:gpio_analog_sel[5] O *D CF_CARAVEL_SOC
*CAP
1 gpio_analog_sel[5] 0.0064651
2 *921:gpio_analog_sel[5] 0.00462261
3 *216:11 0.0186948
4 *216:9 0.0168523
5 gpio_analog_sel[5] gpio_dm2[5] 0
6 *216:9 *217:9 0
7 *216:11 *223:19 0.00272906
8 *216:11 *246:11 0.00181063
9 *216:11 *270:19 0.00210753
10 *103:11 *216:11 0.00164456
11 *130:11 *216:11 0.0236844
12 *139:9 gpio_analog_sel[5] 0.000861291
13 *155:11 *216:11 0
14 *180:11 *216:11 0.0024344
15 *215:13 *216:9 0
*RES
1 *921:gpio_analog_sel[5] *216:9 18.4515 
2 *216:9 *216:11 55.0181 
3 *216:11 gpio_analog_sel[5] 21.7807 
*END

*D_NET *217 0.110752
*CONN
*P gpio_analog_sel[6] O
*I *921:gpio_analog_sel[6] O *D CF_CARAVEL_SOC
*CAP
1 gpio_analog_sel[6] 0.00137474
2 *921:gpio_analog_sel[6] 0.0095513
3 *217:11 0.0124214
4 *217:9 0.020598
5 gpio_analog_sel[6] gpio_dm2[6] 0.000184359
6 *217:9 *218:9 0
7 *217:11 *262:11 0.0415462
8 *217:11 *392:59 0.0096017
9 *217:11 *782:55 0.015474
10 *216:9 *217:9 0
*RES
1 *921:gpio_analog_sel[6] *217:9 28.5408 
2 *217:9 *217:11 535.402 
3 *217:11 gpio_analog_sel[6] 11.3553 
*END

*D_NET *218 0.243838
*CONN
*P gpio_analog_sel[7] O
*I *921:gpio_analog_sel[7] O *D CF_CARAVEL_SOC
*CAP
1 gpio_analog_sel[7] 0.00339609
2 *921:gpio_analog_sel[7] 0.00750601
3 *218:11 0.0382344
4 *218:9 0.0423443
5 gpio_analog_sel[7] gpio_dm2[7] 0
6 *218:9 *219:9 0
7 *218:11 *263:11 0.00107413
8 *218:11 *273:11 0
9 *218:11 *306:11 0.110155
10 *218:11 *327:53 0
11 *218:11 *348:11 0.0233162
12 *218:11 *789:27 0.00655467
13 *218:11 *832:59 0.0105031
14 *168:11 *218:11 0
15 *201:11 *218:11 0
16 *205:49 *218:11 0.000753397
17 *217:9 *218:9 0
*RES
1 *921:gpio_analog_sel[7] *218:9 24.5909 
2 *218:9 *218:11 1446.75 
3 *218:11 gpio_analog_sel[7] 15.4247 
*END

*D_NET *219 0.271993
*CONN
*P gpio_analog_sel[8] O
*I *921:gpio_analog_sel[8] O *D CF_CARAVEL_SOC
*CAP
1 gpio_analog_sel[8] 0.00213585
2 *921:gpio_analog_sel[8] 0.0088392
3 *219:11 0.0395908
4 *219:9 0.0462942
5 gpio_analog_sel[8] gpio_dm2[8] 0
6 gpio_analog_sel[8] *747:11 0
7 *219:9 *220:9 0
8 *219:11 gpio_inp_dis[6] 0
9 *219:11 *281:11 0
10 *219:11 *305:11 0.0389269
11 *219:11 *311:11 0.131847
12 *219:11 *375:35 0
13 *219:11 *393:27 0.00435938
14 *219:11 *782:19 0
15 *219:11 *782:29 0
16 *218:9 *219:9 0
*RES
1 *921:gpio_analog_sel[8] *219:9 27.1669 
2 *219:9 *219:11 1674.94 
3 *219:11 gpio_analog_sel[8] 12.8935 
*END

*D_NET *220 0.372715
*CONN
*P gpio_analog_sel[9] O
*I *921:gpio_analog_sel[9] O *D CF_CARAVEL_SOC
*CAP
1 gpio_analog_sel[9] 0.0021925
2 *921:gpio_analog_sel[9] 0.00777784
3 *220:11 0.0297742
4 *220:9 0.0353596
5 gpio_analog_sel[9] gpio_dm2[9] 0.00137181
6 *220:9 *479:9 0.000763148
7 *220:11 *261:11 0.0387331
8 *220:11 *269:11 0.147958
9 *220:11 *327:63 0.108372
10 *220:11 *571:39 0.000412944
11 *178:9 *220:9 0
12 *219:9 *220:9 0
*RES
1 *921:gpio_analog_sel[9] *220:9 25.7931 
2 *220:9 *220:11 1905.24 
3 *220:11 gpio_analog_sel[9] 13.7447 
*END

*D_NET *221 0.0416657
*CONN
*P gpio_dm0[0] O
*I *921:gpio_dm0[0] O *D CF_CARAVEL_SOC
*CAP
1 gpio_dm0[0] 0.00546218
2 *921:gpio_dm0[0] 0.00968421
3 *221:13 0.0151464
4 gpio_dm0[0] gpio_dm1[0] 0.00362605
5 *221:13 *223:11 0.000660038
6 *221:13 *226:11 0.00437723
7 *221:13 *232:9 0.000710018
8 *221:13 *254:11 0
9 *221:13 *442:11 0.000118878
10 *221:13 *572:28 0
11 gpio_analog_en[0] gpio_dm0[0] 0.00188076
*RES
1 *921:gpio_dm0[0] *221:13 49.796 
2 *221:13 gpio_dm0[0] 15.5577 
*END

*D_NET *222 0.446865
*CONN
*P gpio_dm0[10] O
*I *921:gpio_dm0[10] O *D CF_CARAVEL_SOC
*CAP
1 gpio_dm0[10] 0.00287178
2 *921:gpio_dm0[10] 0.00532094
3 *222:19 0.0764936
4 *222:17 0.0741425
5 *222:11 0.0118387
6 *222:9 0.016639
7 gpio_dm0[10] gpio_inp_dis[10] 0
8 *222:9 *223:9 0
9 *222:9 *264:9 0
10 *222:11 *224:15 0
11 *222:11 *232:11 0
12 *222:11 *267:13 2.13985e-05
13 *222:11 *298:11 0.00198656
14 *222:11 *771:31 0.000606296
15 *222:17 *268:9 0
16 *222:19 gpio_ib_mode_sel[7] 0.000120707
17 *222:19 *241:11 0.0457879
18 *222:19 *263:11 0
19 *222:19 *267:23 0.197009
20 *222:19 *277:11 0.00119745
21 *222:19 *321:55 0.00319929
22 *222:19 *391:35 0.00332642
23 *222:19 *692:23 0
24 gpio_analog_en[10] gpio_dm0[10] 0
25 gpio_analog_en[10] *222:19 0.000120707
26 gpio_analog_pol[10] gpio_dm0[10] 0.00288562
27 *89:11 *222:11 0
28 *133:11 *222:11 0.00108452
29 *169:11 *222:11 0.00221203
*RES
1 *921:gpio_dm0[10] *222:9 22.5731 
2 *222:9 *222:11 45.6251 
3 *222:11 *222:17 17.2152 
4 *222:17 *222:19 2853.21 
5 *222:19 gpio_dm0[10] 15.8428 
*END

*D_NET *223 0.509892
*CONN
*P gpio_dm0[11] O
*I *921:gpio_dm0[11] O *D CF_CARAVEL_SOC
*CAP
1 gpio_dm0[11] 0.00480757
2 *921:gpio_dm0[11] 0.00361665
3 *223:19 0.0823471
4 *223:17 0.077771
5 *223:11 0.0205881
6 *223:9 0.0239733
7 *223:9 *224:9 0
8 *223:11 *226:11 0
9 *223:11 *247:11 0.00484537
10 *223:11 *254:11 0.00813171
11 *223:11 *270:15 0.014796
12 *223:11 *308:11 0.00286599
13 *223:11 *331:13 0.00411362
14 *223:11 *430:27 0.00330081
15 *223:11 *530:113 0.00166408
16 *223:11 *562:123 0.00375348
17 *223:17 gpio_inp_dis[2] 0.000569678
18 *223:17 *321:9 0.000573163
19 *223:19 *270:19 0.218728
20 *223:19 *321:23 0
21 *223:19 *567:18 0
22 *223:19 *832:49 0.000109763
23 gpio_analog_en[11] gpio_dm0[11] 0.00375097
24 gpio_analog_pol[11] gpio_dm0[11] 0
25 *93:11 *223:19 0
26 *111:15 *223:19 0.00166227
27 *130:11 *223:19 0.011696
28 *134:11 *223:19 0.00572119
29 *138:11 *223:19 0
30 *141:11 *223:19 0.00353667
31 *144:19 *223:19 0.00178071
32 *179:11 *223:19 0.00179956
33 *216:11 *223:19 0.00272906
34 *221:13 *223:11 0.000660038
35 *222:9 *223:9 0
*RES
1 *921:gpio_dm0[11] *223:9 17.4211 
2 *223:9 *223:11 98.6832 
3 *223:11 *223:17 17.1293 
4 *223:17 *223:19 2782.07 
5 *223:19 gpio_dm0[11] 21.9393 
*END

*D_NET *224 0.518981
*CONN
*P gpio_dm0[12] O
*I *921:gpio_dm0[12] O *D CF_CARAVEL_SOC
*CAP
1 gpio_dm0[12] 0.0032224
2 *921:gpio_dm0[12] 0.00494254
3 *224:19 0.0919305
4 *224:17 0.0887081
5 *224:15 0.00513633
6 *224:9 0.0100789
7 gpio_dm0[12] gpio_inp_dis[12] 0
8 *224:9 *225:9 0
9 *224:15 *232:11 0.0158006
10 *224:15 *298:9 0
11 *224:15 *303:9 0.000467319
12 *224:19 *307:11 0
13 *224:19 *321:63 0
14 *224:19 *327:39 0
15 *224:19 *375:51 0
16 *224:19 *391:43 0.0151019
17 *224:19 *435:27 0
18 *224:19 *481:11 0
19 *224:19 *771:31 0.00899216
20 gpio_analog_en[12] gpio_dm0[12] 0.000384357
21 gpio_analog_pol[12] gpio_dm0[12] 0.00306974
22 gpio_analog_pol[5] *224:19 0.000292436
23 *89:11 *224:15 0.00401271
24 *89:11 *224:19 0.00306837
25 *94:19 *224:19 0.201374
26 *104:19 *224:19 0.00187985
27 *137:11 *224:19 0.015422
28 *166:11 *224:19 0.00191596
29 *169:11 *224:19 0.0329277
30 *174:11 *224:19 0.0102535
31 *222:11 *224:15 0
32 *223:9 *224:9 0
*RES
1 *921:gpio_dm0[12] *224:9 21.1992 
2 *224:9 *224:15 45.828 
3 *224:15 *224:17 8 
4 *224:17 *224:19 3356.77 
5 *224:19 gpio_dm0[12] 17.4407 
*END

*D_NET *225 0.428316
*CONN
*P gpio_dm0[13] O
*I *921:gpio_dm0[13] O *D CF_CARAVEL_SOC
*CAP
1 gpio_dm0[13] 0.00313392
2 *921:gpio_dm0[13] 0.00405687
3 *225:19 0.145695
4 *225:17 0.142561
5 *225:15 0.00685109
6 *225:9 0.010908
7 gpio_dm0[13] *533:202 0.00277506
8 *225:15 *243:11 0.00616402
9 *225:15 *254:11 0.00185246
10 *225:15 *303:9 0.000104749
11 *225:15 *304:9 0.00027691
12 *225:15 *305:9 0
13 *225:19 *274:43 0.00233866
14 *225:19 *274:89 0.000838709
15 *225:19 *274:93 0.00298638
16 *225:19 *304:11 0.00800497
17 *225:19 *310:11 0
18 *225:19 *315:11 0
19 *225:19 *321:11 0.00859039
20 *225:19 *349:11 0.0255919
21 *225:19 *444:11 0
22 *225:19 *484:11 0
23 *225:19 *532:36 0
24 *225:19 *787:35 0.0041005
25 gpio_analog_en[13] gpio_dm0[13] 0
26 gpio_analog_pol[13] gpio_dm0[13] 0.00484781
27 *112:11 *225:19 0.027403
28 *128:11 *225:19 0.000488097
29 *131:11 *225:19 0
30 *135:11 *225:19 0.00522453
31 *139:11 *225:19 5.4407e-05
32 *175:11 *225:19 0.00916559
33 *203:11 *225:19 0.00430213
34 *224:9 *225:9 0
*RES
1 *921:gpio_dm0[13] *225:9 18.6232 
2 *225:9 *225:15 45.66 
3 *225:15 *225:17 8 
4 *225:17 *225:19 3816.67 
5 *225:19 gpio_dm0[13] 19.6713 
*END

*D_NET *226 0.675526
*CONN
*P gpio_dm0[14] O
*I *921:gpio_dm0[14] O *D CF_CARAVEL_SOC
*CAP
1 gpio_dm0[14] 0.00534585
2 *921:gpio_dm0[14] 0.00354697
3 *226:11 0.138359
4 *226:9 0.13656
5 gpio_dm0[14] gpio_dm1[14] 0
6 *226:9 *227:9 0
7 *226:9 *258:15 0.000112317
8 *226:9 *340:31 4.96824e-05
9 *226:11 *308:11 0.204352
10 *226:11 *430:27 0.000552883
11 *226:11 *442:11 0.038886
12 *226:11 *445:19 0.00114629
13 *226:11 *572:28 0.00890477
14 *226:11 *705:39 0.00079706
15 gpio_analog_en[14] gpio_dm0[14] 0.00200823
16 gpio_analog_pol[14] gpio_dm0[14] 0
17 *90:11 *226:11 0.0104022
18 *102:11 *226:11 0.0189203
19 *105:27 *226:11 0
20 *106:11 *226:11 0.0322032
21 *106:19 *226:11 0.0275157
22 *110:11 *226:11 0.00429973
23 *110:19 *226:11 0.0364051
24 *140:43 *226:11 0.000782141
25 *179:11 *226:11 0
26 *221:13 *226:11 0.00437723
27 *223:11 *226:11 0
*RES
1 *921:gpio_dm0[14] *226:9 16.9432 
2 *226:9 *226:11 804.94 
3 *226:11 gpio_dm0[14] 42.5908 
*END

*D_NET *227 0.559653
*CONN
*P gpio_dm0[15] O
*I *921:gpio_dm0[15] O *D CF_CARAVEL_SOC
*CAP
1 gpio_dm0[15] 9.49606e-05
2 *921:gpio_dm0[15] 0.00104007
3 *227:19 0.13728
4 *227:17 0.139993
5 *227:11 0.0290179
6 *227:9 0.0272504
7 *227:9 *228:9 0
8 *227:9 *340:19 0.000227734
9 *227:11 *275:11 0.0219549
10 *227:11 *285:11 0.0102456
11 *227:11 *289:11 0.00142174
12 *227:11 *294:11 0.0281776
13 *227:11 *327:11 0.0138765
14 *227:11 *346:11 0.0506514
15 *227:11 *831:83 0.00143946
16 *227:17 *328:59 0.00252386
17 *227:17 *745:11 0.00310634
18 *227:19 *274:145 0
19 gpio_analog_en[15] gpio_dm0[15] 0
20 gpio_analog_pol[15] gpio_dm0[15] 0
21 *95:19 *227:19 0
22 *98:15 *227:17 0.00127196
23 *99:15 *227:17 0.000838063
24 *101:15 *227:17 0.000725905
25 *114:23 *227:17 0.00443656
26 *116:11 *227:11 0.00678231
27 *139:19 *227:19 0
28 *141:25 *227:17 0.00155947
29 *142:15 *227:17 0.00110173
30 *197:11 *227:11 0.0377581
31 *200:11 *227:11 0.0368774
32 *213:11 *227:11 0
33 *226:9 *227:9 0
*RES
1 *921:gpio_dm0[15] *227:9 10.2437 
2 *227:9 *227:11 1548.87 
3 *227:11 *227:17 31.6837 
4 *227:17 *227:19 3108.86 
5 *227:19 gpio_dm0[15] 1.86429 
*END

*D_NET *228 0.700463
*CONN
*P gpio_dm0[16] O
*I *921:gpio_dm0[16] O *D CF_CARAVEL_SOC
*CAP
1 gpio_dm0[16] 0.138906
2 *921:gpio_dm0[16] 0.00126817
3 *228:25 0.166699
4 *228:11 0.0741561
5 *228:9 0.0476313
6 gpio_dm0[16] *286:29 2.75733e-06
7 gpio_dm0[16] *679:9 0
8 *228:9 *229:9 0.00016897
9 *228:11 *235:11 0.000291378
10 *228:11 *237:11 0.0388377
11 *228:11 *237:17 0.0117738
12 *228:11 *237:19 0.00706153
13 *228:11 *249:11 0.000233898
14 *228:11 *250:11 0
15 *228:11 *274:19 0.00180227
16 *228:11 *285:11 0
17 *228:11 *289:11 0.00290404
18 *228:11 *325:11 0.00215084
19 *228:11 *740:59 0.0283797
20 *228:25 *229:15 0.000318611
21 *228:25 *230:21 0.000322456
22 *228:25 *230:25 0.00907671
23 *228:25 *244:15 0.000318611
24 *228:25 *246:23 0.000318611
25 *228:25 *247:15 0.0140688
26 *228:25 *332:19 0.000104018
27 *228:25 *375:31 0.0141704
28 *228:25 *391:15 0.000529705
29 *228:25 *782:15 0.00876022
30 *228:25 *787:15 0.0118487
31 *228:25 *788:15 0.0101383
32 *228:25 *831:31 0.0123746
33 gpio_analog_en[16] gpio_dm0[16] 0
34 gpio_analog_pol[16] gpio_dm0[16] 0
35 *127:11 *228:11 0.0233361
36 *141:25 *228:25 0.0160029
37 *158:24 *228:25 0.000318611
38 *170:19 *228:11 0.00672583
39 *185:11 *228:11 0.00565315
40 *186:11 *228:11 0.000173264
41 *187:11 *228:11 0.000157373
42 *192:11 *228:11 0.0225431
43 *205:21 *228:11 0.000118562
44 *206:47 *228:25 0.0141704
45 *212:19 *228:11 0.00664665
46 *227:9 *228:9 0
*RES
1 *921:gpio_dm0[16] *228:9 10.9325 
2 *228:9 *228:11 279.436 
3 *228:11 *228:25 32.5342 
4 *228:25 gpio_dm0[16] 3101.75 
*END

*D_NET *229 0.748582
*CONN
*P gpio_dm0[17] O
*I *921:gpio_dm0[17] O *D CF_CARAVEL_SOC
*CAP
1 gpio_dm0[17] 0.13657
2 *921:gpio_dm0[17] 0.00815836
3 *229:17 0.13657
4 *229:15 0.0179285
5 *229:13 0.0179285
6 *229:11 0.0364395
7 *229:9 0.0445979
8 *229:9 *230:9 0
9 *229:11 *268:11 0.0511741
10 *229:11 *281:11 0
11 *229:11 *375:35 0.0149774
12 *229:11 *482:11 0.00505263
13 *229:15 *230:21 0
14 *229:15 *230:25 0.0164666
15 *229:15 *246:23 0.00292803
16 *229:15 *273:15 0.0934782
17 *229:15 *277:23 0.000513301
18 gpio_analog_en[17] gpio_dm0[17] 0
19 gpio_analog_pol[17] gpio_dm0[17] 0
20 *120:11 *229:11 0.0198332
21 *141:29 gpio_dm0[17] 0.000220315
22 *141:31 gpio_dm0[17] 0.0470925
23 *158:24 *229:15 0.0852111
24 *184:11 *229:11 0.00169177
25 *198:11 *229:11 0.0112622
26 *228:9 *229:9 0.00016897
27 *228:25 *229:15 0.000318611
*RES
1 *921:gpio_dm0[17] *229:9 28.1115 
2 *229:9 *229:11 1555.91 
3 *229:11 *229:13 8 
4 *229:13 *229:15 177.027 
5 *229:15 *229:17 8 
6 *229:17 gpio_dm0[17] 3094.7 
*END

*D_NET *230 0.972511
*CONN
*P gpio_dm0[18] O
*I *921:gpio_dm0[18] O *D CF_CARAVEL_SOC
*CAP
1 gpio_dm0[18] 0.00065342
2 *921:gpio_dm0[18] 0.00762872
3 *230:27 0.152413
4 *230:25 0.21098
5 *230:21 0.0681829
6 *230:11 0.049796
7 *230:9 0.0484623
8 gpio_dm0[18] *538:407 0
9 *230:11 *264:11 0.11995
10 *230:11 *283:11 0
11 *230:11 *337:27 0.00287336
12 *230:11 *698:15 0
13 *230:21 *244:15 0.00238381
14 *230:21 *246:23 0.000884435
15 *230:21 *247:15 0
16 *230:21 *391:15 0.00938698
17 *230:21 *391:29 0.00049533
18 *230:21 *536:145 2.03036e-06
19 *230:25 *244:15 0.0170971
20 *230:25 *246:23 0.0196769
21 *230:25 *273:15 0.0191943
22 *230:25 *275:15 0.0146445
23 *230:25 *277:23 0.0312085
24 *230:25 *286:31 0.0122163
25 *230:25 *290:15 0.00807645
26 *230:25 *329:64 0.000472227
27 *230:25 *361:33 0.00446091
28 *230:25 *403:15 0.0164314
29 *230:25 *538:153 0.000169839
30 *230:25 *686:11 0.0234249
31 *230:25 *801:15 0.00910651
32 *230:25 *831:31 0.00481653
33 *230:27 *538:407 0.000231276
34 gpio_analog_en[18] gpio_dm0[18] 0
35 gpio_analog_en[18] *230:27 0.0462257
36 gpio_analog_pol[18] gpio_dm0[18] 0
37 *141:25 *230:25 4.9738e-05
38 *148:13 *230:25 0.00807645
39 *158:24 *230:25 0.0220646
40 *196:11 *230:11 0.00680588
41 *206:35 *230:11 0.00810324
42 *206:43 *230:11 0
43 *206:47 *230:21 0
44 *228:25 *230:21 0.000322456
45 *228:25 *230:25 0.00907671
46 *229:9 *230:9 0
47 *229:15 *230:21 0
48 *229:15 *230:25 0.0164666
*RES
1 *921:gpio_dm0[18] *230:9 26.9093 
2 *230:9 *230:11 1546.05 
3 *230:11 *230:21 46.9126 
4 *230:21 *230:25 28.4695 
5 *230:25 *230:27 555.262 
6 *230:27 gpio_dm0[18] 28.9344 
*END

*D_NET *231 0.777535
*CONN
*P gpio_dm0[19] O
*I *921:gpio_dm0[19] O *D CF_CARAVEL_SOC
*CAP
1 gpio_dm0[19] 0.0960238
2 *921:gpio_dm0[19] 0.00155841
3 *231:17 0.0960238
4 *231:15 0.0941765
5 *231:13 0.0941765
6 *231:11 0.0206959
7 *231:9 0.0222543
8 gpio_dm0[19] *759:19 0.0849924
9 *231:9 *233:9 0
10 *231:11 *233:11 0.126695
11 *231:11 *234:11 0.000257051
12 *231:11 *235:11 0.0127936
13 *231:11 *238:11 0.000259286
14 *231:11 *278:11 0.107062
15 *231:11 *325:19 0.0196217
16 *231:15 *233:15 0
17 *231:15 *538:169 0.000944223
18 gpio_analog_en[19] gpio_dm0[19] 0
19 gpio_analog_pol[19] gpio_dm0[19] 0
20 *189:15 *231:15 0
*RES
1 *921:gpio_dm0[19] *231:9 11.5765 
2 *231:9 *231:11 1626.34 
3 *231:11 *231:13 8 
4 *231:13 *231:15 338.199 
5 *231:15 *231:17 8 
6 *231:17 gpio_dm0[19] 3010.89 
*END

*D_NET *232 0.0721966
*CONN
*P gpio_dm0[1] O
*I *921:gpio_dm0[1] O *D CF_CARAVEL_SOC
*CAP
1 gpio_dm0[1] 0.00435482
2 *921:gpio_dm0[1] 0.00434029
3 *232:11 0.0140254
4 *232:9 0.0140109
5 *232:9 *243:9 0
6 *232:11 *259:11 0.00428147
7 *232:11 *419:197 0.000183191
8 *232:11 *532:36 0.00179308
9 gpio_analog_en[1] gpio_dm0[1] 0.00240419
10 gpio_analog_pol[1] gpio_dm0[1] 0
11 *89:11 *232:11 0.000954317
12 *100:11 *232:11 0.00011472
13 *177:11 *232:11 0.00922363
14 *221:13 *232:9 0.000710018
15 *222:11 *232:11 0
16 *224:15 *232:11 0.0158006
*RES
1 *921:gpio_dm0[1] *232:9 21.0275 
2 *232:9 *232:11 66.5691 
3 *232:11 gpio_dm0[1] 18.8164 
*END

*D_NET *233 0.790786
*CONN
*P gpio_dm0[20] O
*I *921:gpio_dm0[20] O *D CF_CARAVEL_SOC
*CAP
1 gpio_dm0[20] 0.000134032
2 *921:gpio_dm0[20] 0.00166494
3 *233:19 0.132457
4 *233:17 0.132323
5 *233:15 0.107939
6 *233:13 0.107939
7 *233:11 0.0209754
8 *233:9 0.0226403
9 *233:9 *234:9 0
10 *233:9 *340:19 0.000227734
11 *233:11 *236:11 0.000241999
12 *233:11 *238:11 0.00182822
13 *233:11 *239:11 0.0146977
14 *233:11 *244:11 0.115536
15 *233:11 *253:11 0.00135392
16 *233:11 *278:11 0.000288799
17 *233:11 *324:11 0.00384502
18 gpio_analog_en[20] gpio_dm0[20] 0
19 gpio_analog_en[20] *233:19 0
20 gpio_analog_pol[20] gpio_dm0[20] 0
21 *101:19 *233:19 0
22 *145:19 gpio_dm0[20] 0
23 *145:19 *233:19 0
24 *231:9 *233:9 0
25 *231:11 *233:11 0.126695
26 *231:15 *233:15 0
*RES
1 *921:gpio_dm0[20] *233:9 11.7893 
2 *233:9 *233:11 1627.05 
3 *233:11 *233:13 8 
4 *233:13 *233:15 386.37 
5 *233:15 *233:17 8 
6 *233:17 *233:19 3002.51 
7 *233:19 gpio_dm0[20] 1.86429 
*END

*D_NET *234 0.86094
*CONN
*P gpio_dm0[21] O
*I *921:gpio_dm0[21] O *D CF_CARAVEL_SOC
*CAP
1 gpio_dm0[21] 0.000134032
2 *921:gpio_dm0[21] 0.00143197
3 *234:19 0.11439
4 *234:17 0.114256
5 *234:15 0.120888
6 *234:13 0.120888
7 *234:11 0.0257229
8 *234:9 0.0271548
9 *234:9 *235:9 0.000389575
10 *234:9 *340:19 0.000227734
11 *234:11 *235:11 0.00190667
12 *234:11 *237:11 0.00813107
13 *234:11 *237:19 0.00869271
14 *234:11 *240:11 0.157014
15 *234:11 *278:11 0.140262
16 *234:11 *325:19 0.018682
17 *234:15 *538:239 0.000308879
18 *234:19 *670:7 0
19 gpio_analog_en[21] gpio_dm0[21] 0
20 gpio_analog_en[21] *234:19 0
21 gpio_analog_pol[21] gpio_dm0[21] 0
22 *102:27 *234:19 0
23 *140:109 *234:15 0.000202657
24 *146:25 gpio_dm0[21] 0
25 *146:25 *234:19 0
26 *170:19 *234:11 0
27 *191:15 *234:15 0
28 *231:11 *234:11 0.000257051
29 *233:9 *234:9 0
*RES
1 *921:gpio_dm0[21] *234:9 11.5317 
2 *234:9 *234:11 2035.53 
3 *234:11 *234:13 8 
4 *234:13 *234:15 434.112 
5 *234:15 *234:17 8 
6 *234:17 *234:19 2588.4 
7 *234:19 gpio_dm0[21] 1.86429 
*END

*D_NET *235 1.0825
*CONN
*P gpio_dm0[22] O
*I *921:gpio_dm0[22] O *D CF_CARAVEL_SOC
*CAP
1 gpio_dm0[22] 0.0265246
2 *921:gpio_dm0[22] 0.00123164
3 *235:17 0.0265246
4 *235:15 0.133377
5 *235:13 0.133377
6 *235:11 0.0769724
7 *235:9 0.078204
8 *235:11 *236:11 0.000702029
9 *235:11 *237:11 0.0922431
10 *235:11 *237:17 0.00666192
11 *235:11 *237:19 0.208518
12 *235:11 *239:11 0.259438
13 *235:11 *240:11 0.00146601
14 *235:11 *278:11 0.01974
15 *235:11 *282:11 0
16 *235:11 *325:19 0.00201611
17 gpio_analog_en[22] gpio_dm0[22] 0
18 gpio_analog_pol[22] gpio_dm0[22] 0
19 *140:329 *235:15 0
20 *205:21 *235:11 0.000118562
21 *228:11 *235:11 0.000291378
22 *231:11 *235:11 0.0127936
23 *234:9 *235:9 0.000389575
24 *234:11 *235:11 0.00190667
*RES
1 *921:gpio_dm0[22] *235:9 11.0669 
2 *235:9 *235:11 724.591 
3 *235:11 *235:13 8 
4 *235:13 *235:15 482.154 
5 *235:15 *235:17 8 
6 *235:17 gpio_dm0[22] 602.941 
*END

*D_NET *236 0.895882
*CONN
*P gpio_dm0[23] O
*I *921:gpio_dm0[23] O *D CF_CARAVEL_SOC
*CAP
1 gpio_dm0[23] 0.00229409
2 *921:gpio_dm0[23] 0.00169572
3 *236:19 0.101196
4 *236:17 0.0989023
5 *236:15 0.147979
6 *236:13 0.147979
7 *236:11 0.085785
8 *236:9 0.0874807
9 *236:9 *237:9 0
10 *236:11 *238:11 0.00011563
11 *236:11 *239:11 0.179155
12 *236:11 *245:11 0
13 *236:11 *250:11 0
14 *236:11 *253:11 0.00104075
15 *236:11 *271:11 0.00764111
16 *236:11 *272:11 0.0102956
17 *236:11 *282:11 0
18 *236:11 *286:11 0.00643672
19 *236:11 *324:11 0.01656
20 *236:11 *740:75 0.000380379
21 gpio_analog_pol[23] gpio_dm0[23] 0
22 *104:35 gpio_dm0[23] 0
23 *104:35 *236:19 0
24 *148:17 *236:19 0
25 *233:11 *236:11 0.000241999
26 *235:11 *236:11 0.000702029
*RES
1 *921:gpio_dm0[23] *236:9 11.6643 
2 *236:9 *236:11 417.921 
3 *236:11 *236:13 8 
4 *236:13 *236:15 530.497 
5 *236:15 *236:17 8 
6 *236:17 *236:19 2248.29 
7 *236:19 gpio_dm0[23] 49.8489 
*END

*D_NET *237 1.04351
*CONN
*P gpio_dm0[24] O
*I *921:gpio_dm0[24] O *D CF_CARAVEL_SOC
*CAP
1 gpio_dm0[24] 0.000985966
2 *921:gpio_dm0[24] 0.00123504
3 *237:23 0.160134
4 *237:21 0.159148
5 *237:19 0.0958139
6 *237:17 0.0983161
7 *237:11 0.0299651
8 *237:9 0.028698
9 *237:9 *238:9 0.00137724
10 *237:9 *340:19 0.000227734
11 *237:11 *240:11 0.00935507
12 *237:19 *240:11 0.0440186
13 *237:23 gpio_inp_dis[24] 0
14 *237:23 *538:371 0.000487664
15 *237:23 *539:421 0.000988355
16 gpio_analog_pol[24] gpio_dm0[24] 0
17 gpio_analog_sel[24] *237:23 1.17413e-05
18 *105:31 gpio_dm0[24] 0.000131628
19 *127:11 *237:11 0.0233295
20 *149:43 gpio_dm0[24] 0
21 *192:11 *237:19 0.00736855
22 *194:35 *237:19 0
23 *228:11 *237:11 0.0388377
24 *228:11 *237:17 0.0117738
25 *228:11 *237:19 0.00706153
26 *234:11 *237:11 0.00813107
27 *234:11 *237:19 0.00869271
28 *235:11 *237:11 0.0922431
29 *235:11 *237:17 0.00666192
30 *235:11 *237:19 0.208518
31 *236:9 *237:9 0
*RES
1 *921:gpio_dm0[24] *237:9 11.4029 
2 *237:9 *237:11 213.898 
3 *237:11 *237:17 27.5595 
4 *237:17 *237:19 557.069 
5 *237:19 *237:21 8 
6 *237:21 *237:23 570.082 
7 *237:23 gpio_dm0[24] 33.518 
*END

*D_NET *238 1.21913
*CONN
*P gpio_dm0[25] O
*I *921:gpio_dm0[25] O *D CF_CARAVEL_SOC
*CAP
1 gpio_dm0[25] 0.0025932
2 *921:gpio_dm0[25] 0.00137935
3 *238:27 0.123567
4 *238:25 0.121983
5 *238:15 0.045669
6 *238:13 0.0446593
7 *238:11 0.00518135
8 *238:9 0.0065607
9 *238:11 *253:11 0.0231608
10 *238:11 *325:19 0.00741517
11 *238:15 *249:15 0.286188
12 *238:15 *340:39 0.0191468
13 *238:15 *364:39 0
14 *238:15 *386:207 0.000347199
15 *238:15 *429:19 0.000671034
16 *238:15 *449:41 0.0301542
17 *238:15 *461:23 0.0146481
18 *238:15 *545:11 0.00608516
19 *238:15 *845:19 0.0101282
20 *238:25 *294:27 2.11066e-05
21 *238:25 *446:25 2.33476e-05
22 *238:25 *461:21 0.00263427
23 *238:25 *559:27 0.00262843
24 *238:27 *402:11 0
25 *238:27 *404:11 0
26 *238:27 *539:175 0.0144153
27 *238:27 *549:25 0.247052
28 *238:27 *693:63 0.00436351
29 *106:23 gpio_dm0[25] 0
30 *150:31 gpio_dm0[25] 0.000587842
31 *164:35 *238:15 0.169324
32 *168:15 *238:15 0.0249593
33 *231:11 *238:11 0.000259286
34 *233:11 *238:11 0.00182822
35 *236:11 *238:11 0.00011563
36 *237:9 *238:9 0.00137724
*RES
1 *921:gpio_dm0[25] *238:9 11.6213 
2 *238:9 *238:11 297.882 
3 *238:11 *238:13 15 
4 *238:13 *238:15 3107.89 
5 *238:15 *238:25 36.5291 
6 *238:25 *238:27 3859.63 
7 *238:27 gpio_dm0[25] 14.2767 
*END

*D_NET *239 1.12163
*CONN
*P gpio_dm0[26] O
*I *921:gpio_dm0[26] O *D CF_CARAVEL_SOC
*CAP
1 gpio_dm0[26] 0.0030855
2 *921:gpio_dm0[26] 0.00158921
3 *239:15 0.104989
4 *239:13 0.101904
5 *239:11 0.0719971
6 *239:9 0.0735863
7 gpio_dm0[26] gpio_inp_dis[26] 0
8 *239:9 *240:9 0.000308088
9 *239:9 *258:11 0.000120707
10 *239:9 *340:19 0.000227734
11 *239:11 *244:11 0.0111225
12 *239:11 *282:11 0
13 gpio_analog_en[26] gpio_dm0[26] 0.000394564
14 gpio_analog_en[26] *239:15 0
15 gpio_analog_pol[26] gpio_dm0[26] 0.000234056
16 *107:31 *239:15 0.298778
17 *233:11 *239:11 0.0146977
18 *235:11 *239:11 0.259438
19 *236:11 *239:11 0.179155
*RES
1 *921:gpio_dm0[26] *239:9 11.7464 
2 *239:9 *239:11 599.562 
3 *239:11 *239:13 8 
4 *239:13 *239:15 564.543 
5 *239:15 gpio_dm0[26] 7.1484 
*END

*D_NET *240 0.755359
*CONN
*P gpio_dm0[27] O
*I *921:gpio_dm0[27] O *D CF_CARAVEL_SOC
*CAP
1 gpio_dm0[27] 0.000984785
2 *921:gpio_dm0[27] 0.00118756
3 *240:15 0.161215
4 *240:13 0.16023
5 *240:11 0.0931969
6 *240:9 0.0943845
7 gpio_dm0[27] *459:13 0.00207832
8 *240:9 *241:9 0
9 *240:11 *278:11 0.000318311
10 *240:15 gpio_holdover[27] 0.001536
11 *240:15 gpio_out[27] 0.000975814
12 gpio_analog_en[27] gpio_dm0[27] 0.000249158
13 gpio_analog_pol[27] gpio_dm0[27] 0
14 *170:19 *240:11 0.0268418
15 *185:11 *240:11 0
16 *186:11 *240:11 0
17 *187:11 *240:11 0
18 *189:11 *240:11 0
19 *191:11 *240:11 0
20 *196:31 *240:15 0
21 *234:11 *240:11 0.157014
22 *235:11 *240:11 0.00146601
23 *237:11 *240:11 0.00935507
24 *237:19 *240:11 0.0440186
25 *239:9 *240:9 0.000308088
*RES
1 *921:gpio_dm0[27] *240:9 10.9381 
2 *240:9 *240:11 3076.47 
3 *240:11 *240:13 8 
4 *240:13 *240:15 570.211 
5 *240:15 gpio_dm0[27] 43.4164 
*END

*D_NET *241 0.95078
*CONN
*P gpio_dm0[28] O
*I *921:gpio_dm0[28] O *D CF_CARAVEL_SOC
*CAP
1 gpio_dm0[28] 0.00621825
2 *921:gpio_dm0[28] 0.00630661
3 *241:31 0.103256
4 *241:29 0.0970379
5 *241:27 0.011278
6 *241:25 0.0115708
7 *241:19 0.021187
8 *241:17 0.0282569
9 *241:11 0.0378244
10 *241:9 0.0367683
11 *241:9 *242:9 0
12 *241:11 gpio_oeb[3] 0.00013058
13 *241:11 *277:11 0.0955325
14 *241:11 *321:55 0.00319929
15 *241:11 *391:35 0.00332642
16 *241:11 *692:23 0
17 *241:17 gpio_oeb[6] 0
18 *241:25 *245:15 0
19 *241:25 *333:25 2.79505e-05
20 gpio_analog_pol[0] *241:9 0
21 gpio_analog_pol[28] gpio_dm0[28] 0.000615671
22 *109:23 *241:19 0.000543488
23 *109:27 *241:19 0.0132555
24 *109:31 gpio_dm0[28] 0.0010498
25 *109:31 *241:31 0
26 *150:19 *241:19 0.00842062
27 *151:9 *241:19 0.0290389
28 *152:27 *241:27 0.0550764
29 *153:27 *241:27 0.0310513
30 *153:31 gpio_dm0[28] 0.000661903
31 *153:31 *241:31 0.301631
32 *165:11 *241:11 0
33 *204:21 *241:19 0.00172602
34 *222:19 *241:11 0.0457879
35 *240:9 *241:9 0
*RES
1 *921:gpio_dm0[28] *241:9 23.904 
2 *241:9 *241:11 1434.78 
3 *241:11 *241:17 31.6837 
4 *241:17 *241:19 729.081 
5 *241:19 *241:25 16.8717 
6 *241:25 *241:27 127.116 
7 *241:27 *241:29 8 
8 *241:29 *241:31 551.749 
9 *241:31 gpio_dm0[28] 16.5079 
*END

*D_NET *242 0.772011
*CONN
*P gpio_dm0[29] O
*I *921:gpio_dm0[29] O *D CF_CARAVEL_SOC
*CAP
1 gpio_dm0[29] 0.00339491
2 *921:gpio_dm0[29] 0.005288
3 *242:35 0.154679
4 *242:33 0.157206
5 *242:27 0.0418682
6 *242:25 0.0360943
7 *242:19 0.00123889
8 *242:15 0.00359757
9 *242:13 0.00250609
10 *242:11 0.027719
11 *242:9 0.033007
12 gpio_dm0[29] gpio_inp_dis[29] 0
13 *242:9 gpio_dm2[0] 0.00087184
14 *242:9 *740:73 0
15 *242:11 *274:105 0.00112912
16 *242:11 *337:11 0.00956639
17 *242:11 *531:28 0
18 *242:15 *274:125 0.00772017
19 *242:15 *326:15 0.00707937
20 *242:15 *436:23 0
21 *242:19 *281:19 0.000514197
22 *242:19 *326:19 0.000728021
23 *242:19 *329:58 0.00218697
24 *242:25 *247:15 0.000101282
25 *242:25 *391:15 0.00014294
26 *242:25 *831:31 0.000214251
27 *242:27 *326:23 0.016912
28 *242:27 *326:31 0.00179795
29 *242:27 *333:19 0
30 *242:33 *281:25 0
31 gpio_analog_pol[29] gpio_dm0[29] 0.000244124
32 gpio_analog_sel[0] *242:9 0.000329264
33 *94:19 *242:11 0.00507328
34 *104:19 *242:11 0.00168695
35 *110:23 gpio_dm0[29] 0
36 *110:23 *242:33 0
37 *110:23 *242:35 0
38 *114:11 *242:11 0.0493734
39 *114:21 *242:11 0.000832588
40 *140:71 *242:19 6.69637e-06
41 *150:27 *242:27 0
42 *152:27 *242:27 0
43 *158:22 *242:27 0
44 *166:11 *242:11 0.000148344
45 *169:11 *242:11 0.103162
46 *173:11 *242:11 0.000731781
47 *178:15 *242:11 0.00319163
48 *196:27 *242:27 0.0908019
49 *199:11 *242:11 0.000865592
50 *241:9 *242:9 0
*RES
1 *921:gpio_dm0[29] *242:9 22.616 
2 *242:9 *242:11 1450.8 
3 *242:11 *242:13 15 
4 *242:13 *242:15 86.855 
5 *242:15 *242:19 45.6054 
6 *242:19 *242:25 16.7859 
7 *242:25 *242:27 209.242 
8 *242:27 *242:33 26.7861 
9 *242:33 *242:35 541.016 
10 *242:35 gpio_dm0[29] 7.15587 
*END

*D_NET *243 0.110777
*CONN
*P gpio_dm0[2] O
*I *921:gpio_dm0[2] O *D CF_CARAVEL_SOC
*CAP
1 gpio_dm0[2] 0.00476431
2 *921:gpio_dm0[2] 0.00410305
3 *243:11 0.0273249
4 *243:9 0.0266636
5 gpio_dm0[2] gpio_inp_dis[2] 0.00420468
6 *243:9 *254:9 0
7 *243:11 *246:11 0.00241229
8 *243:11 *254:11 0
9 *243:11 *259:11 0
10 *243:11 *260:11 0
11 *243:11 *276:13 0.00024875
12 *243:11 *287:11 0.0262664
13 *243:11 *342:11 0
14 *243:11 *444:11 0.00740612
15 gpio_analog_en[2] gpio_dm0[2] 0.000529753
16 gpio_analog_pol[2] gpio_dm0[2] 0
17 *111:15 *243:11 4.37041e-05
18 *188:11 *243:11 0.000645111
19 *225:15 *243:11 0.00616402
20 *232:9 *243:9 0
*RES
1 *921:gpio_dm0[2] *243:9 19.1384 
2 *243:9 *243:11 108.076 
3 *243:11 gpio_dm0[2] 20.4833 
*END

*D_NET *244 0.917162
*CONN
*P gpio_dm0[30] O
*I *921:gpio_dm0[30] O *D CF_CARAVEL_SOC
*CAP
1 gpio_dm0[30] 0.000462228
2 *921:gpio_dm0[30] 0.00180635
3 *244:19 0.0215593
4 *244:17 0.021097
5 *244:15 0.0713366
6 *244:13 0.0713366
7 *244:11 0.0215623
8 *244:9 0.0233687
9 *244:9 *245:9 0
10 *244:9 *258:11 0.000120707
11 *244:9 *340:19 0.000227734
12 *244:11 *253:11 0.00354215
13 *244:11 *271:11 7.48354e-05
14 *244:11 *272:11 0.0117983
15 *244:11 *324:11 0.0799226
16 *244:15 *246:23 0.2711
17 *244:15 *247:15 0
18 *244:15 *286:31 0.0140924
19 *244:15 *286:39 0
20 *244:15 *391:15 0.0842001
21 *244:15 *422:27 0
22 *244:15 *536:151 0.000252048
23 *244:15 *686:11 0
24 *244:15 *801:15 0.0107116
25 *244:19 *286:41 0.0358346
26 *244:19 *325:167 0.0198126
27 *244:19 *466:11 0.00588065
28 gpio_analog_en[30] gpio_dm0[30] 9.20538e-05
29 gpio_analog_pol[30] gpio_dm0[30] 5.79513e-05
30 *118:19 *244:11 0
31 *158:24 *244:15 0.000455124
32 *228:25 *244:15 0.000318611
33 *230:21 *244:15 0.00238381
34 *230:25 *244:15 0.0170971
35 *233:11 *244:11 0.115536
36 *239:11 *244:11 0.0111225
*RES
1 *921:gpio_dm0[30] *244:9 11.8752 
2 *244:9 *244:11 1477.74 
3 *244:11 *244:13 8 
4 *244:13 *244:15 570.211 
5 *244:15 *244:17 8 
6 *244:17 *244:19 933.324 
7 *244:19 gpio_dm0[30] 9.22547 
*END

*D_NET *245 0.765715
*CONN
*P gpio_dm0[31] O
*I *921:gpio_dm0[31] O *D CF_CARAVEL_SOC
*CAP
1 gpio_dm0[31] 0.000758609
2 *921:gpio_dm0[31] 0.00200803
3 *245:15 0.150321
4 *245:13 0.149562
5 *245:11 0.0490855
6 *245:9 0.0510935
7 gpio_dm0[31] *459:13 0.00248315
8 gpio_dm0[31] *553:25 0.00200608
9 *245:9 *246:9 0.000474163
10 *245:9 *258:11 0.000120707
11 *245:9 *340:19 0.000227734
12 *245:9 *740:73 0
13 *245:11 *250:11 0.00172959
14 *245:11 *256:11 0.000456404
15 *245:11 *257:11 0.00050249
16 *245:11 *279:11 0.140493
17 *245:11 *280:19 0.000312722
18 *245:11 *282:11 0.151096
19 *245:11 *291:11 0.0111824
20 *245:11 *296:11 0.00248063
21 *245:11 *309:11 0
22 *245:11 *317:11 0.0102554
23 *245:11 *322:19 0.000665201
24 *245:11 *339:11 0.000814503
25 *245:11 *540:38 0.000814503
26 *245:11 *551:125 0.000814503
27 *245:11 *740:67 0.00242839
28 *245:15 gpio_holdover[31] 1.33921e-05
29 *245:15 *333:27 0
30 *245:15 *729:21 0.0325751
31 *245:15 *770:17 0
32 gpio_analog_pol[31] gpio_dm0[31] 0
33 *91:11 *245:11 0
34 *113:23 gpio_dm0[31] 0.000160637
35 *118:19 *245:11 0.000779695
36 *236:11 *245:11 0
37 *241:25 *245:15 0
38 *244:9 *245:9 0
*RES
1 *921:gpio_dm0[31] *245:9 12.9485 
2 *245:9 *245:11 387.71 
3 *245:11 *245:13 8 
4 *245:13 *245:15 571.713 
5 *245:15 gpio_dm0[31] 48.6364 
*END

*D_NET *246 0.975883
*CONN
*P gpio_dm0[32] O
*I *921:gpio_dm0[32] O *D CF_CARAVEL_SOC
*CAP
1 gpio_dm0[32] 0.00124127
2 *921:gpio_dm0[32] 0.00421931
3 *246:31 0.0169655
4 *246:29 0.0175708
5 *246:23 0.0400604
6 *246:21 0.039212
7 *246:11 0.0337052
8 *246:9 0.0369262
9 gpio_dm0[32] *548:23 0.000164186
10 *246:9 gpio_out[0] 0
11 *246:9 *247:9 0
12 *246:11 *270:19 0.0874716
13 *246:11 *342:11 0.00111973
14 *246:11 *444:11 0
15 *246:11 *567:18 0
16 *246:23 *286:31 0.0140855
17 gpio_analog_en[32] gpio_dm0[32] 0.000512949
18 *103:11 *246:11 0.0599228
19 *114:29 *246:29 0.00352976
20 *114:31 *246:31 0.0386657
21 *130:11 *246:11 0.00122546
22 *130:11 *246:21 0.000700794
23 *141:11 *246:11 0.00404741
24 *144:19 *246:11 0.00387493
25 *158:24 *246:23 0.268969
26 *158:32 gpio_dm0[32] 0.00152857
27 *180:11 *246:21 0.000463475
28 *203:15 *246:21 4.51815e-05
29 *205:53 *246:21 4.96824e-05
30 *216:11 *246:11 0.00181063
31 *228:25 *246:23 0.000318611
32 *229:15 *246:23 0.00292803
33 *230:21 *246:23 0.000884435
34 *230:25 *246:23 0.0196769
35 *243:11 *246:11 0.00241229
36 *244:15 *246:23 0.2711
37 *245:9 *246:9 0.000474163
*RES
1 *921:gpio_dm0[32] *246:9 18.6661 
2 *246:9 *246:11 1452.38 
3 *246:11 *246:21 27.3283 
4 *246:21 *246:23 502.891 
5 *246:23 *246:29 24.4336 
6 *246:29 *246:31 72.3987 
7 *246:31 gpio_dm0[32] 21.6039 
*END

*D_NET *247 1.04285
*CONN
*P gpio_dm0[33] O
*I *921:gpio_dm0[33] O *D CF_CARAVEL_SOC
*CAP
1 gpio_dm0[33] 0.00549855
2 *921:gpio_dm0[33] 0.0037461
3 *247:19 0.00841546
4 *247:17 0.00291691
5 *247:15 0.0443993
6 *247:13 0.0443993
7 *247:11 0.0230653
8 *247:9 0.0268114
9 *247:9 gpio_oeb[0] 0.000321131
10 *247:9 *248:9 0.000216819
11 *247:11 *274:61 0.000470768
12 *247:11 *288:67 0.000138759
13 *247:11 *331:13 0.000195307
14 *247:11 *430:27 0.0250494
15 *247:11 *442:11 0
16 *247:11 *530:113 0
17 *247:11 *562:123 0.00152175
18 *247:11 *694:10 0.0294218
19 *247:11 *705:39 0
20 *247:11 *716:15 0
21 *247:11 *727:15 0
22 *247:11 *738:15 0.00055833
23 *247:15 *286:31 0.0598818
24 *247:15 *375:31 5.78193e-05
25 *247:15 *391:15 0.000934776
26 *247:15 *391:29 0.000116663
27 *247:15 *787:15 0.000884566
28 *247:15 *788:15 0.000277713
29 *247:15 *831:31 0.297549
30 *247:19 *363:11 0.00666787
31 *247:19 *436:19 0.0109076
32 *247:19 *552:25 0
33 *247:19 *735:23 0.000131266
34 gpio_analog_en[33] gpio_dm0[33] 0.00259423
35 gpio_analog_pol[33] gpio_dm0[33] 0
36 *90:11 *247:11 0.000844933
37 *98:11 *247:11 0.00891027
38 *144:11 *247:11 0.00605953
39 *159:13 *247:11 0.00241688
40 *170:11 *247:11 0.0288042
41 *203:21 *247:19 0.00205849
42 *206:47 *247:15 0.302803
43 *206:57 gpio_dm0[33] 0.00700264
44 *207:19 *247:11 0.0677814
45 *223:11 *247:11 0.00484537
46 *228:25 *247:15 0.0140688
47 *230:21 *247:15 0
48 *242:25 *247:15 0.000101282
49 *244:15 *247:15 0
50 *246:9 *247:9 0
*RES
1 *921:gpio_dm0[33] *247:9 17.3781 
2 *247:9 *247:11 1457.31 
3 *247:11 *247:13 8 
4 *247:13 *247:15 561.882 
5 *247:15 *247:17 8 
6 *247:17 *247:19 164.244 
7 *247:19 gpio_dm0[33] 23.9703 
*END

*D_NET *248 0.848989
*CONN
*P gpio_dm0[34] O
*I *921:gpio_dm0[34] O *D CF_CARAVEL_SOC
*CAP
1 gpio_dm0[34] 0.00825836
2 *921:gpio_dm0[34] 0.00111724
3 *248:45 0.0122886
4 *248:35 0.0400513
5 *248:33 0.0369055
6 *248:29 0.00158781
7 *248:19 0.0467467
8 *248:17 0.0461385
9 *248:11 0.00638377
10 *248:9 0.00740582
11 gpio_dm0[34] *553:25 0.000438506
12 *248:9 *249:9 0
13 *248:11 *249:11 0.0140947
14 *248:11 *252:11 0.000239951
15 *248:11 *255:11 0.0274004
16 *248:11 *289:11 0.00168398
17 *248:11 *858:7 0
18 *248:17 *252:11 7.37564e-05
19 *248:17 *854:9 8.65972e-05
20 *248:19 *301:17 0.000100651
21 *248:19 *302:21 0.0135513
22 *248:19 *325:23 0.0201492
23 *248:19 *325:103 0.00706575
24 *248:19 *539:19 0.002013
25 *248:19 *552:13 0.240816
26 *248:19 *565:13 0.00406226
27 *248:19 *737:173 0.000370377
28 *248:19 *740:87 0.0083082
29 *248:19 *784:13 0.000829733
30 *248:19 *843:11 0.0191826
31 *248:19 *861:11 0.154224
32 *248:29 *546:23 0.000387597
33 *248:29 *552:23 0.00177692
34 *248:29 *785:25 0.000253776
35 *248:29 *804:21 9.80974e-05
36 *248:29 *825:23 0.000256744
37 *248:29 *853:17 1.73315e-05
38 *248:29 *862:21 5.36112e-05
39 *248:33 *453:47 0.000623397
40 *248:33 *461:21 0.000152253
41 *248:33 *462:21 0.000220423
42 *248:33 *855:15 0
43 *248:35 *408:11 0.00230532
44 *248:35 *423:11 0.00580235
45 *248:35 *453:41 0.0999786
46 *248:35 *453:47 1.20894e-05
47 *248:35 *468:11 0
48 *248:35 *543:31 0
49 *248:35 *737:65 0
50 *248:35 *793:11 0.0036748
51 *248:35 *855:15 0
52 *248:35 *862:23 0
53 *248:45 *353:11 0.00437071
54 *248:45 *380:11 0.0007749
55 *248:45 *385:11 0.00127978
56 *248:45 *416:11 0.00393371
57 *248:45 *421:11 0.000525971
58 *248:45 *451:21 0.000537283
59 *248:45 *777:15 0
60 gpio_analog_en[34] gpio_dm0[34] 0
61 gpio_analog_pol[34] gpio_dm0[34] 0.000162025
62 *247:9 *248:9 0.000216819
*RES
1 *921:gpio_dm0[34] *248:9 10.5461 
2 *248:9 *248:11 363.556 
3 *248:11 *248:17 17.7032 
4 *248:17 *248:19 3046.91 
5 *248:19 *248:29 36.1171 
6 *248:29 *248:33 21.1907 
7 *248:33 *248:35 1274.2 
8 *248:35 *248:45 48.6269 
9 *248:45 gpio_dm0[34] 37.3305 
*END

*D_NET *249 0.793
*CONN
*P gpio_dm0[35] O
*I *921:gpio_dm0[35] O *D CF_CARAVEL_SOC
*CAP
1 gpio_dm0[35] 0.00292367
2 *921:gpio_dm0[35] 0.00105
3 *249:27 0.0333971
4 *249:25 0.033335
5 *249:15 0.058619
6 *249:13 0.0557574
7 *249:11 0.0059194
8 *249:9 0.0069694
9 *249:9 *250:9 0.00015557
10 *249:11 *255:11 0.0001977
11 *249:11 *289:11 0.00119327
12 *249:11 *858:7 0
13 *249:15 *364:39 0
14 *249:15 *389:23 0.0711164
15 *249:15 *390:23 0
16 *249:15 *845:11 0.015566
17 *249:15 *845:19 0.0409725
18 *249:15 *847:8 0.0021238
19 *249:15 *852:11 0
20 *249:25 *390:21 0.000107851
21 *249:25 *545:11 0.000100139
22 *249:25 *554:23 0.000817711
23 *249:25 *559:27 0.00600825
24 *249:25 *760:21 0.00116352
25 *249:25 *829:33 0.000122266
26 *249:25 *852:25 0.000111878
27 *249:25 *854:25 0.000120138
28 *249:27 *465:11 0.092142
29 *249:27 *472:15 0
30 *249:27 *802:11 0.0027658
31 gpio_analog_en[35] gpio_dm0[35] 3.28503e-05
32 gpio_analog_pol[35] gpio_dm0[35] 0.00347724
33 *126:15 *249:15 0.0117969
34 *162:27 *249:27 0.0175503
35 *170:19 *249:11 0
36 *212:19 *249:11 0.0268709
37 *228:11 *249:11 0.000233898
38 *238:15 *249:15 0.286188
39 *248:9 *249:9 0
40 *248:11 *249:11 0.0140947
*RES
1 *921:gpio_dm0[35] *249:9 10.464 
2 *249:9 *249:11 355.281 
3 *249:11 *249:13 15 
4 *249:13 *249:15 3057.86 
5 *249:15 *249:25 44.5494 
6 *249:25 *249:27 1186.16 
7 *249:27 gpio_dm0[35] 15.2623 
*END

*D_NET *250 0.967027
*CONN
*P gpio_dm0[36] O
*I *921:gpio_dm0[36] O *D CF_CARAVEL_SOC
*CAP
1 gpio_dm0[36] 0.00561315
2 *921:gpio_dm0[36] 0.00203303
3 *250:35 0.0181882
4 *250:33 0.0137579
5 *250:23 0.0375784
6 *250:21 0.0364696
7 *250:11 0.0220359
8 *250:9 0.0239949
9 gpio_dm0[36] gpio_inp_dis[36] 0
10 gpio_dm0[36] *822:9 0
11 gpio_dm0[36] *832:15 0.000283743
12 *250:9 *251:9 0
13 *250:9 *258:11 0.000120752
14 *250:9 *340:19 0.000227734
15 *250:11 *251:11 0.000579883
16 *250:11 *256:11 0.00195617
17 *250:11 *257:11 0.00195617
18 *250:11 *296:11 0.00238654
19 *250:11 *309:11 0
20 *250:11 *540:38 0.00195617
21 *250:11 *551:125 0.00188133
22 *250:21 *251:11 2.11157e-05
23 *250:23 *284:15 0.000445532
24 *250:23 *446:27 0.000207337
25 *250:23 *561:18 0.0268924
26 *250:23 *563:14 0.000719416
27 *250:23 *566:13 0.00189165
28 *250:23 *781:23 0.0214501
29 *250:23 *783:15 0.000392348
30 *250:23 *785:27 0
31 *250:23 *804:23 0.285445
32 *250:23 *844:13 0.28322
33 *250:33 *251:25 0.00019609
34 *250:33 *546:23 0.00330832
35 *250:33 *785:25 2.15575e-05
36 *250:33 *825:23 0.000531864
37 *250:33 *859:19 0.00246815
38 *250:33 *860:15 5.03962e-05
39 *250:35 *251:27 0.0596457
40 *250:35 *295:27 0.0066648
41 *250:35 *420:11 0.00514971
42 *250:35 *456:27 0.00303562
43 *250:35 *469:11 0.0748625
44 *250:35 *554:23 0
45 *250:35 *803:11 0.00901769
46 gpio_analog_en[36] gpio_dm0[36] 0.00113891
47 gpio_analog_pol[36] gpio_dm0[36] 0.00352886
48 *118:19 *250:11 0.00381622
49 *228:11 *250:11 0
50 *236:11 *250:11 0
51 *245:11 *250:11 0.00172959
52 *249:9 *250:9 0.00015557
*RES
1 *921:gpio_dm0[36] *250:9 12.7768 
2 *250:9 *250:11 68.3461 
3 *250:11 *250:21 31.42 
4 *250:21 *250:23 3051.67 
5 *250:23 *250:33 40.0583 
6 *250:33 *250:35 983.328 
7 *250:35 gpio_dm0[36] 22.0009 
*END

*D_NET *251 0.783808
*CONN
*P gpio_dm0[37] O
*I *921:gpio_dm0[37] O *D CF_CARAVEL_SOC
*CAP
1 gpio_dm0[37] 0.00633549
2 *921:gpio_dm0[37] 0.00210908
3 *251:27 0.0173806
4 *251:25 0.0119302
5 *251:15 0.0485561
6 *251:13 0.047671
7 *251:11 0.00815818
8 *251:9 0.0102673
9 *251:9 *252:9 0
10 *251:9 *258:11 0.000120752
11 *251:9 *340:19 0.000227734
12 *251:11 *253:11 0
13 *251:11 *296:11 0.00893252
14 *251:11 *322:35 0
15 *251:11 *740:67 0.00141925
16 *251:11 *740:75 0
17 *251:11 *861:9 0
18 *251:15 *284:23 0.0151881
19 *251:15 *335:33 0.0422707
20 *251:15 *387:23 0.0465472
21 *251:15 *428:23 0.00206103
22 *251:15 *538:43 0.0239279
23 *251:15 *692:27 0
24 *251:15 *692:35 0.000126533
25 *251:15 *695:75 0.0231131
26 *251:15 *736:43 0.0100961
27 *251:15 *740:171 0.0141891
28 *251:15 *855:11 0.287374
29 *251:15 *857:11 0.0126995
30 *251:25 *387:15 5.56039e-05
31 *251:25 *549:23 0.000341812
32 *251:25 *855:15 0
33 *251:25 *857:15 0
34 *251:25 *863:21 0.000790647
35 *251:27 *295:27 0.00775485
36 *251:27 *384:11 0.000690819
37 *251:27 *420:11 0.00194276
38 *251:27 *456:27 0.0302486
39 gpio_analog_en[37] gpio_dm0[37] 0.00107467
40 gpio_analog_en[38] *251:15 0.000107674
41 gpio_analog_pol[37] gpio_dm0[37] 0.000465276
42 *118:19 *251:11 0.0266501
43 *120:15 *251:15 0.0125413
44 *250:9 *251:9 0
45 *250:11 *251:11 0.000579883
46 *250:21 *251:11 2.11157e-05
47 *250:33 *251:25 0.00019609
48 *250:35 *251:27 0.0596457
*RES
1 *921:gpio_dm0[37] *251:9 12.8197 
2 *251:9 *251:11 393.665 
3 *251:11 *251:13 15 
4 *251:13 *251:15 3081.69 
5 *251:15 *251:25 38.8744 
6 *251:25 *251:27 762.886 
7 *251:27 gpio_dm0[37] 22.1316 
*END

*D_NET *252 0.567541
*CONN
*P gpio_dm0[38] O
*I *921:gpio_dm0[38] O *D CF_CARAVEL_SOC
*CAP
1 gpio_dm0[38] 0.000536693
2 *921:gpio_dm0[38] 0.00110737
3 *252:15 0.0668074
4 *252:13 0.0662707
5 *252:11 0.00582167
6 *252:9 0.00692903
7 *252:9 *253:9 0
8 *252:9 *258:11 0.000120752
9 *252:9 *340:19 0.000227734
10 *252:11 *255:11 0.000487199
11 *252:11 *289:11 0.003157
12 *252:11 *294:11 0.0286398
13 *252:11 *295:11 0.028056
14 *252:11 *852:9 0.00170414
15 *252:11 *853:9 2.05503e-05
16 *252:11 *854:9 0.000170492
17 *252:15 gpio_dm0[43] 0.00496113
18 *252:15 *297:22 0.00655986
19 *252:15 *300:27 0.0311783
20 *252:15 *301:17 0
21 *252:15 *345:23 0.0117721
22 *252:15 *385:15 0.055767
23 *252:15 *538:51 0.0127745
24 *252:15 *549:13 0.00716879
25 *252:15 *560:27 0.0525802
26 *252:15 *566:13 0.00842932
27 *252:15 *692:35 0.0119324
28 *252:15 *693:193 0.000938094
29 *252:15 *697:115 0.00240953
30 *252:15 *698:27 0.0233472
31 *252:15 *739:140 0.00368854
32 *252:15 *741:168 0.00780461
33 *252:15 *829:35 0.000167423
34 *252:15 *853:11 0.0470346
35 *252:15 *859:11 0.0088911
36 *252:15 *860:11 0.0276791
37 *252:15 *865:11 0.0237059
38 *252:15 *867:11 0.00810383
39 gpio_analog_pol[38] gpio_dm0[38] 0
40 gpio_analog_sel[43] *252:15 0.000277302
41 *167:15 *252:11 0
42 *248:11 *252:11 0.000239951
43 *248:17 *252:11 7.37564e-05
44 *251:9 *252:9 0
*RES
1 *921:gpio_dm0[38] *252:9 10.4155 
2 *252:9 *252:11 395.249 
3 *252:11 *252:13 8 
4 *252:13 *252:15 428.702 
5 *252:15 gpio_dm0[38] 15.5089 
*END

*D_NET *253 0.535778
*CONN
*P gpio_dm0[39] O
*I *921:gpio_dm0[39] O *D CF_CARAVEL_SOC
*CAP
1 gpio_dm0[39] 0.0019989
2 *921:gpio_dm0[39] 0.00182578
3 *253:15 0.0325202
4 *253:13 0.0305213
5 *253:11 0.00601613
6 *253:9 0.00784191
7 *253:11 *740:75 0.0241521
8 *253:15 *338:71 0.00111669
9 *253:15 *340:39 0.171848
10 *253:15 *386:207 0.00824298
11 *253:15 *545:11 0.0228763
12 *253:15 *554:13 0.0242999
13 *253:15 *847:16 0.000414177
14 gpio_analog_en[39] gpio_dm0[39] 0.000546259
15 gpio_analog_pol[39] gpio_dm0[39] 0
16 *118:19 *253:11 0
17 *164:33 *253:15 0.000257314
18 *164:41 gpio_dm0[39] 0.000189344
19 *168:15 *253:15 0.00088442
20 *169:15 *253:15 0.000299371
21 *209:15 *253:15 0.170735
22 *213:15 *253:15 9.41002e-05
23 *233:11 *253:11 0.00135392
24 *236:11 *253:11 0.00104075
25 *238:11 *253:11 0.0231608
26 *244:11 *253:11 0.00354215
27 *251:11 *253:11 0
28 *252:9 *253:9 0
*RES
1 *921:gpio_dm0[39] *253:9 11.8341 
2 *253:9 *253:11 374.825 
3 *253:11 *253:13 8 
4 *253:13 *253:15 329.183 
5 *253:15 gpio_dm0[39] 41.0082 
*END

*D_NET *254 0.137622
*CONN
*P gpio_dm0[3] O
*I *921:gpio_dm0[3] O *D CF_CARAVEL_SOC
*CAP
1 gpio_dm0[3] 0.00575556
2 *921:gpio_dm0[3] 0.00376536
3 *254:11 0.0299443
4 *254:9 0.0279541
5 gpio_dm0[3] gpio_dm1[3] 0
6 gpio_dm0[3] gpio_inp_dis[3] 0
7 gpio_dm0[3] *281:11 0.000105438
8 gpio_dm0[3] *375:59 6.39976e-05
9 *254:9 *259:9 0
10 *254:11 *270:15 0.00785591
11 *254:11 *331:13 0.00983866
12 *254:11 *342:11 0.0256261
13 *254:11 *530:113 0.000254406
14 *254:11 *567:18 0.00378941
15 gpio_analog_en[3] gpio_dm0[3] 0.00387875
16 gpio_analog_pol[3] gpio_dm0[3] 0
17 *93:11 *254:11 0.000221845
18 *144:11 *254:11 0.00656385
19 *144:19 *254:11 0.000808072
20 *207:19 *254:11 0.00121259
21 *221:13 *254:11 0
22 *223:11 *254:11 0.00813171
23 *225:15 *254:11 0.00185246
24 *243:9 *254:9 0
25 *243:11 *254:11 0
*RES
1 *921:gpio_dm0[3] *254:9 17.9363 
2 *254:9 *254:11 148.314 
3 *254:11 gpio_dm0[3] 40.9556 
*END

*D_NET *255 0.448356
*CONN
*P gpio_dm0[40] O
*I *921:gpio_dm0[40] O *D CF_CARAVEL_SOC
*CAP
1 gpio_dm0[40] 0.00196681
2 *921:gpio_dm0[40] 0.000863197
3 *255:15 0.027646
4 *255:13 0.0256792
5 *255:11 0.00576665
6 *255:9 0.00662985
7 *255:9 *256:9 0.00020968
8 *255:11 *289:11 0.00199263
9 *255:11 *295:11 0.0291634
10 *255:15 *289:21 2.37707e-05
11 *255:15 *297:14 0.141279
12 *255:15 *322:145 0.000112764
13 *255:15 *339:23 0.000602616
14 *255:15 *343:15 0.143534
15 *255:15 *364:39 0.0306849
16 *255:15 *390:23 0.000263068
17 *255:15 *827:19 0.00338874
18 *255:15 *828:15 2.90716e-05
19 *255:15 *852:11 0.000297381
20 gpio_analog_en[40] gpio_dm0[40] 0
21 gpio_analog_pol[40] gpio_dm0[40] 0
22 *168:15 *255:15 5.40953e-05
23 *208:19 *255:15 1.61994e-05
24 *208:27 gpio_dm0[40] 6.72854e-05
25 *212:19 *255:11 0
26 *248:11 *255:11 0.0274004
27 *249:11 *255:11 0.0001977
28 *252:11 *255:11 0.000487199
*RES
1 *921:gpio_dm0[40] *255:9 10.0795 
2 *255:9 *255:11 387.502 
3 *255:11 *255:13 8 
4 *255:13 *255:15 276.375 
5 *255:15 gpio_dm0[40] 37.3004 
*END

*D_NET *256 0.398015
*CONN
*P gpio_dm0[41] O
*I *921:gpio_dm0[41] O *D CF_CARAVEL_SOC
*CAP
1 gpio_dm0[41] 8.54264e-05
2 *921:gpio_dm0[41] 0.00216127
3 *256:19 0.00287961
4 *256:15 0.0250228
5 *256:13 0.0222286
6 *256:11 0.00486061
7 *256:9 0.00702187
8 *256:9 *257:9 0
9 *256:9 *258:11 0.000120752
10 *256:9 *340:19 0.000227734
11 *256:11 *257:11 0.029588
12 *256:11 *339:11 0
13 *256:11 *441:11 0.000183418
14 *256:11 *540:38 0.0284077
15 *256:15 *257:15 0.000920842
16 *256:15 *299:23 0.117733
17 *256:15 *484:15 0.0215827
18 *256:15 *548:11 0.0134895
19 *256:15 *815:49 0.000139955
20 gpio_analog_en[41] *256:19 0
21 gpio_analog_pol[41] *256:19 0
22 *121:15 *256:15 0.118294
23 *211:13 *256:15 0.000192096
24 *212:23 *256:15 0.000252225
25 *245:11 *256:11 0.000456404
26 *250:11 *256:11 0.00195617
27 *255:9 *256:9 0.00020968
*RES
1 *921:gpio_dm0[41] *256:9 13.2491 
2 *256:9 *256:11 377.642 
3 *256:11 *256:13 8 
4 *256:13 *256:15 227.86 
5 *256:15 *256:19 48.4964 
6 *256:19 gpio_dm0[41] 1.64679 
*END

*D_NET *257 0.341463
*CONN
*P gpio_dm0[42] O
*I *921:gpio_dm0[42] O *D CF_CARAVEL_SOC
*CAP
1 gpio_dm0[42] 0.00232493
2 *921:gpio_dm0[42] 0.00221007
3 *257:15 0.0195995
4 *257:13 0.0172746
5 *257:11 0.00484452
6 *257:9 0.0070546
7 *257:9 *258:9 0
8 *257:9 *258:11 0.000120752
9 *257:9 *340:19 0.000227734
10 *257:11 *296:11 0.0301255
11 *257:11 *339:11 0
12 *257:11 *540:38 0.000229774
13 *257:15 *296:23 0.0271963
14 *257:15 *339:15 0.0166378
15 *257:15 *771:27 0.00377409
16 *257:15 *842:11 0.0193103
17 gpio_analog_pol[42] gpio_dm0[42] 0
18 *121:15 *257:15 0.0913802
19 *125:19 gpio_dm0[42] 0.00119541
20 *169:15 *257:15 0
21 *170:23 *257:15 0.0649897
22 *245:11 *257:11 0.00050249
23 *250:11 *257:11 0.00195617
24 *256:9 *257:9 0
25 *256:11 *257:11 0.029588
26 *256:15 *257:15 0.000920842
*RES
1 *921:gpio_dm0[42] *257:9 13.1632 
2 *257:9 *257:11 384.685 
3 *257:11 *257:13 8 
4 *257:13 *257:15 176.855 
5 *257:15 gpio_dm0[42] 47.6161 
*END

*D_NET *258 0.224086
*CONN
*P gpio_dm0[43] O
*I *921:gpio_dm0[43] O *D CF_CARAVEL_SOC
*CAP
1 gpio_dm0[43] 0.00202022
2 *921:gpio_dm0[43] 0.000281433
3 *258:33 0.00467959
4 *258:29 0.00330627
5 *258:19 0.0104061
6 *258:17 0.00975919
7 *258:15 0.00811364
8 *258:13 0.00814087
9 *258:11 0.00291569
10 *258:9 0.0031699
11 gpio_dm0[43] *549:13 0.000433743
12 gpio_dm0[43] *697:115 0.00217736
13 gpio_dm0[43] *698:27 0.000527996
14 gpio_dm0[43] *860:11 0.000615913
15 gpio_dm0[43] *865:11 0.000711077
16 gpio_dm0[43] *867:11 0.000602664
17 *258:9 *340:11 0.00010255
18 *258:9 *340:19 6.56182e-06
19 *258:11 *299:11 0.00390442
20 *258:11 *340:11 6.44037e-05
21 *258:15 *299:11 0.0215707
22 *258:15 *300:11 4.29056e-05
23 *258:15 *300:15 0.00118544
24 *258:15 *340:19 0.000905679
25 *258:15 *340:31 0.000909939
26 *258:15 *341:14 0.00192214
27 *258:19 *344:15 0.0560126
28 *258:19 *430:23 0.0102195
29 *258:19 *815:49 0.0560157
30 *258:29 *815:49 0.00306529
31 *258:29 *839:31 0.000107842
32 *258:29 *840:11 0.000503148
33 *258:29 *846:13 0.000580889
34 gpio_analog_en[43] gpio_dm0[43] 0
35 gpio_analog_pol[43] gpio_dm0[43] 0
36 *211:9 *258:11 0
37 *211:9 *258:15 0
38 *212:23 *258:29 0.00306529
39 *226:9 *258:15 0.000112317
40 *239:9 *258:11 0.000120707
41 *244:9 *258:11 0.000120707
42 *245:9 *258:11 0.000120707
43 *250:9 *258:11 0.000120752
44 *251:9 *258:11 0.000120752
45 *252:9 *258:11 0.000120752
46 *252:15 gpio_dm0[43] 0.00496113
47 *256:9 *258:11 0.000120752
48 *257:9 *258:9 0
49 *257:9 *258:11 0.000120752
*RES
1 *921:gpio_dm0[43] *258:9 8.5712 
2 *258:9 *258:11 94.2293 
3 *258:11 *258:13 0.621429 
4 *258:13 *258:15 291.305 
5 *258:15 *258:17 8 
6 *258:17 *258:19 106.101 
7 *258:19 *258:29 31.3626 
8 *258:29 *258:33 46.1764 
9 *258:33 gpio_dm0[43] 22.6251 
*END

*D_NET *259 0.201743
*CONN
*P gpio_dm0[4] O
*I *921:gpio_dm0[4] O *D CF_CARAVEL_SOC
*CAP
1 gpio_dm0[4] 0.00503044
2 *921:gpio_dm0[4] 0.00457755
3 *259:11 0.0285125
4 *259:9 0.0280597
5 gpio_dm0[4] gpio_dm1[4] 0
6 *259:9 *260:9 0
7 *259:11 *260:11 0.0105714
8 *259:11 *266:11 0.00666151
9 *259:11 *304:11 0
10 *259:11 *312:15 0.0067185
11 *259:11 *419:197 0.00116713
12 *259:11 *532:36 0.0137034
13 gpio_analog_en[4] gpio_dm0[4] 0.000366013
14 gpio_analog_pol[4] gpio_dm0[4] 0
15 *94:11 *259:11 0.00021124
16 *128:11 *259:11 2.38407e-05
17 *129:11 *259:11 0.023207
18 *132:11 *259:11 0.000129945
19 *177:11 *259:11 0.0646837
20 *183:9 gpio_dm0[4] 0.00114707
21 *215:13 *259:11 0.00269037
22 *232:11 *259:11 0.00428147
23 *243:11 *259:11 0
24 *254:9 *259:9 0
*RES
1 *921:gpio_dm0[4] *259:9 20.5123 
2 *259:9 *259:11 189.694 
3 *259:11 gpio_dm0[4] 19.3465 
*END

*D_NET *260 0.21721
*CONN
*P gpio_dm0[5] O
*I *921:gpio_dm0[5] O *D CF_CARAVEL_SOC
*CAP
1 gpio_dm0[5] 0.00461111
2 *921:gpio_dm0[5] 0.00442702
3 *260:19 0.0223146
4 *260:17 0.0181635
5 *260:11 0.0110706
6 *260:9 0.0150377
7 gpio_dm0[5] gpio_dm1[5] 0
8 gpio_dm0[5] gpio_inp_dis[5] 3.76422e-06
9 gpio_dm0[5] *281:11 0.000159751
10 gpio_dm0[5] *782:47 9.66844e-05
11 *260:9 *261:9 0
12 *260:11 *276:13 0.000701492
13 *260:11 *304:11 0.00416022
14 *260:17 gpio_dm1[1] 7.30034e-05
15 *260:19 *312:19 0.0415182
16 *260:19 *535:121 0.0732925
17 *260:19 *568:15 0
18 gpio_analog_en[1] *260:17 3.7992e-05
19 gpio_analog_en[5] gpio_dm0[5] 0.00251984
20 gpio_analog_pol[5] gpio_dm0[5] 0.00022577
21 *94:11 *260:19 0.00309916
22 *100:11 *260:19 0.00325775
23 *122:13 *260:19 0.000682401
24 *171:13 *260:19 0.000935226
25 *177:11 *260:19 0.000100357
26 *215:13 *260:19 0.000149504
27 *243:11 *260:11 0
28 *259:9 *260:9 0
29 *259:11 *260:11 0.0105714
*RES
1 *921:gpio_dm0[5] *260:9 19.9971 
2 *260:9 *260:11 61.7456 
3 *260:11 *260:17 17.2152 
4 *260:17 *260:19 933.324 
5 *260:19 gpio_dm0[5] 39.1143 
*END

*D_NET *261 0.290154
*CONN
*P gpio_dm0[6] O
*I *921:gpio_dm0[6] O *D CF_CARAVEL_SOC
*CAP
1 gpio_dm0[6] 0.00264308
2 *921:gpio_dm0[6] 0.0068687
3 *261:11 0.0254433
4 *261:9 0.0296689
5 gpio_dm0[6] gpio_inp_dis[6] 0
6 *261:9 *262:9 0
7 *261:11 *269:11 0.00669186
8 *261:11 *347:11 0.00231364
9 *261:11 *386:211 0.064719
10 *261:11 *571:39 0.0465112
11 *261:11 *826:131 0.065814
12 gpio_analog_en[6] gpio_dm0[6] 0.000747097
13 gpio_analog_pol[6] gpio_dm0[6] 0
14 *220:11 *261:11 0.0387331
15 *260:9 *261:9 0
*RES
1 *921:gpio_dm0[6] *261:9 25.8789 
2 *261:9 *261:11 1508.02 
3 *261:11 gpio_dm0[6] 14.0097 
*END

*D_NET *262 0.382767
*CONN
*P gpio_dm0[7] O
*I *921:gpio_dm0[7] O *D CF_CARAVEL_SOC
*CAP
1 gpio_dm0[7] 0.00116674
2 *921:gpio_dm0[7] 0.00814245
3 *262:18 1.48355e-05
4 *262:11 0.061519
5 *262:9 0.0685095
6 *262:9 *263:9 0
7 *262:11 *268:11 0.00110128
8 *262:11 *430:35 0.000799645
9 *262:11 *482:11 0.185928
10 *262:11 *782:55 0.00203487
11 gpio_analog_en[7] gpio_dm0[7] 0
12 gpio_analog_pol[7] gpio_dm0[7] 0.000724117
13 *210:11 *262:11 0.0112806
14 *217:11 *262:11 0.0415462
15 *261:9 *262:9 0
*RES
1 *921:gpio_dm0[7] *262:9 28.4549 
2 *262:9 *262:11 2422.18 
3 *262:11 gpio_dm0[7] 10.9885 
4 gpio_dm0[7] *262:18 0.0569333 
*END

*D_NET *263 0.389333
*CONN
*P gpio_dm0[8] O
*I *921:gpio_dm0[8] O *D CF_CARAVEL_SOC
*CAP
1 gpio_dm0[8] 0.00285173
2 *921:gpio_dm0[8] 0.00610054
3 *263:11 0.0665522
4 *263:9 0.069801
5 *263:9 *264:9 0
6 *263:11 *277:11 0
7 *263:11 *306:11 0.167879
8 *263:11 *787:27 0.0032941
9 *263:11 *793:31 0.0102756
10 *263:11 *804:27 0.00422034
11 gpio_analog_en[8] gpio_dm0[8] 0.000999242
12 gpio_analog_pol[8] gpio_dm0[8] 0.000435266
13 *165:11 *263:11 0.0541377
14 *195:11 *263:11 0.00171244
15 *218:11 *263:11 0.00107413
16 *222:19 *263:11 0
17 *262:9 *263:9 0
*RES
1 *921:gpio_dm0[8] *263:9 24.4192 
2 *263:9 *263:11 2648.26 
3 *263:11 gpio_dm0[8] 15.5068 
*END

*D_NET *264 0.475584
*CONN
*P gpio_dm0[9] O
*I *921:gpio_dm0[9] O *D CF_CARAVEL_SOC
*CAP
1 gpio_dm0[9] 0.0013611
2 *921:gpio_dm0[9] 0.00741505
3 *264:11 0.0587157
4 *264:9 0.0647696
5 gpio_dm0[9] gpio_inp_dis[9] 0
6 *264:11 *311:11 0.186524
7 *264:11 *364:43 0.0275252
8 *264:11 *394:29 0
9 *264:11 *815:53 0.00654107
10 gpio_analog_en[9] gpio_dm0[9] 0.00223084
11 gpio_analog_pol[9] gpio_dm0[9] 0.000551137
12 *222:9 *264:9 0
13 *230:11 *264:11 0.11995
14 *263:9 *264:9 0
*RES
1 *921:gpio_dm0[9] *264:9 26.9952 
2 *264:9 *264:11 2877.15 
3 *264:11 gpio_dm0[9] 12.662 
*END

*D_NET *265 0.0448867
*CONN
*P gpio_dm1[0] O
*I *921:gpio_dm1[0] O *D CF_CARAVEL_SOC
*CAP
1 gpio_dm1[0] 0.00710437
2 *921:gpio_dm1[0] 0.00682958
3 *265:13 0.013934
4 *265:13 *276:13 0
5 *265:13 *309:11 0.00636036
6 *265:13 *443:19 0
7 *265:13 *452:11 0.0008496
8 *265:13 *463:11 0.0008496
9 *265:13 *474:11 0.00103652
10 *265:13 *479:11 0.00132831
11 *265:13 *480:11 0.00151492
12 *265:13 *534:15 0.000312229
13 *265:13 *571:31 0.00114118
14 gpio_analog_en[0] gpio_dm1[0] 0
15 gpio_dm0[0] gpio_dm1[0] 0.00362605
*RES
1 *921:gpio_dm1[0] *265:13 41.8888 
2 *265:13 gpio_dm1[0] 18.3073 
*END

*D_NET *266 0.553941
*CONN
*P gpio_dm1[10] O
*I *921:gpio_dm1[10] O *D CF_CARAVEL_SOC
*CAP
1 gpio_dm1[10] 0.00527675
2 *921:gpio_dm1[10] 0.00466042
3 *266:11 0.0422053
4 *266:9 0.0415889
5 gpio_dm1[10] *750:15 0
6 *266:9 *267:13 0
7 *266:9 *308:9 0.00104027
8 *266:11 *312:19 0
9 *266:11 *419:197 0.0268316
10 *266:11 *532:36 0.223575
11 *266:11 *568:15 0.0061771
12 gpio_analog_en[10] gpio_dm1[10] 0
13 *100:11 *266:11 0.00118168
14 *122:13 *266:11 0.0001646
15 *129:11 *266:11 0.000304678
16 *132:11 *266:11 0.167709
17 *136:11 *266:11 0.0239967
18 *171:13 *266:11 0.00256719
19 *259:11 *266:11 0.00666151
*RES
1 *921:gpio_dm1[10] *266:9 20.6411 
2 *266:9 *266:11 2843.35 
3 *266:11 gpio_dm1[10] 19.9943 
*END

*D_NET *267 0.519783
*CONN
*P gpio_dm1[11] O
*I *921:gpio_dm1[11] O *D CF_CARAVEL_SOC
*CAP
1 gpio_dm1[11] 0.00378249
2 *921:gpio_dm1[11] 0.00605064
3 *267:23 0.0573524
4 *267:21 0.0540631
5 *267:15 0.0115774
6 *267:13 0.0171348
7 *267:13 *268:9 0
8 *267:13 *298:11 0.000186795
9 *267:15 *298:11 0.013791
10 *267:23 gpio_oeb[3] 0.000130552
11 *267:23 *445:11 0
12 *267:23 *692:23 0.00669532
13 gpio_analog_en[11] gpio_dm1[11] 0
14 gpio_analog_sel[2] *267:21 0
15 *169:11 *267:15 0.00411359
16 *178:19 *267:23 0.147874
17 *222:11 *267:13 2.13985e-05
18 *222:19 *267:23 0.197009
19 *266:9 *267:13 0
*RES
1 *921:gpio_dm1[11] *267:13 23.0659 
2 *267:13 *267:15 56.5413 
3 *267:15 *267:21 17.1293 
4 *267:21 *267:23 2758.83 
5 *267:23 gpio_dm1[11] 16.3543 
*END

*D_NET *268 0.436298
*CONN
*P gpio_dm1[12] O
*I *921:gpio_dm1[12] O *D CF_CARAVEL_SOC
*CAP
1 gpio_dm1[12] 0.00150679
2 *921:gpio_dm1[12] 0.00878462
3 *268:11 0.10098
4 *268:9 0.108257
5 *268:9 *269:9 0
6 *268:11 gpio_holdover[10] 0
7 *268:11 gpio_ib_mode_sel[8] 0
8 *268:11 gpio_oeb[9] 0
9 *268:11 gpio_out[8] 0
10 *268:11 *482:11 0.164495
11 gpio_analog_en[12] gpio_dm1[12] 0
12 gpio_analog_pol[10] *268:11 0
13 gpio_analog_pol[9] *268:11 0
14 *222:17 *268:9 0
15 *229:11 *268:11 0.0511741
16 *262:11 *268:11 0.00110128
17 *267:13 *268:9 0
*RES
1 *921:gpio_dm1[12] *268:9 28.2832 
2 *268:9 *268:11 3303.25 
3 *268:11 gpio_dm1[12] 11.3217 
*END

*D_NET *269 0.483028
*CONN
*P gpio_dm1[13] O
*I *921:gpio_dm1[13] O *D CF_CARAVEL_SOC
*CAP
1 gpio_dm1[13] 0.00274805
2 *921:gpio_dm1[13] 0.00749294
3 *269:11 0.12578
4 *269:9 0.130525
5 *269:9 *270:9 0
6 *269:11 *273:11 0
7 *269:11 *327:63 0.019415
8 *269:11 *386:211 0.0424161
9 *168:11 *269:11 0
10 *183:11 *269:11 0
11 *201:11 *269:11 0
12 *220:11 *269:11 0.147958
13 *261:11 *269:11 0.00669186
14 *268:9 *269:9 0
*RES
1 *921:gpio_dm1[13] *269:9 25.7072 
2 *269:9 *269:11 3757.51 
3 *269:11 gpio_dm1[13] 14.2636 
*END

*D_NET *270 0.622145
*CONN
*P gpio_dm1[14] O
*I *921:gpio_dm1[14] O *D CF_CARAVEL_SOC
*CAP
1 gpio_dm1[14] 0.00517585
2 *921:gpio_dm1[14] 0.00394929
3 *270:19 0.111615
4 *270:17 0.106439
5 *270:15 0.00398686
6 *270:9 0.00793615
7 gpio_dm1[14] gpio_slow_sel[14] 0
8 *270:15 *331:13 0.000788135
9 *270:15 *347:9 0.000263768
10 *270:15 *530:113 0.00127529
11 *270:19 *342:11 0.000451492
12 *270:19 *444:11 0
13 gpio_dm0[14] gpio_dm1[14] 0
14 *103:11 *270:19 0.0191111
15 *111:15 *270:19 0.00176714
16 *130:11 *270:19 0.0106233
17 *134:11 *270:19 0.00572119
18 *138:11 *270:19 0
19 *141:11 *270:19 0.00404741
20 *144:19 *270:19 0.00379654
21 *179:11 *270:19 0.00198015
22 *207:19 *270:15 0.00225883
23 *216:11 *270:19 0.00210753
24 *223:11 *270:15 0.014796
25 *223:19 *270:19 0.218728
26 *246:11 *270:19 0.0874716
27 *254:11 *270:15 0.00785591
28 *269:9 *270:9 0
*RES
1 *921:gpio_dm1[14] *270:9 17.5928 
2 *270:9 *270:15 43.3715 
3 *270:15 *270:17 8 
4 *270:17 *270:19 4023.73 
5 *270:19 gpio_dm1[14] 21.3756 
*END

*D_NET *271 0.564007
*CONN
*P gpio_dm1[15] O
*I *921:gpio_dm1[15] O *D CF_CARAVEL_SOC
*CAP
1 gpio_dm1[15] 9.49606e-05
2 *921:gpio_dm1[15] 0.00172544
3 *271:27 0.107715
4 *271:25 0.10836
5 *271:15 0.00244174
6 *271:13 0.00170162
7 *271:11 0.0170597
8 *271:9 0.0187851
9 *271:9 *272:9 0.00037312
10 *271:9 *340:11 0.000142505
11 *271:11 *272:11 0.0998285
12 *271:11 *286:11 0.0938768
13 *271:15 *274:125 0.000960289
14 *271:15 *315:15 0.00485888
15 *271:15 *337:39 0.000500782
16 *271:15 *833:31 2.50118e-05
17 *271:25 *315:25 0.00350595
18 *271:27 *277:21 0
19 *271:27 *536:153 0.0905465
20 *271:27 *537:118 0.000595029
21 *118:19 *271:11 0
22 *161:15 *271:25 0.00319501
23 *236:11 *271:11 0.00764111
24 *244:11 *271:11 7.48354e-05
*RES
1 *921:gpio_dm1[15] *271:9 12.1328 
2 *271:9 *271:11 1277.19 
3 *271:11 *271:13 15 
4 *271:13 *271:15 53.9814 
5 *271:15 *271:25 41.2613 
6 *271:25 *271:27 3128.58 
7 *271:27 gpio_dm1[15] 1.86429 
*END

*D_NET *272 0.625347
*CONN
*P gpio_dm1[16] O
*I *921:gpio_dm1[16] O *D CF_CARAVEL_SOC
*CAP
1 gpio_dm1[16] 0.139333
2 *921:gpio_dm1[16] 0.00146532
3 *272:17 0.139333
4 *272:15 0.0152101
5 *272:13 0.0152101
6 *272:11 0.0173761
7 *272:9 0.0188415
8 *272:9 *273:9 0
9 *272:11 *286:11 0.000810635
10 *272:11 *324:11 0.0790175
11 *272:15 *281:15 0.00228958
12 *272:15 *286:15 0.00620264
13 *114:23 *272:15 0.0119389
14 *184:15 *272:15 0.0560225
15 *236:11 *272:11 0.0102956
16 *244:11 *272:11 0.0117983
17 *271:9 *272:9 0.00037312
18 *271:11 *272:11 0.0998285
*RES
1 *921:gpio_dm1[16] *272:9 11.5392 
2 *272:9 *272:11 1299.38 
3 *272:11 *272:13 15 
4 *272:13 *272:15 614.261 
5 *272:15 *272:17 15 
6 *272:17 gpio_dm1[16] 3108.97 
*END

*D_NET *273 0.712579
*CONN
*P gpio_dm1[17] O
*I *921:gpio_dm1[17] O *D CF_CARAVEL_SOC
*CAP
1 gpio_dm1[17] 0.136537
2 *921:gpio_dm1[17] 0.00668234
3 *273:17 0.136537
4 *273:15 0.0179471
5 *273:13 0.0179471
6 *273:11 0.0332858
7 *273:9 0.0399682
8 *273:9 *452:9 0.00166503
9 *273:11 *274:111 0.000523047
10 *273:11 *327:53 0.000458403
11 *273:11 *437:37 0
12 *273:11 *789:27 0
13 *273:11 *832:59 0
14 *273:15 *275:15 0
15 *273:15 *277:23 0.0779938
16 *273:15 *329:64 0
17 *273:15 *332:19 0.00131738
18 *110:17 *273:15 0.000141503
19 *152:25 *273:15 0.000395995
20 *168:11 *273:11 0.0874208
21 *183:11 *273:11 0.00343559
22 *201:11 *273:11 0.03765
23 *205:49 *273:11 0
24 *218:11 *273:11 0
25 *229:15 *273:15 0.0934782
26 *230:25 *273:15 0.0191943
27 *269:11 *273:11 0
28 *272:9 *273:9 0
*RES
1 *921:gpio_dm1[17] *273:9 25.192 
2 *273:9 *273:11 1308.71 
3 *273:11 *273:13 8 
4 *273:13 *273:15 172.39 
5 *273:15 *273:17 8 
6 *273:17 gpio_dm1[17] 3094 
*END

*D_NET *274 0.665135
*CONN
*P gpio_dm1[18] O
*I *921:gpio_dm1[18] O *D CF_CARAVEL_SOC
*CAP
1 gpio_dm1[18] 0.0190754
2 *921:gpio_dm1[18] 0.00264497
3 *274:351 0.0193376
4 *274:345 0.0032726
5 *274:343 0.00579305
6 *274:339 0.00421187
7 *274:329 0.00363959
8 *274:327 0.00258454
9 *274:321 0.00445393
10 *274:319 0.00495662
11 *274:313 0.00301614
12 *274:305 0.00465825
13 *274:303 0.00304967
14 *274:299 0.00205396
15 *274:285 0.0101077
16 *274:283 0.00858445
17 *274:281 0.00207899
18 *274:275 0.00244118
19 *274:269 0.00229812
20 *274:267 0.00221459
21 *274:261 0.00226
22 *274:259 0.00243303
23 *274:253 0.00670734
24 *274:251 0.00700278
25 *274:241 0.00386994
26 *274:239 0.00335448
27 *274:233 0.00439958
28 *274:231 0.00538817
29 *274:223 0.00270182
30 *274:213 0.0224837
31 *274:211 0.0210022
32 *274:209 0.0466531
33 *274:207 0.0466531
34 *274:205 0.0268382
35 *274:203 0.0272123
36 *274:197 0.0131361
37 *274:195 0.0131242
38 *274:189 0.0022641
39 *274:187 0.00264904
40 *274:177 0.00367738
41 *274:175 0.00395227
42 *274:165 0.00305302
43 *274:159 0.00261694
44 *274:153 0.0038022
45 *274:145 0.00456152
46 *274:143 0.00159468
47 *274:137 0.00241105
48 *274:135 0.00216162
49 *274:133 0.00140457
50 *274:131 0.00140457
51 *274:129 0.00187534
52 *274:125 0.00756433
53 *274:123 0.00568898
54 *274:121 0.000955632
55 *274:119 0.00150462
56 *274:111 0.00102478
57 *274:105 0.00161899
58 *274:99 0.00220809
59 *274:93 0.00215516
60 *274:91 0.00109028
61 *274:89 0.000274736
62 *274:79 0.00320013
63 *274:77 0.00292539
64 *274:75 0.000852466
65 *274:71 0.00247907
66 *274:67 0.00244898
67 *274:65 0.00309945
68 *274:61 0.0023756
69 *274:55 0.00302044
70 *274:53 0.00292191
71 *274:51 0.00216712
72 *274:49 0.00216712
73 *274:47 0.00388548
74 *274:45 0.00388548
75 *274:43 0.00034513
76 *274:39 0.00126053
77 *274:31 0.0045034
78 *274:29 0.003588
79 *274:27 0.000830672
80 *274:25 0.00174884
81 *274:19 0.00475093
82 *274:17 0.0049831
83 *274:11 0.0221129
84 *274:9 0.0236075
85 gpio_dm1[18] *538:395 0
86 *274:9 *275:9 0
87 *274:9 *340:11 0.000142505
88 *274:11 *284:11 0.00359341
89 *274:11 *292:11 0.00169907
90 *274:11 *293:11 0
91 *274:11 *309:11 0.00142428
92 *274:11 *314:13 0.0020186
93 *274:11 *316:11 0
94 *274:11 *339:11 0
95 *274:11 *534:15 0
96 *274:27 *327:19 0.00100619
97 *274:27 *328:11 0.00533886
98 *274:27 *334:6 0.000970191
99 *274:39 *321:17 0
100 *274:39 *530:113 0.000181815
101 *274:51 *831:83 0.00946373
102 *274:61 *694:10 0.000473
103 *274:67 *321:47 3.43144e-05
104 *274:67 *445:11 0.00359283
105 *274:71 *321:43 5.3304e-05
106 *274:75 *281:11 0.00222334
107 *274:75 *305:11 0
108 *274:93 *349:11 0.00618921
109 *274:93 *787:35 0.000525663
110 *274:111 *789:27 0
111 *274:119 *283:11 1.6662e-05
112 *274:121 *283:11 0.00356887
113 *274:125 *315:15 0.000338455
114 *274:125 *326:15 4.95901e-05
115 *274:125 *692:11 0.000124476
116 *274:125 *698:13 0.00015022
117 *274:125 *833:31 0
118 *274:129 *283:25 0
119 *274:133 *277:15 0
120 *274:133 *321:67 0.00423127
121 *274:137 *277:21 0
122 *274:153 *403:19 0.00056905
123 *274:239 *399:23 0.000737315
124 *274:239 *663:11 0
125 *274:259 gpio_holdover[12] 0
126 *274:345 gpio_slow_sel[18] 0
127 *94:19 *274:105 0.00113135
128 *95:19 *274:137 0.00518188
129 *97:11 *274:11 0.000822179
130 *101:11 *274:39 0.00050807
131 *112:11 *274:43 0.00233866
132 *112:11 *274:89 0.000836487
133 *128:11 *274:43 0.000425626
134 *139:19 *274:145 0.00365159
135 *150:31 *274:267 0
136 *167:15 *274:51 0.00232499
137 *170:19 *274:19 0.0201626
138 *175:11 *274:93 0.000683156
139 *178:19 *274:67 0.00175755
140 *185:11 *274:19 0.0017438
141 *186:15 *274:143 0.000125699
142 *187:15 *274:143 0.000125699
143 *194:11 *274:27 0.00335858
144 *194:39 *274:267 0
145 *197:9 *274:27 0.000142505
146 *197:11 *274:51 0.00142993
147 *200:9 *274:27 0.000142505
148 *203:11 *274:89 0.000154405
149 *204:25 *274:125 0.000419804
150 *205:21 *274:51 0.000729615
151 *205:49 *274:111 6.10551e-06
152 *206:27 *274:51 0.0068445
153 *206:43 *274:119 2.22518e-05
154 *206:43 *274:121 0.00105006
155 *206:47 *274:133 0.000694031
156 *212:19 *274:19 0.00959535
157 *213:11 *274:51 0.000874086
158 *225:19 *274:43 0.00233866
159 *225:19 *274:89 0.000838709
160 *225:19 *274:93 0.00298638
161 *227:19 *274:145 0
162 *228:11 *274:19 0.00180227
163 *242:11 *274:105 0.00112912
164 *242:15 *274:125 0.00772017
165 *247:11 *274:61 0.000470768
166 *271:15 *274:125 0.000960289
167 *273:11 *274:111 0.000523047
*RES
1 *921:gpio_dm1[18] *274:9 14.1936 
2 *274:9 *274:11 500.716 
3 *274:11 *274:17 47.2964 
4 *274:17 *274:19 257.561 
5 *274:19 *274:25 43.9614 
6 *274:25 *274:27 67.7564 
7 *274:27 *274:29 15 
8 *274:29 *274:31 53.505 
9 *274:31 *274:39 49.0157 
10 *274:39 *274:43 44.725 
11 *274:43 *274:45 15 
12 *274:45 *274:47 58.2693 
13 *274:47 *274:49 15 
14 *274:49 *274:51 155.44 
15 *274:51 *274:53 15 
16 *274:53 *274:55 43.5 
17 *274:55 *274:61 36.1314 
18 *274:61 *274:65 48.9714 
19 *274:65 *274:67 46.2757 
20 *274:67 *274:71 38.9664 
21 *274:71 *274:75 43.6686 
22 *274:75 *274:77 15 
23 *274:77 *274:79 43.0236 
24 *274:79 *274:89 42.7807 
25 *274:89 *274:91 15 
26 *274:91 *274:93 78.6729 
27 *274:93 *274:99 45.8671 
28 *274:99 *274:105 43.5443 
29 *274:105 *274:111 43.8786 
30 *274:111 *274:119 23.5861 
31 *274:119 *274:121 46.0996 
32 *274:121 *274:123 15 
33 *274:123 *274:125 128.781 
34 *274:125 *274:129 44.3729 
35 *274:129 *274:131 15 
36 *274:131 *274:133 46.3586 
37 *274:133 *274:135 15 
38 *274:135 *274:137 67.2282 
39 *274:137 *274:143 17.2581 
40 *274:143 *274:145 46.6279 
41 *274:145 *274:153 43.1338 
42 *274:153 *274:159 18.2027 
43 *274:159 *274:165 43.8958 
44 *274:165 *274:175 37.2728 
45 *274:175 *274:177 67.7564 
46 *274:177 *274:187 18.8709 
47 *274:187 *274:189 43.1064 
48 *274:189 *274:195 17.344 
49 *274:195 *274:197 288.902 
50 *274:197 *274:203 17.344 
51 *274:203 *274:205 607.239 
52 *274:205 *274:207 8 
53 *274:207 *274:209 168.784 
54 *274:209 *274:211 8 
55 *274:211 *274:213 475.538 
56 *274:213 *274:223 39.8401 
57 *274:223 *274:231 33.5844 
58 *274:231 *274:233 94.5193 
59 *274:233 *274:239 17.344 
60 *274:239 *274:241 69.165 
61 *274:241 *274:251 18.8709 
62 *274:251 *274:253 143.115 
63 *274:253 *274:259 17.6875 
64 *274:259 *274:261 43.1064 
65 *274:261 *274:267 17.0005 
66 *274:267 *274:269 43.1064 
67 *274:269 *274:275 17.344 
68 *274:275 *274:281 48.2247 
69 *274:281 *274:283 8 
70 *274:283 *274:285 196.641 
71 *274:285 *274:299 48.6894 
72 *274:299 *274:303 9.94507 
73 *274:303 *274:305 57.1921 
74 *274:305 *274:313 48.2538 
75 *274:313 *274:319 19.3189 
76 *274:319 *274:321 92.4064 
77 *274:321 *274:327 17.344 
78 *274:327 *274:329 50.1493 
79 *274:329 *274:339 49.9673 
80 *274:339 *274:343 18.5317 
81 *274:343 *274:345 68.4607 
82 *274:345 *274:351 16.9147 
83 *274:351 gpio_dm1[18] 434.617 
*END

*D_NET *275 0.820109
*CONN
*P gpio_dm1[19] O
*I *921:gpio_dm1[19] O *D CF_CARAVEL_SOC
*CAP
1 gpio_dm1[19] 0.138342
2 *921:gpio_dm1[19] 0.00105464
3 *275:17 0.138342
4 *275:15 0.0509732
5 *275:13 0.0509732
6 *275:11 0.0289815
7 *275:9 0.0300361
8 *275:9 *277:9 0.000190786
9 *275:9 *340:11 0.000142505
10 *275:11 *285:11 0.00395913
11 *275:11 *289:11 0.00049723
12 *275:11 *294:11 0.00704819
13 *275:11 *295:11 0.00743733
14 *275:11 *327:11 0.0138765
15 *275:15 *277:23 0
16 *275:15 *290:15 0
17 *275:15 *329:64 0.00808842
18 *275:15 *332:19 5.48594e-05
19 *275:15 *403:15 0.1709
20 *275:15 *538:153 0.000420695
21 *275:15 *802:15 0.0474141
22 *118:11 *275:11 0
23 *186:11 *275:11 0
24 *187:11 *275:11 0
25 *189:11 *275:11 7.48354e-05
26 *190:11 *275:11 0.042653
27 *194:35 *275:11 0.00358489
28 *200:11 *275:11 0.0384659
29 *212:19 *275:11 0
30 *227:11 *275:11 0.0219549
31 *230:25 *275:15 0.0146445
32 *273:15 *275:15 0
33 *274:9 *275:9 0
*RES
1 *921:gpio_dm1[19] *275:9 10.4155 
2 *275:9 *275:11 1299.55 
3 *275:11 *275:13 8 
4 *275:13 *275:15 335.194 
5 *275:15 *275:17 8 
6 *275:17 gpio_dm1[19] 3089.07 
*END

*D_NET *276 0.0404967
*CONN
*P gpio_dm1[1] O
*I *921:gpio_dm1[1] O *D CF_CARAVEL_SOC
*CAP
1 gpio_dm1[1] 0.00565726
2 *921:gpio_dm1[1] 0.00629277
3 *276:13 0.01195
4 gpio_dm1[1] *277:9 0
5 *276:13 *287:9 0
6 *276:13 *287:11 0.00844423
7 *276:13 *304:11 0.00712919
8 gpio_analog_en[1] gpio_dm1[1] 0
9 *243:11 *276:13 0.00024875
10 *260:11 *276:13 0.000701492
11 *260:17 gpio_dm1[1] 7.30034e-05
12 *265:13 *276:13 0
*RES
1 *921:gpio_dm1[1] *276:13 47.9741 
2 *276:13 gpio_dm1[1] 12.0409 
*END

*D_NET *277 0.942198
*CONN
*P gpio_dm1[20] O
*I *921:gpio_dm1[20] O *D CF_CARAVEL_SOC
*CAP
1 gpio_dm1[20] 0.000134032
2 *921:gpio_dm1[20] 0.00660779
3 *277:27 0.136651
4 *277:25 0.136517
5 *277:23 0.0336518
6 *277:21 0.0340202
7 *277:15 0.00900899
8 *277:13 0.00864062
9 *277:11 0.0229206
10 *277:9 0.0295284
11 *277:9 *278:9 0
12 *277:11 *692:15 0.0541704
13 *277:15 *391:15 0.00161599
14 *277:23 *286:31 0.00777002
15 *277:23 *329:64 0.000343729
16 *277:23 *403:15 0.00521913
17 *277:23 *686:11 0.169665
18 *277:23 *801:15 0.0646889
19 gpio_dm1[1] *277:9 0
20 *158:24 *277:23 0.00138853
21 *165:11 *277:11 0.0127573
22 *195:11 *277:11 0.000260802
23 *222:19 *277:11 0.00119745
24 *229:15 *277:23 0.000513301
25 *230:25 *277:23 0.0312085
26 *241:11 *277:11 0.0955325
27 *263:11 *277:11 0
28 *271:27 *277:21 0
29 *273:15 *277:23 0.0779938
30 *274:133 *277:15 0
31 *274:137 *277:21 0
32 *275:9 *277:9 0.000190786
33 *275:15 *277:23 0
*RES
1 *921:gpio_dm1[20] *277:9 23.9899 
2 *277:9 *277:11 1285.99 
3 *277:11 *277:13 15 
4 *277:13 *277:15 158.319 
5 *277:15 *277:21 29.6596 
6 *277:21 *277:23 368.853 
7 *277:23 *277:25 8 
8 *277:25 *277:27 3091.96 
9 *277:27 gpio_dm1[20] 1.86429 
*END

*D_NET *278 0.804828
*CONN
*P gpio_dm1[21] O
*I *921:gpio_dm1[21] O *D CF_CARAVEL_SOC
*CAP
1 gpio_dm1[21] 0.000134032
2 *921:gpio_dm1[21] 0.00141514
3 *278:19 0.112299
4 *278:17 0.112165
5 *278:15 0.118805
6 *278:13 0.118805
7 *278:11 0.0291405
8 *278:9 0.0305556
9 *278:11 *324:11 0
10 *278:15 *538:239 0.00466137
11 *278:15 *676:11 0.00511717
12 *278:15 *758:13 0
13 *278:19 *671:7 0.00405855
14 *231:11 *278:11 0.107062
15 *233:11 *278:11 0.000288799
16 *234:11 *278:11 0.140262
17 *235:11 *278:11 0.01974
18 *240:11 *278:11 0.000318311
19 *277:9 *278:9 0
*RES
1 *921:gpio_dm1[21] *278:9 11.1099 
2 *278:9 *278:11 1798.19 
3 *278:11 *278:13 8 
4 *278:13 *278:15 432.481 
5 *278:15 *278:17 8 
6 *278:17 *278:19 2580.65 
7 *278:19 gpio_dm1[21] 1.86429 
*END

*D_NET *279 0.840606
*CONN
*P gpio_dm1[22] O
*I *921:gpio_dm1[22] O *D CF_CARAVEL_SOC
*CAP
1 gpio_dm1[22] 0.113227
2 *921:gpio_dm1[22] 0.0022528
3 *279:17 0.113227
4 *279:15 0.134474
5 *279:13 0.134474
6 *279:11 0.0538476
7 *279:9 0.0561003
8 gpio_dm1[22] *710:7 0
9 *279:9 *280:9 0
10 *279:9 *340:11 0.000112317
11 *279:11 *280:11 0.00867214
12 *279:11 *280:19 0.054813
13 *279:11 *293:11 0.00036119
14 *279:11 *309:11 0
15 *279:11 *314:13 0
16 *279:11 *316:11 0.00521011
17 *279:11 *319:11 0.0107892
18 *279:11 *320:13 0
19 *279:11 *322:19 0.00070855
20 *279:11 *339:11 0.00171569
21 *279:11 *351:11 0
22 *279:11 *352:11 0
23 *279:11 *551:125 0.00133771
24 *279:15 *280:23 0
25 *279:15 *675:11 0
26 *279:15 *758:13 0
27 *91:11 *279:11 0
28 *117:11 *279:11 0.00250226
29 *140:63 *279:11 0.000492629
30 *140:113 *279:15 0.000549076
31 *153:19 *279:11 0.00524754
32 *245:11 *279:11 0.140493
*RES
1 *921:gpio_dm1[22] *279:9 12.9933 
2 *279:9 *279:11 325.259 
3 *279:11 *279:13 8 
4 *279:13 *279:15 481.983 
5 *279:15 *279:17 8 
6 *279:17 gpio_dm1[22] 2567.9 
*END

*D_NET *280 0.834538
*CONN
*P gpio_dm1[23] O
*I *921:gpio_dm1[23] O *D CF_CARAVEL_SOC
*CAP
1 gpio_dm1[23] 0.00229409
2 *921:gpio_dm1[23] 0.00219857
3 *280:27 0.112893
4 *280:25 0.110599
5 *280:23 0.146768
6 *280:21 0.146768
7 *280:19 0.022654
8 *280:17 0.0226958
9 *280:11 0.0148282
10 *280:9 0.016985
11 *280:9 *281:9 0.000426764
12 *280:9 *340:11 0.000142505
13 *280:11 *291:11 0.0037571
14 *280:11 *296:11 0.00328303
15 *280:11 *316:11 0.0694729
16 *280:11 *317:11 0.000347824
17 *280:11 *319:11 0.0683637
18 *280:11 *540:38 0.000119496
19 *280:11 *551:125 0.00848601
20 *280:17 *831:71 7.20663e-06
21 *280:19 *316:11 0.00236373
22 *280:19 *483:11 0.00680126
23 *280:19 *701:15 0.000262183
24 *280:19 *788:27 0.00124037
25 *280:23 *538:249 0.00696335
26 *280:23 *799:15 0
27 *280:27 *322:385 0
28 *280:27 *322:393 0
29 *280:27 *679:17 0
30 *91:11 *280:19 0
31 *169:9 *280:17 1.92442e-05
32 *245:11 *280:19 0.000312722
33 *279:9 *280:9 0
34 *279:11 *280:11 0.00867214
35 *279:11 *280:19 0.054813
36 *279:15 *280:23 0
*RES
1 *921:gpio_dm1[23] *280:9 13.2491 
2 *280:9 *280:11 1094.6 
3 *280:11 *280:17 16.0989 
4 *280:17 *280:19 128.132 
5 *280:19 *280:21 8 
6 *280:21 *280:23 530.154 
7 *280:23 *280:25 8 
8 *280:25 *280:27 2512.39 
9 *280:27 gpio_dm1[23] 49.8489 
*END

*D_NET *281 1.19657
*CONN
*P gpio_dm1[24] O
*I *921:gpio_dm1[24] O *D CF_CARAVEL_SOC
*CAP
1 gpio_dm1[24] 2.69958e-05
2 *921:gpio_dm1[24] 0.00742678
3 *281:31 0.0603635
4 *281:29 0.0603365
5 *281:27 0.0619692
6 *281:25 0.0622351
7 *281:19 0.0358178
8 *281:17 0.0355519
9 *281:15 0.00485189
10 *281:13 0.00485189
11 *281:11 0.0371666
12 *281:9 0.0445934
13 *281:9 gpio_inp_dis[1] 0.00349506
14 *281:11 gpio_inp_dis[2] 0.000210065
15 *281:11 gpio_inp_dis[5] 0.000132588
16 *281:11 gpio_inp_dis[6] 5.11247e-05
17 *281:11 *305:11 0
18 *281:11 *375:35 1.35764e-05
19 *281:11 *375:59 0
20 *281:11 *782:19 0.00542532
21 *281:11 *782:29 0.000699558
22 *281:11 *782:47 0
23 *281:15 *286:15 0.000562894
24 *281:19 *326:19 0.0045089
25 *281:19 *326:23 0.0450964
26 *281:19 *329:58 0.000441419
27 *281:19 *330:13 0
28 *281:27 *326:31 0.0137685
29 *281:31 gpio_slow_sel[24] 0
30 *281:31 *322:469 0.000710318
31 *281:31 *402:15 0.0034998
32 *281:31 *666:11 0.231675
33 *281:31 *798:23 0.299022
34 gpio_analog_en[4] *281:11 0.000159738
35 gpio_analog_pol[3] *281:11 0.000186888
36 gpio_dm0[3] *281:11 0.000105438
37 gpio_dm0[5] *281:11 0.000159751
38 *110:23 *281:25 0.000547873
39 *120:11 *281:11 0.0446211
40 *150:27 *281:19 0.0120685
41 *150:27 *281:27 0
42 *184:11 *281:11 0.0431369
43 *184:15 *281:15 0.00438424
44 *195:31 *281:27 0.0283438
45 *196:27 *281:27 0.0328941
46 *219:11 *281:11 0
47 *229:11 *281:11 0
48 *242:19 *281:19 0.000514197
49 *242:33 *281:25 0
50 *272:15 *281:15 0.00228958
51 *274:75 *281:11 0.00222334
52 *280:9 *281:9 0.000426764
*RES
1 *921:gpio_dm1[24] *281:9 27.768 
2 *281:9 *281:11 1254.65 
3 *281:11 *281:13 15 
4 *281:13 *281:15 115.917 
5 *281:15 *281:17 15 
6 *281:17 *281:19 1173.31 
7 *281:19 *281:25 17.0435 
8 *281:25 *281:27 321.07 
9 *281:27 *281:29 8 
10 *281:29 *281:31 565.632 
11 *281:31 gpio_dm1[24] 0.1036 
*END

*D_NET *282 0.851814
*CONN
*P gpio_dm1[25] O
*I *921:gpio_dm1[25] O *D CF_CARAVEL_SOC
*CAP
1 gpio_dm1[25] 3.62375e-05
2 *921:gpio_dm1[25] 0.0019457
3 *282:15 0.160711
4 *282:13 0.160675
5 *282:11 0.135982
6 *282:9 0.137928
7 *282:9 *283:9 0.00046756
8 *282:9 *340:11 0.000142505
9 *282:11 *290:11 0.00972091
10 *282:11 *318:11 0.0678527
11 *282:11 *323:11 0.0235333
12 *282:15 gpio_slow_sel[25] 0
13 *91:11 *282:11 0
14 *106:23 *282:15 0
15 *118:19 *282:11 0.001723
16 *235:11 *282:11 0
17 *236:11 *282:11 0
18 *239:11 *282:11 0
19 *245:11 *282:11 0.151096
*RES
1 *921:gpio_dm1[25] *282:9 12.7768 
2 *282:9 *282:11 598.42 
3 *282:11 *282:13 8 
4 *282:13 *282:15 571.986 
5 *282:15 gpio_dm1[25] 0.139067 
*END

*D_NET *283 0.709854
*CONN
*P gpio_dm1[26] O
*I *921:gpio_dm1[26] O *D CF_CARAVEL_SOC
*CAP
1 gpio_dm1[26] 0.00352901
2 *921:gpio_dm1[26] 0.00757666
3 *283:31 0.15853
4 *283:29 0.155001
5 *283:27 0.0751445
6 *283:25 0.0756578
7 *283:15 0.00666592
8 *283:13 0.00615264
9 *283:11 0.0416086
10 *283:9 0.0491853
11 *283:9 *284:9 0.000399086
12 *283:11 *327:61 0.00141065
13 *283:11 *347:11 0
14 *283:11 *391:51 0.00333098
15 *283:11 *392:53 0.000413105
16 *283:11 *436:27 0
17 *283:11 *571:39 0
18 *283:11 *698:15 0.0564867
19 *283:11 *782:39 0
20 *283:11 *826:131 0
21 *283:15 *705:35 0.0065514
22 *283:15 *832:39 0.000350519
23 *283:25 *782:15 0.000278048
24 *283:27 *328:61 0.00635889
25 *283:27 *332:21 0.0283338
26 *283:27 *440:35 0.0197332
27 gpio_analog_en[26] gpio_dm1[26] 0
28 gpio_analog_en[26] *283:31 0.000699532
29 gpio_analog_sel[1] *283:9 0.00014566
30 *104:31 *283:15 0
31 *107:27 *283:27 0
32 *107:31 *283:31 0
33 *114:23 *283:25 0.000151674
34 *196:11 *283:11 0.000230535
35 *205:35 *283:11 0.00080798
36 *205:47 *283:11 0.00106707
37 *206:43 *283:11 0
38 *230:11 *283:11 0
39 *274:119 *283:11 1.6662e-05
40 *274:121 *283:11 0.00356887
41 *274:129 *283:25 0
42 *282:9 *283:9 0.00046756
*RES
1 *921:gpio_dm1[26] *283:9 26.48 
2 *283:9 *283:11 1238.46 
3 *283:11 *283:13 15 
4 *283:13 *283:15 126.875 
5 *283:15 *283:25 37.8358 
6 *283:25 *283:27 332.494 
7 *283:27 *283:29 8 
8 *283:29 *283:31 556.472 
9 *283:31 gpio_dm1[26] 7.46947 
*END

*D_NET *284 1.24744
*CONN
*P gpio_dm1[27] O
*I *921:gpio_dm1[27] O *D CF_CARAVEL_SOC
*CAP
1 gpio_dm1[27] 0.00420827
2 *921:gpio_dm1[27] 0.00242695
3 *284:67 0.0278795
4 *284:65 0.0239957
5 *284:59 0.0403072
6 *284:57 0.0418122
7 *284:51 0.0473183
8 *284:49 0.0476864
9 *284:39 0.00591069
10 *284:37 0.00383108
11 *284:31 0.00708047
12 *284:29 0.00699049
13 *284:23 0.0238876
14 *284:21 0.0243494
15 *284:15 0.0101277
16 *284:13 0.00963791
17 *284:11 0.0164487
18 *284:9 0.0188757
19 *284:11 *292:11 0.042808
20 *284:11 *309:11 0.00101083
21 *284:11 *480:11 0
22 *284:11 *534:15 0
23 *284:11 *571:31 0
24 *284:15 *300:19 0.0593802
25 *284:15 *301:17 0.000100139
26 *284:15 *325:23 0.000368097
27 *284:15 *345:15 0.0164022
28 *284:15 *560:19 0.0304518
29 *284:15 *564:13 0.00969918
30 *284:15 *804:23 6.22926e-05
31 *284:15 *844:13 7.41993e-05
32 *284:15 *861:11 0
33 *284:21 gpio_vtrip_sel[43] 0.000648979
34 *284:23 *387:23 0.0880216
35 *284:23 *428:23 0.000139191
36 *284:23 *538:43 0.0133301
37 *284:23 *692:35 0.0330223
38 *284:23 *736:43 0.00106376
39 *284:23 *740:171 0.0253889
40 *284:23 *742:120 0.000163309
41 *284:23 *857:11 0.168947
42 *284:31 *428:23 0.0351695
43 *284:31 *736:43 0.0174901
44 *284:31 *857:11 0.00772236
45 *284:31 *863:11 0.00669605
46 *284:39 *428:23 0.00422499
47 *284:39 *549:13 0.0246954
48 *284:39 *824:23 0.00021859
49 *284:39 *848:11 0.0113549
50 *284:39 *857:11 0.000602852
51 *284:39 *863:11 0.00597311
52 *284:49 *384:11 2.26158e-05
53 *284:49 *387:15 0.000235197
54 *284:49 *549:23 0.00439979
55 *284:49 *736:43 4.13845e-05
56 *284:51 *289:35 0.00044351
57 *284:51 *325:159 0
58 *284:51 *335:57 0
59 *284:51 *410:11 0
60 *284:51 *460:11 0.123898
61 *284:51 *767:17 0.00024505
62 *284:57 gpio_oeb[33] 0
63 *284:57 *381:9 0.000266663
64 *284:59 *409:11 0.104617
65 *284:59 *546:25 0
66 *284:59 *832:27 0
67 *284:65 gpio_vtrip_sel[29] 8.19817e-05
68 *284:65 *726:21 0
69 *284:67 *369:19 0.000182382
70 *284:67 *369:23 0.00247539
71 *284:67 *546:25 0.0057642
72 *284:67 *813:19 0.0171335
73 gpio_analog_en[27] gpio_dm1[27] 0
74 *250:23 *284:15 0.000445532
75 *251:15 *284:23 0.0151881
76 *274:11 *284:11 0.00359341
77 *283:9 *284:9 0.000399086
*RES
1 *921:gpio_dm1[27] *284:9 13.8539 
2 *284:9 *284:11 576.427 
3 *284:11 *284:13 15 
4 *284:13 *284:15 665.239 
5 *284:15 *284:21 39.3007 
6 *284:21 *284:23 1804.86 
7 *284:23 *284:29 23.3211 
8 *284:29 *284:31 66.4309 
9 *284:31 *284:37 24.3775 
10 *284:37 *284:39 264.086 
11 *284:39 *284:49 41.8702 
12 *284:49 *284:51 1609.44 
13 *284:51 *284:57 19.4048 
14 *284:57 *284:59 1347.44 
15 *284:59 *284:65 16.7859 
16 *284:65 *284:67 88.6555 
17 *284:67 gpio_dm1[27] 16.8844 
*END

*D_NET *285 0.785465
*CONN
*P gpio_dm1[28] O
*I *921:gpio_dm1[28] O *D CF_CARAVEL_SOC
*CAP
1 gpio_dm1[28] 7.12591e-05
2 *921:gpio_dm1[28] 0.0010428
3 *285:15 0.161002
4 *285:13 0.16093
5 *285:11 0.0813204
6 *285:9 0.0823632
7 *285:9 *286:9 0
8 *285:9 *340:11 0.000142505
9 *285:11 *289:11 0.000836649
10 *285:11 *294:11 0.000161338
11 *285:11 *295:11 0.000246122
12 *285:11 *327:11 0.0013311
13 *285:11 *740:59 0.0199525
14 *285:11 *831:83 0.000406154
15 *285:15 *538:305 0
16 *285:15 *539:305 0.000737324
17 *109:27 *285:11 0
18 *109:31 *285:15 0
19 *149:27 *285:11 6.48651e-05
20 *149:35 *285:11 0.00391052
21 *153:19 *285:11 0.00141266
22 *156:11 *285:11 0
23 *190:11 *285:11 0.000975715
24 *192:11 *285:11 0.00635447
25 *193:31 *285:11 0.00426593
26 *194:35 *285:11 0.13342
27 *197:11 *285:11 0.0237942
28 *200:11 *285:11 0.0152272
29 *205:21 *285:11 0.00731644
30 *214:11 *285:11 0.0639746
31 *227:11 *285:11 0.0102456
32 *228:11 *285:11 0
33 *275:11 *285:11 0.00395913
*RES
1 *921:gpio_dm1[28] *285:9 10.2008 
2 *285:9 *285:11 474.279 
3 *285:11 *285:13 8 
4 *285:13 *285:15 569.41 
5 *285:15 gpio_dm1[28] 0.273467 
*END

*D_NET *286 1.14348
*CONN
*P gpio_dm1[29] O
*I *921:gpio_dm1[29] O *D CF_CARAVEL_SOC
*CAP
1 gpio_dm1[29] 0.000441806
2 *921:gpio_dm1[29] 0.00179035
3 *286:41 0.0239086
4 *286:39 0.0272632
5 *286:31 0.121077
6 *286:29 0.118047
7 *286:15 0.0279825
8 *286:13 0.0272158
9 *286:11 0.0358757
10 *286:9 0.0376661
11 *286:9 *288:9 0.000530485
12 *286:9 *340:11 0.000142505
13 *286:11 *290:11 0
14 *286:11 *318:11 0
15 *286:11 *324:11 4.09717e-05
16 *286:15 *321:67 0
17 *286:15 *782:15 0.0104526
18 *286:29 *391:15 7.23382e-05
19 *286:29 *679:9 0
20 *286:29 *831:31 0.000260563
21 *286:31 *361:33 0
22 *286:31 *375:31 0.0599072
23 *286:31 *686:11 0.0172583
24 *286:31 *689:11 0.00168967
25 *286:31 *691:11 0.00218301
26 *286:31 *705:23 0.0356436
27 *286:31 *745:11 0.0189497
28 *286:31 *782:15 0.0374288
29 *286:31 *787:15 0.0504534
30 *286:31 *788:15 0.0433167
31 *286:31 *801:15 0.0168942
32 *286:39 *422:27 4.81862e-05
33 *286:39 *782:15 0.000565974
34 *286:41 *325:167 0
35 *286:41 *466:11 0.000161588
36 gpio_dm0[16] *286:29 2.75733e-06
37 *110:23 gpio_dm1[29] 0
38 *118:19 *286:11 0
39 *141:25 *286:31 0.00701059
40 *158:24 *286:31 0.0140855
41 *184:15 *286:15 0
42 *193:57 *286:31 0.00231358
43 *193:63 *286:41 0.0911509
44 *206:47 *286:31 0.0598818
45 *230:25 *286:31 0.0122163
46 *236:11 *286:11 0.00643672
47 *244:15 *286:31 0.0140924
48 *244:15 *286:39 0
49 *244:19 *286:41 0.0358346
50 *246:23 *286:31 0.0140855
51 *247:15 *286:31 0.0598818
52 *271:11 *286:11 0.0938768
53 *272:11 *286:11 0.000810635
54 *272:15 *286:15 0.00620264
55 *277:23 *286:31 0.00777002
56 *281:15 *286:15 0.000562894
57 *285:9 *286:9 0
*RES
1 *921:gpio_dm1[29] *286:9 12.2187 
2 *286:9 *286:11 1225.07 
3 *286:11 *286:13 15 
4 *286:13 *286:15 626.172 
5 *286:15 *286:29 38.4593 
6 *286:29 *286:31 53.9273 
7 *286:31 *286:39 24.7179 
8 *286:39 *286:41 1173.48 
9 *286:41 gpio_dm1[29] 9.07613 
*END

*D_NET *287 0.0829684
*CONN
*P gpio_dm1[2] O
*I *921:gpio_dm1[2] O *D CF_CARAVEL_SOC
*CAP
1 gpio_dm1[2] 0.00607823
2 *921:gpio_dm1[2] 0.00453103
3 *287:11 0.0111693
4 *287:9 0.00962212
5 gpio_dm1[2] gpio_slow_sel[2] 0
6 *287:9 *298:9 0
7 *287:11 *304:11 0.00128642
8 *287:11 *484:11 0.000242841
9 *188:11 *287:11 0.0153278
10 *243:11 *287:11 0.0262664
11 *276:13 *287:9 0
12 *276:13 *287:11 0.00844423
*RES
1 *921:gpio_dm1[2] *287:9 19.3101 
2 *287:9 *287:11 60.7301 
3 *287:11 gpio_dm1[2] 20.9593 
*END

*D_NET *288 0.657255
*CONN
*P gpio_dm1[30] O
*I *921:gpio_dm1[30] O *D CF_CARAVEL_SOC
*CAP
1 gpio_dm1[30] 0.00361766
2 *921:gpio_dm1[30] 0.00535313
3 *288:71 0.165016
4 *288:69 0.161398
5 *288:67 0.0208817
6 *288:65 0.0210094
7 *288:59 0.00213699
8 *288:57 0.00279427
9 *288:53 0.00145721
10 *288:47 0.00480642
11 *288:37 0.00444766
12 *288:27 0.00262356
13 *288:25 0.0023101
14 *288:23 0.00590063
15 *288:11 0.0235529
16 *288:9 0.0230054
17 *288:9 gpio_out[1] 0
18 *288:9 *289:9 0.000179778
19 *288:11 *307:11 0
20 *288:11 *326:11 0.0458779
21 *288:11 *535:121 0.00915516
22 *288:23 *321:23 0
23 *288:23 *327:19 2.31116e-05
24 *288:23 *337:17 0
25 *288:27 *328:43 0.000366175
26 *288:27 *329:10 0.0014833
27 *288:27 *329:36 0.000459168
28 *288:27 *330:13 0.0153704
29 *288:27 *787:51 0.0145441
30 *288:47 *683:15 0.00130167
31 *288:47 *787:43 0.000417443
32 *288:47 *788:53 0.000946522
33 *288:53 *831:71 0.00070528
34 *288:57 *530:113 0.00180931
35 *288:57 *831:75 6.17582e-05
36 *288:59 *530:113 0.0034029
37 *288:67 *391:29 0.00105061
38 gpio_analog_en[30] gpio_dm1[30] 0
39 *90:11 *288:67 0.0296781
40 *94:11 *288:11 0.00129086
41 *98:11 *288:67 0.000120999
42 *101:11 *288:57 0.00176895
43 *101:11 *288:59 0.00949352
44 *101:11 *288:67 0.000103953
45 *102:11 *288:47 0.000323777
46 *104:11 *288:11 0.00123408
47 *112:31 *288:71 0
48 *113:11 *288:11 0.0237205
49 *116:27 *288:37 0.000241115
50 *133:11 *288:11 0.00377967
51 *150:11 *288:47 0.00248707
52 *157:9 *288:47 2.64715e-05
53 *159:13 *288:59 0.00112525
54 *161:15 *288:65 8.18773e-05
55 *165:9 *288:53 0
56 *179:11 *288:57 0.000340931
57 *179:11 *288:67 0.030351
58 *181:11 *288:11 0.00121966
59 *183:15 *288:65 1.46527e-05
60 *204:9 *288:23 2.11066e-05
61 *204:17 *288:37 0.000238476
62 *206:15 *288:23 0.000121456
63 *212:9 *288:23 0.0013364
64 *213:9 *288:23 0
65 *247:11 *288:67 0.000138759
66 *286:9 *288:9 0.000530485
*RES
1 *921:gpio_dm1[30] *288:9 21.4139 
2 *288:9 *288:11 804.439 
3 *288:11 *288:23 48.8617 
4 *288:23 *288:25 15 
5 *288:25 *288:27 194.88 
6 *288:27 *288:37 44.6182 
7 *288:37 *288:47 48.2864 
8 *288:47 *288:53 17.7733 
9 *288:53 *288:57 44.5771 
10 *288:57 *288:59 121.137 
11 *288:59 *288:65 16.3565 
12 *288:65 *288:67 175.351 
13 *288:67 *288:69 8 
14 *288:69 *288:71 570.726 
15 *288:71 gpio_dm1[30] 7.26787 
*END

*D_NET *289 1.2114
*CONN
*P gpio_dm1[31] O
*I *921:gpio_dm1[31] O *D CF_CARAVEL_SOC
*CAP
1 gpio_dm1[31] 0.00245679
2 *921:gpio_dm1[31] 0.00107182
3 *289:35 0.0505109
4 *289:33 0.0492917
5 *289:23 0.0435165
6 *289:21 0.0424479
7 *289:11 0.0301577
8 *289:9 0.0310605
9 *289:9 *340:11 0.000142505
10 *289:11 *294:11 0.00437439
11 *289:11 *295:11 0.00389238
12 *289:21 *852:9 7.57281e-06
13 *289:23 *336:63 0.00337327
14 *289:23 *455:25 0.000983104
15 *289:23 *462:23 0.00038436
16 *289:23 *464:23 0.100793
17 *289:23 *465:23 0.102023
18 *289:23 *481:23 0.00622031
19 *289:23 *547:13 0.025981
20 *289:23 *571:27 0.000346866
21 *289:23 *749:27 0.010393
22 *289:23 *837:11 0.00665884
23 *289:23 *838:11 0.0403319
24 *289:33 *336:63 0.000597144
25 *289:33 *446:25 9.69591e-05
26 *289:33 *462:21 9.12913e-05
27 *289:33 *464:21 0.0010098
28 *289:33 *465:21 0.00058737
29 *289:33 *553:21 0.000284262
30 *289:35 *404:11 0
31 *289:35 *460:11 0.00031152
32 *289:35 *550:23 0.194982
33 *289:35 *691:15 0.00792825
34 *289:35 *812:11 0.126035
35 *113:23 gpio_dm1[31] 0
36 *119:15 *289:23 0.14119
37 *119:27 *289:33 3.96382e-05
38 *208:21 *289:23 0.142501
39 *212:19 *289:11 0.00119327
40 *214:11 *289:11 0.0237953
41 *227:11 *289:11 0.00142174
42 *228:11 *289:11 0.00290404
43 *248:11 *289:11 0.00168398
44 *249:11 *289:11 0.00119327
45 *252:11 *289:11 0.003157
46 *255:11 *289:11 0.00199263
47 *255:15 *289:21 2.37707e-05
48 *275:11 *289:11 0.00049723
49 *284:51 *289:35 0.00044351
50 *285:11 *289:11 0.000836649
51 *288:9 *289:9 0.000179778
*RES
1 *921:gpio_dm1[31] *289:9 10.3725 
2 *289:9 *289:11 105.411 
3 *289:11 *289:21 31.5917 
4 *289:21 *289:23 3098.36 
5 *289:23 *289:33 38.7018 
6 *289:33 *289:35 2535.57 
7 *289:35 gpio_dm1[31] 12.9887 
*END

*D_NET *290 0.770283
*CONN
*P gpio_dm1[32] O
*I *921:gpio_dm1[32] O *D CF_CARAVEL_SOC
*CAP
1 gpio_dm1[32] 0.000216692
2 *921:gpio_dm1[32] 0.00226479
3 *290:19 0.000933418
4 *290:17 0.000716726
5 *290:15 0.107891
6 *290:13 0.107891
7 *290:11 0.0165173
8 *290:9 0.0187821
9 *290:9 *291:9 0
10 *290:9 *340:11 0.000142505
11 *290:9 *740:65 0
12 *290:11 *291:11 0.0930789
13 *290:11 *296:11 0.000229774
14 *290:11 *317:11 0.00140668
15 *290:11 *318:11 0.000925421
16 *290:11 *323:11 0.081364
17 *290:15 gpio_vtrip_sel[32] 0.000867343
18 *290:15 *361:33 0.0162183
19 *290:15 *369:17 6.26907e-05
20 *290:15 *406:19 0
21 *290:15 *440:23 0
22 *290:15 *538:153 0.000273351
23 *290:15 *730:19 0
24 *290:15 *754:21 0
25 *290:15 *802:15 0
26 *290:15 *805:15 0
27 *290:19 *459:13 0.00352898
28 *290:19 *553:25 0.00353115
29 *118:19 *290:11 0.00654064
30 *148:13 *290:15 0.289102
31 *230:25 *290:15 0.00807645
32 *275:15 *290:15 0
33 *282:11 *290:11 0.00972091
34 *286:11 *290:11 0
*RES
1 *921:gpio_dm1[32] *290:9 12.9056 
2 *290:9 *290:11 1232.65 
3 *290:11 *290:13 8 
4 *290:13 *290:15 571.67 
5 *290:15 *290:17 8 
6 *290:17 *290:19 45.7527 
7 *290:19 gpio_dm1[32] 8.47227 
*END

*D_NET *291 0.975805
*CONN
*P gpio_dm1[33] O
*I *921:gpio_dm1[33] O *D CF_CARAVEL_SOC
*CAP
1 gpio_dm1[33] 0.000559399
2 *921:gpio_dm1[33] 0.00206762
3 *291:27 0.00302422
4 *291:25 0.00246482
5 *291:23 0.00711628
6 *291:15 0.0443526
7 *291:13 0.0372363
8 *291:11 0.0154727
9 *291:9 0.0175403
10 gpio_dm1[33] gpio_slow_sel[33] 6.56381e-05
11 *291:9 *292:9 0.000653748
12 *291:9 *340:11 0.000142505
13 *291:11 *296:11 0.00183194
14 *291:11 *317:11 0.080777
15 *291:15 *437:31 0.00092674
16 *291:15 *688:11 0.00323589
17 *291:15 *716:11 0.00120436
18 *291:15 *744:11 0.0586134
19 *291:23 *687:17 0.00049939
20 *291:23 *688:11 0.000518929
21 *291:27 *459:13 0.000228692
22 *291:27 *466:11 0.000106208
23 *115:15 *291:15 0.285864
24 *117:39 *291:23 0.00229168
25 *163:23 *291:15 0.284177
26 *163:31 *291:23 0.00110424
27 *163:35 *291:27 0.0106917
28 *204:45 *291:27 0.00501964
29 *245:11 *291:11 0.0111824
30 *280:11 *291:11 0.0037571
31 *290:9 *291:9 0
32 *290:11 *291:11 0.0930789
*RES
1 *921:gpio_dm1[33] *291:9 12.9915 
2 *291:9 *291:11 1189.16 
3 *291:11 *291:13 15 
4 *291:13 *291:15 3073.11 
5 *291:15 *291:23 43.3589 
6 *291:23 *291:25 8 
7 *291:25 *291:27 140.298 
8 *291:27 gpio_dm1[33] 9.36547 
*END

*D_NET *292 0.961285
*CONN
*P gpio_dm1[34] O
*I *921:gpio_dm1[34] O *D CF_CARAVEL_SOC
*CAP
1 gpio_dm1[34] 0.00745637
2 *921:gpio_dm1[34] 0.00199459
3 *292:27 0.0402545
4 *292:25 0.0336751
5 *292:15 0.0475656
6 *292:13 0.0466885
7 *292:11 0.0168747
8 *292:9 0.0188693
9 *292:9 *293:9 0.000545404
10 *292:11 *293:11 0
11 *292:11 *309:11 0.00137203
12 *292:11 *339:11 0
13 *292:15 *295:15 0.285086
14 *292:15 *299:23 0.00029932
15 *292:15 *386:65 0.000427208
16 *292:15 *430:23 0
17 *292:15 *431:15 0.00151676
18 *292:15 *452:15 0.000963817
19 *292:15 *466:15 0.0140755
20 *292:15 *469:15 0.000263267
21 *292:15 *539:43 0.00542053
22 *292:15 *548:11 4.51416e-05
23 *292:15 *550:11 0.000316714
24 *292:15 *839:125 0.00129448
25 *292:15 *839:139 0.000764625
26 *292:15 *839:157 0.00149996
27 *292:15 *858:11 0.1495
28 *292:25 *459:23 0.000899753
29 *292:25 *468:27 1.91712e-05
30 *292:25 *468:29 0.000704535
31 *292:25 *470:15 0.00073434
32 *292:25 *543:21 8.66462e-05
33 *292:25 *771:23 0.000247781
34 *292:25 *865:15 6.10958e-05
35 *292:27 *353:11 0
36 *292:27 *386:21 0
37 *292:27 *416:11 0.0641444
38 *292:27 *423:11 0.0284297
39 *292:27 *438:11 0.00614739
40 *292:27 *555:17 0.0186898
41 *292:27 *556:43 0.00881195
42 *292:27 *755:11 0.00250081
43 *292:27 *777:15 0.00453735
44 *292:27 *793:11 0.0544076
45 *292:27 *815:11 0
46 *292:27 *827:11 0.0107901
47 gpio_analog_en[34] gpio_dm1[34] 0.00264466
48 *118:107 *292:15 0.00683138
49 *118:197 *292:15 0.00236923
50 *211:13 *292:15 0.0262966
51 *274:11 *292:11 0.00169907
52 *284:11 *292:11 0.042808
53 *291:9 *292:9 0.000653748
*RES
1 *921:gpio_dm1[34] *292:9 13.5141 
2 *292:9 *292:11 586.991 
3 *292:11 *292:13 15 
4 *292:13 *292:15 3072.63 
5 *292:15 *292:25 37.7664 
6 *292:25 *292:27 254.557 
7 *292:27 gpio_dm1[34] 24.4705 
*END

*D_NET *293 0.801172
*CONN
*P gpio_dm1[35] O
*I *921:gpio_dm1[35] O *D CF_CARAVEL_SOC
*CAP
1 gpio_dm1[35] 0.00894009
2 *921:gpio_dm1[35] 0.00239077
3 *293:27 0.0408587
4 *293:25 0.0338498
5 *293:15 0.069981
6 *293:13 0.0680498
7 *293:11 0.0166029
8 *293:9 0.0189937
9 gpio_dm1[35] gpio_ib_mode_sel[35] 0
10 gpio_dm1[35] gpio_vtrip_sel[35] 0.000176102
11 gpio_dm1[35] *414:11 0
12 gpio_dm1[35] *420:11 0.00371479
13 gpio_dm1[35] *456:27 0.000693778
14 *293:9 *294:9 0
15 *293:9 *340:11 0.000142505
16 *293:11 *339:11 0.0457432
17 *293:15 *322:115 0.000720628
18 *293:15 *322:163 0.00302933
19 *293:15 *322:167 7.64059e-06
20 *293:15 *325:145 0.000330774
21 *293:15 *325:147 0.00163034
22 *293:15 *346:15 0.00896394
23 *293:15 *397:79 0
24 *293:15 *444:71 0.00306597
25 *293:15 *463:15 0.277045
26 *293:15 *467:15 0.00115505
27 *293:15 *471:27 0.00523966
28 *293:15 *472:55 0.00300081
29 *293:15 *531:16 0.0139366
30 *293:15 *538:19 0.000430034
31 *293:15 *539:55 0.0182388
32 *293:15 *541:95 0.0020648
33 *293:15 *556:11 0
34 *293:15 *557:11 0
35 *293:15 *557:19 0.000778197
36 *293:15 *559:11 0
37 *293:15 *560:11 0
38 *293:15 *568:11 0
39 *293:15 *570:14 7.2538e-05
40 *293:15 *571:19 0.00566775
41 *293:15 *693:133 0.00283371
42 *293:15 *693:169 0.000515322
43 *293:15 *826:43 0.00015451
44 *293:15 *840:19 0.030015
45 *293:25 *364:37 8.66462e-05
46 *293:25 *430:21 0.000212722
47 *293:25 *469:15 0.00103284
48 *293:25 *548:21 0.000919325
49 *293:25 *557:27 0.000333031
50 *293:25 *771:23 0.000728054
51 *293:25 *793:25 0.000491194
52 *293:25 *842:15 0
53 *293:25 *846:37 0.00174378
54 *293:25 *860:15 0.000418517
55 *293:27 gpio_vtrip_sel[35] 0.000411805
56 *293:27 *295:27 0.00534561
57 *293:27 *384:11 0.00482985
58 *293:27 *415:11 0
59 *293:27 *420:11 0.00121905
60 *293:27 *552:25 0
61 *293:27 *737:81 0
62 *293:27 *757:11 0
63 *293:27 *760:11 0.080182
64 *293:27 *821:13 0.00126032
65 gpio_analog_en[35] gpio_dm1[35] 0
66 *118:85 *293:15 0.00192744
67 *118:179 *293:15 0.00422753
68 *118:183 *293:15 0.000411033
69 *118:187 *293:15 0.00545054
70 *274:11 *293:11 0
71 *279:11 *293:11 0.00036119
72 *292:9 *293:9 0.000545404
73 *292:11 *293:11 0
*RES
1 *921:gpio_dm1[35] *293:9 13.6784 
2 *293:9 *293:11 583.117 
3 *293:11 *293:13 15 
4 *293:13 *293:15 3056.91 
5 *293:15 *293:25 44.8252 
6 *293:25 *293:27 1136.16 
7 *293:27 gpio_dm1[35] 47.1551 
*END

*D_NET *294 0.983876
*CONN
*P gpio_dm1[36] O
*I *921:gpio_dm1[36] O *D CF_CARAVEL_SOC
*CAP
1 gpio_dm1[36] 0.00554505
2 *921:gpio_dm1[36] 0.0010458
3 *294:27 0.0200463
4 *294:25 0.0145012
5 *294:23 0.00598423
6 *294:21 0.00636085
7 *294:15 0.0359236
8 *294:13 0.035547
9 *294:11 0.00914743
10 *294:9 0.0101932
11 gpio_dm1[36] *822:9 0.000281527
12 gpio_dm1[36] *823:9 0.000157463
13 *294:9 *295:9 0
14 *294:9 *340:11 0.000112317
15 *294:11 *295:11 0.00601151
16 *294:11 *346:11 0.0094121
17 *294:15 *338:71 0.0183224
18 *294:15 *386:207 0.010935
19 *294:15 *474:15 0.00024201
20 *294:15 *480:15 0.265944
21 *294:15 *559:19 0.235922
22 *294:15 *847:16 0.000182031
23 *294:21 *338:77 0
24 *294:23 *339:23 0.0238949
25 *294:23 *390:23 0.00388443
26 *294:23 *461:21 3.72204e-05
27 *294:23 *472:11 0.0112982
28 *294:23 *558:23 0.000993717
29 *294:23 *760:23 0.00335739
30 *294:27 *446:19 0.0750789
31 *294:27 *446:25 0.000214502
32 *294:27 *544:17 0
33 *294:27 *779:11 0.0162783
34 gpio_analog_en[36] gpio_dm1[36] 0
35 *119:27 *294:27 0.0577061
36 *209:15 *294:15 0.0308931
37 *213:11 *294:11 0
38 *227:11 *294:11 0.0281776
39 *238:25 *294:27 2.11066e-05
40 *252:11 *294:11 0.0286398
41 *275:11 *294:11 0.00704819
42 *285:11 *294:11 0.000161338
43 *289:11 *294:11 0.00437439
44 *293:9 *294:9 0
*RES
1 *921:gpio_dm1[36] *294:9 10.2027 
2 *294:9 *294:11 604.598 
3 *294:11 *294:13 15 
4 *294:13 *294:15 2845.38 
5 *294:15 *294:21 27.8989 
6 *294:21 *294:23 45.7371 
7 *294:23 *294:25 8 
8 *294:25 *294:27 973.468 
9 *294:27 gpio_dm1[36] 19.4921 
*END

*D_NET *295 0.961127
*CONN
*P gpio_dm1[37] O
*I *921:gpio_dm1[37] O *D CF_CARAVEL_SOC
*CAP
1 gpio_dm1[37] 0.00694827
2 *921:gpio_dm1[37] 0.00117468
3 *295:27 0.0435903
4 *295:25 0.0383213
5 *295:15 0.0387981
6 *295:13 0.0371188
7 *295:11 0.0118454
8 *295:9 0.0130201
9 *295:9 *296:9 0
10 *295:9 *340:11 0.000142505
11 *295:15 *299:23 0.000337012
12 *295:15 *431:15 0.00165322
13 *295:15 *452:15 0.278745
14 *295:15 *469:15 0.0248291
15 *295:15 *548:11 0.0015183
16 *295:15 *839:125 0.00114512
17 *295:15 *839:139 0.0006764
18 *295:25 *389:21 1.12325e-05
19 *295:25 *390:21 0.00133655
20 *295:25 *428:11 0.000133279
21 *295:25 *432:11 3.22939e-05
22 *295:25 *470:15 0.00350866
23 *295:25 *760:21 5.91252e-05
24 *295:25 *847:24 0.000135641
25 *295:25 *851:15 8.69846e-05
26 *295:25 *852:25 4.51543e-06
27 *295:25 *853:19 0
28 *295:27 *384:11 0.00950668
29 *295:27 *386:21 0
30 *295:27 *414:11 0
31 *295:27 *419:11 0
32 *295:27 *420:11 0.0104624
33 *295:27 *436:11 0
34 *295:27 *456:27 0.0115181
35 *295:27 *469:11 0.00605353
36 *295:27 *760:11 0.0081674
37 *295:27 *815:11 0
38 *295:27 *871:15 0
39 gpio_analog_en[37] gpio_dm1[37] 0
40 *211:13 *295:15 0.0305883
41 *212:19 *295:11 0
42 *250:35 *295:27 0.0066648
43 *251:27 *295:27 0.00775485
44 *252:11 *295:11 0.028056
45 *255:11 *295:11 0.0291634
46 *275:11 *295:11 0.00743733
47 *285:11 *295:11 0.000246122
48 *289:11 *295:11 0.00389238
49 *292:15 *295:15 0.285086
50 *293:27 *295:27 0.00534561
51 *294:9 *295:9 0
52 *294:11 *295:11 0.00601151
*RES
1 *921:gpio_dm1[37] *295:9 10.5013 
2 *295:9 *295:11 601.429 
3 *295:11 *295:13 15 
4 *295:13 *295:15 3046.43 
5 *295:15 *295:25 43.1335 
6 *295:25 *295:27 133.844 
7 *295:27 gpio_dm1[37] 22.2007 
*END

*D_NET *296 0.557629
*CONN
*P gpio_dm1[38] O
*I *921:gpio_dm1[38] O *D CF_CARAVEL_SOC
*CAP
1 gpio_dm1[38] 0.00252126
2 *921:gpio_dm1[38] 0.0022686
3 *296:23 0.0408082
4 *296:21 0.0383181
5 *296:15 0.0124219
6 *296:13 0.0123907
7 *296:11 0.0100022
8 *296:9 0.0122708
9 gpio_dm1[38] *325:99 0
10 gpio_dm1[38] *335:31 0.000645
11 *296:11 *540:38 0.00407027
12 *296:11 *740:67 0.0199394
13 *296:15 *339:15 0.00125464
14 *296:15 *771:27 0.0233212
15 *296:15 *842:11 0.0626439
16 *296:21 *545:9 4.89546e-05
17 *296:23 *432:15 0.112556
18 *296:23 *456:31 0.00291337
19 *296:23 *470:15 0.0580489
20 *296:23 *543:11 0.0071617
21 *296:23 *842:11 0.00485119
22 *296:23 *847:16 0
23 gpio_analog_pol[43] *296:21 2.75733e-06
24 *118:19 *296:11 0
25 *121:15 *296:23 0.0114288
26 *165:23 *296:23 0.0259687
27 *169:15 *296:23 0.00365722
28 *170:23 *296:15 0.0116494
29 *245:11 *296:11 0.00248063
30 *250:11 *296:11 0.00238654
31 *251:11 *296:11 0.00893252
32 *257:11 *296:11 0.0301255
33 *257:15 *296:23 0.0271963
34 *280:11 *296:11 0.00328303
35 *290:11 *296:11 0.000229774
36 *291:11 *296:11 0.00183194
37 *295:9 *296:9 0
*RES
1 *921:gpio_dm1[38] *296:9 12.8235 
2 *296:9 *296:11 611.641 
3 *296:11 *296:13 15 
4 *296:13 *296:15 695.254 
5 *296:15 *296:21 23.6732 
6 *296:21 *296:23 307.974 
7 *296:23 gpio_dm1[38] 46.9532 
*END

*D_NET *297 0.551374
*CONN
*P gpio_dm1[39] O
*I *921:gpio_dm1[39] O *D CF_CARAVEL_SOC
*CAP
1 gpio_dm1[39] 0.000300392
2 *921:gpio_dm1[39] 0.00037829
3 *297:22 0.00824466
4 *297:20 0.00932091
5 *297:14 0.0313804
6 *297:12 0.0300037
7 *297:10 0.0199238
8 *297:8 0.0203021
9 *297:8 *302:13 0.000373131
10 *297:8 *341:12 0.000945471
11 *297:10 *340:35 0.00569479
12 *297:10 *341:12 0.000446861
13 *297:10 *341:14 0.0461569
14 *297:10 *839:15 0.000441349
15 *297:14 *482:15 0.0256358
16 *297:14 *483:23 0.0242082
17 *297:14 *555:13 0.0142971
18 *297:14 *558:13 0.0247691
19 *297:14 *828:15 0.0270297
20 *297:14 *837:11 0.055812
21 *297:14 *838:11 0.000339058
22 *297:20 gpio_vtrip_sel[40] 0.00070421
23 *297:20 *431:19 0
24 *297:22 *549:13 0.00379285
25 *297:22 *692:35 0.0314407
26 *297:22 *693:193 0.00504301
27 *297:22 *739:140 0.00181605
28 *297:22 *848:11 0.00607957
29 *297:22 *867:11 0.0033564
30 *167:19 *297:14 2.57582e-05
31 *207:31 *297:22 0.0052731
32 *252:15 *297:22 0.00655986
33 *255:15 *297:14 0.141279
*RES
1 *921:gpio_dm1[39] *297:8 10.3781 
2 *297:8 *297:10 111.63 
3 *297:10 *297:12 8 
4 *297:12 *297:14 267.23 
5 *297:14 *297:20 39.3864 
6 *297:20 *297:22 59.5616 
7 *297:22 gpio_dm1[39] 12.7125 
*END

*D_NET *298 0.107024
*CONN
*P gpio_dm1[3] O
*I *921:gpio_dm1[3] O *D CF_CARAVEL_SOC
*CAP
1 gpio_dm1[3] 0.0047079
2 *921:gpio_dm1[3] 0.0057345
3 *298:11 0.0156662
4 *298:9 0.0166928
5 gpio_dm1[3] gpio_slow_sel[3] 0
6 *298:9 *303:9 0
7 *298:11 *303:11 0.0439848
8 gpio_dm0[3] gpio_dm1[3] 0
9 *133:11 *298:11 0.000273589
10 *169:11 *298:11 0.00204595
11 *199:11 *298:11 0.00195433
12 *222:11 *298:11 0.00198656
13 *224:15 *298:9 0
14 *267:13 *298:11 0.000186795
15 *267:15 *298:11 0.013791
16 *287:9 *298:9 0
*RES
1 *921:gpio_dm1[3] *298:9 22.2296 
2 *298:9 *298:11 102.237 
3 *298:11 gpio_dm1[3] 17.7039 
*END

*D_NET *299 0.520015
*CONN
*P gpio_dm1[40] O
*I *921:gpio_dm1[40] O *D CF_CARAVEL_SOC
*CAP
1 gpio_dm1[40] 8.23013e-05
2 *921:gpio_dm1[40] 0.00033809
3 *299:27 0.00289575
4 *299:23 0.0288959
5 *299:21 0.0267552
6 *299:17 0.000760007
7 *299:11 0.00685019
8 *299:9 0.00710101
9 *299:9 *300:11 0.000132738
10 *299:9 *341:12 0.000227734
11 *299:11 *300:11 0.0471703
12 *299:11 *340:11 0.0182307
13 *299:11 *340:19 0.00104099
14 *299:11 *341:12 0.000295704
15 *299:11 *341:14 0.00465832
16 *299:17 *535:117 0.000136743
17 *299:21 *301:13 0.00153555
18 *299:21 *302:13 0.0015338
19 *299:23 *431:15 0.00461556
20 *299:23 *452:15 0.0267809
21 *299:23 *479:15 0.031029
22 *299:23 *484:15 0.00514171
23 *299:23 *548:11 0.00445359
24 *299:23 *839:125 0.000772048
25 *299:27 *478:13 0
26 *299:27 *739:140 0
27 *121:15 *299:23 0.0116252
28 *211:13 *299:23 0.143111
29 *256:15 *299:23 0.117733
30 *258:11 *299:11 0.00390442
31 *258:15 *299:11 0.0215707
32 *292:15 *299:23 0.00029932
33 *295:15 *299:23 0.000337012
*RES
1 *921:gpio_dm1[40] *299:9 8.69813 
2 *299:9 *299:11 597.907 
3 *299:11 *299:17 31.5743 
4 *299:17 *299:21 29.4496 
5 *299:21 *299:23 275.774 
6 *299:23 *299:27 49.2007 
7 *299:27 gpio_dm1[40] 1.48107 
*END

*D_NET *300 0.388385
*CONN
*P gpio_dm1[41] O
*I *921:gpio_dm1[41] O *D CF_CARAVEL_SOC
*CAP
1 gpio_dm1[41] 0.000542363
2 *921:gpio_dm1[41] 0.000295111
3 *300:27 0.00625362
4 *300:25 0.00606744
5 *300:19 0.0134955
6 *300:17 0.0131393
7 *300:15 0.00214355
8 *300:11 0.00882996
9 *300:9 0.00698153
10 *300:9 *301:11 0
11 *300:9 *341:12 0.000227734
12 *300:11 *301:13 0.0477249
13 *300:11 *340:11 0.00023228
14 *300:11 *340:19 0.00258402
15 *300:11 *341:12 0.000350289
16 *300:11 *341:14 0.00464898
17 *300:15 *301:13 0.000693129
18 *300:15 *842:7 0.0019827
19 *300:15 *843:9 0.00029908
20 *300:15 *845:9 0
21 *300:19 *335:25 0.0300684
22 *300:19 *560:19 0.014949
23 *300:19 *561:18 0.00332027
24 *300:19 *564:13 0.0113079
25 *300:19 *695:67 0.0121069
26 *300:19 *844:13 0.0245648
27 *300:25 gpio_vtrip_sel[42] 4.88743e-05
28 *300:27 *345:23 0.00115934
29 *300:27 *478:9 4.40645e-05
30 *300:27 *560:27 0.0298184
31 *300:27 *786:23 0.000306356
32 *300:27 *859:11 0.00510979
33 *124:9 *300:15 0
34 *211:9 *300:15 0
35 *252:15 *300:27 0.0311783
36 *258:15 *300:11 4.29056e-05
37 *258:15 *300:15 0.00118544
38 *284:15 *300:19 0.0593802
39 *299:9 *300:11 0.000132738
40 *299:11 *300:11 0.0471703
*RES
1 *921:gpio_dm1[41] *300:9 8.69813 
2 *300:9 *300:11 605.126 
3 *300:11 *300:15 49.8904 
4 *300:15 *300:17 15 
5 *300:17 *300:19 920.129 
6 *300:19 *300:25 28.2511 
7 *300:25 *300:27 59.0464 
8 *300:27 gpio_dm1[41] 16.3375 
*END

*D_NET *301 0.341802
*CONN
*P gpio_dm1[42] O
*I *921:gpio_dm1[42] O *D CF_CARAVEL_SOC
*CAP
1 gpio_dm1[42] 0.000904892
2 *921:gpio_dm1[42] 0.000323866
3 *301:17 0.0187971
4 *301:15 0.0178922
5 *301:13 0.00997398
6 *301:11 0.0102978
7 *301:11 *302:11 0
8 *301:13 *302:13 0.0256237
9 *301:13 *302:19 0.000282705
10 *301:13 *322:11 8.72356e-05
11 *301:13 *340:11 0.000123768
12 *301:13 *340:19 0.0022533
13 *301:13 *341:12 0.000486566
14 *301:13 *341:14 0.0051221
15 *301:13 *841:9 0.000250022
16 *301:13 *842:7 0.00194749
17 *301:17 *302:21 0.00233946
18 *301:17 *345:15 0.0108934
19 *301:17 *541:19 0.000345478
20 *301:17 *546:13 0.000128867
21 *301:17 *552:13 0.000113998
22 *301:17 *560:19 0.0127201
23 *301:17 *564:13 0.0835879
24 *301:17 *565:13 0.0854791
25 *301:17 *566:13 0.00147524
26 *301:17 *843:11 0.000197586
27 *248:19 *301:17 0.000100651
28 *252:15 *301:17 0
29 *284:15 *301:17 0.000100139
30 *299:21 *301:13 0.00153555
31 *300:9 *301:11 0
32 *300:11 *301:13 0.0477249
33 *300:15 *301:13 0.000693129
*RES
1 *921:gpio_dm1[42] *301:11 9.19263 
2 *301:11 *301:13 660.061 
3 *301:13 *301:15 8 
4 *301:15 *301:17 173.678 
5 *301:17 gpio_dm1[42] 21.1846 
*END

*D_NET *302 0.237876
*CONN
*P gpio_dm1[43] O
*I *921:gpio_dm1[43] O *D CF_CARAVEL_SOC
*CAP
1 gpio_dm1[43] 0.000922813
2 *921:gpio_dm1[43] 0.000222892
3 *302:21 0.0181809
4 *302:19 0.0181321
5 *302:13 0.0204513
6 *302:11 0.0198002
7 *302:13 *322:11 0
8 *302:13 *340:35 0
9 *302:13 *341:12 0.000888595
10 *302:13 *341:14 0.015567
11 *302:13 *840:7 0.000241774
12 *302:19 *840:7 0.00157498
13 *302:19 *841:9 0.000457375
14 *302:21 *345:15 0.000439253
15 *302:21 *565:13 0.0599348
16 *302:21 *843:11 0.0186645
17 *302:21 *854:11 0.00877461
18 *302:21 *861:11 0.00991911
19 *207:29 gpio_dm1[43] 0
20 *248:19 *302:21 0.0135513
21 *297:8 *302:13 0.000373131
22 *299:21 *302:13 0.0015338
23 *301:11 *302:11 0
24 *301:13 *302:13 0.0256237
25 *301:13 *302:19 0.000282705
26 *301:17 *302:21 0.00233946
*RES
1 *921:gpio_dm1[43] *302:11 9.89162 
2 *302:11 *302:13 643.696 
3 *302:13 *302:19 30.765 
4 *302:19 *302:21 122.416 
5 *302:21 gpio_dm1[43] 21.6611 
*END

*D_NET *303 0.172734
*CONN
*P gpio_dm1[4] O
*I *921:gpio_dm1[4] O *D CF_CARAVEL_SOC
*CAP
1 gpio_dm1[4] 0.00402071
2 *921:gpio_dm1[4] 0.00557449
3 *303:11 0.0153189
4 *303:9 0.0168727
5 *303:9 *304:9 0
6 *303:11 *771:31 0.00418621
7 gpio_analog_en[4] gpio_dm1[4] 0.00294046
8 gpio_dm0[4] gpio_dm1[4] 0
9 *133:11 *303:11 0.06241
10 *166:11 *303:11 0.0168539
11 *199:11 *303:11 0
12 *224:15 *303:9 0.000467319
13 *225:15 *303:9 0.000104749
14 *298:9 *303:9 0
15 *298:11 *303:11 0.0439848
*RES
1 *921:gpio_dm1[4] *303:9 22.1848 
2 *303:9 *303:11 143.745 
3 *303:11 gpio_dm1[4] 17.6012 
*END

*D_NET *304 0.215266
*CONN
*P gpio_dm1[5] O
*I *921:gpio_dm1[5] O *D CF_CARAVEL_SOC
*CAP
1 gpio_dm1[5] 0.00542595
2 *921:gpio_dm1[5] 0.00459725
3 *304:11 0.0284554
4 *304:9 0.0276267
5 gpio_dm1[5] gpio_slow_sel[5] 0.00248668
6 *304:9 *305:9 0
7 *304:11 *310:11 0.00216584
8 *304:11 *312:15 0.00933931
9 *304:11 *349:11 0.0093668
10 *304:11 *484:11 0.00214822
11 gpio_dm0[5] gpio_dm1[5] 0
12 *128:11 *304:11 0.0408299
13 *131:11 *304:11 0.00219829
14 *155:11 *304:11 0.0110498
15 *175:11 *304:11 0.000953532
16 *180:11 *304:11 0.00103832
17 *188:11 *304:11 0.0467262
18 *225:15 *304:9 0.00027691
19 *225:19 *304:11 0.00800497
20 *259:11 *304:11 0
21 *260:11 *304:11 0.00416022
22 *276:13 *304:11 0.00712919
23 *287:11 *304:11 0.00128642
24 *303:9 *304:9 0
*RES
1 *921:gpio_dm1[5] *304:9 19.6536 
2 *304:9 *304:11 183.982 
3 *304:11 gpio_dm1[5] 20.5039 
*END

*D_NET *305 0.209993
*CONN
*P gpio_dm1[6] O
*I *921:gpio_dm1[6] O *D CF_CARAVEL_SOC
*CAP
1 gpio_dm1[6] 0.00219011
2 *921:gpio_dm1[6] 0.00815621
3 *305:11 0.0261066
4 *305:9 0.0320726
5 gpio_dm1[6] gpio_slow_sel[6] 0
6 *305:9 *306:9 0
7 *305:11 gpio_inp_dis[2] 0
8 *305:11 *311:11 0.0161991
9 *305:11 *375:59 0.0458677
10 *305:11 *782:47 0.0117929
11 *305:11 *815:53 0.0286812
12 *120:11 *305:11 0
13 *219:11 *305:11 0.0389269
14 *225:15 *305:9 0
15 *274:75 *305:11 0
16 *281:11 *305:11 0
17 *304:9 *305:9 0
*RES
1 *921:gpio_dm1[6] *305:9 27.2528 
2 *305:9 *305:11 1250.25 
3 *305:11 gpio_dm1[6] 12.6956 
*END

*D_NET *306 0.397038
*CONN
*P gpio_dm1[7] O
*I *921:gpio_dm1[7] O *D CF_CARAVEL_SOC
*CAP
1 gpio_dm1[7] 0.00344348
2 *921:gpio_dm1[7] 0.00678572
3 *306:11 0.0380745
4 *306:9 0.0414168
5 *306:9 *307:9 0
6 *306:11 *348:11 0.0194314
7 *306:11 *408:101 0.000190051
8 *306:11 *804:27 0.00966176
9 gpio_analog_en[7] gpio_dm1[7] 0
10 *168:11 *306:11 0
11 *218:11 *306:11 0.110155
12 *263:11 *306:11 0.167879
13 *305:9 *306:9 0
*RES
1 *921:gpio_dm1[7] *306:9 24.5051 
2 *306:9 *306:11 2162.3 
3 *306:11 gpio_dm1[7] 15.4359 
*END

*D_NET *307 0.330212
*CONN
*P gpio_dm1[8] O
*I *921:gpio_dm1[8] O *D CF_CARAVEL_SOC
*CAP
1 gpio_dm1[8] 0.00458679
2 *921:gpio_dm1[8] 0.00553258
3 *307:11 0.0788375
4 *307:9 0.0797833
5 gpio_dm1[8] *791:27 0
6 *307:11 *321:63 0.00918864
7 *307:11 *327:39 0.000501713
8 *307:11 *481:11 0.0956604
9 *307:11 *535:121 0
10 gpio_analog_en[8] gpio_dm1[8] 0
11 *89:11 *307:11 0.00522076
12 *104:11 *307:11 0.0156328
13 *113:11 *307:11 0
14 *133:11 *307:11 0.00449014
15 *181:11 *307:11 0.020516
16 *202:11 *307:11 0.0102613
17 *224:19 *307:11 0
18 *288:11 *307:11 0
19 *306:9 *307:9 0
*RES
1 *921:gpio_dm1[8] *307:9 21.8432 
2 *307:9 *307:11 2389.79 
3 *307:11 gpio_dm1[8] 18.2695 
*END

*D_NET *308 0.522757
*CONN
*P gpio_dm1[9] O
*I *921:gpio_dm1[9] O *D CF_CARAVEL_SOC
*CAP
1 gpio_dm1[9] 0.00624832
2 *921:gpio_dm1[9] 0.00338262
3 *308:11 0.0547237
4 *308:9 0.051858
5 *308:9 *340:11 0.000142505
6 *308:11 *331:13 0
7 *308:11 *430:27 0.000195307
8 *308:11 *445:19 0.00410307
9 *308:11 *562:123 0.000195307
10 *308:11 *705:39 0.0144319
11 *308:11 *716:15 0.0111429
12 *308:11 *727:15 0.00127477
13 *90:11 *308:11 0.165163
14 *144:11 *308:11 0.0016365
15 *223:11 *308:11 0.00286599
16 *226:11 *308:11 0.204352
17 *266:9 *308:9 0.00104027
*RES
1 *921:gpio_dm1[9] *308:9 17.2419 
2 *308:9 *308:11 471.74 
3 *308:11 gpio_dm1[9] 22.8559 
*END

*D_NET *309 0.0808422
*CONN
*P gpio_dm2[0] O
*I *921:gpio_dm2[0] O *D CF_CARAVEL_SOC
*CAP
1 gpio_dm2[0] 0.00599049
2 *921:gpio_dm2[0] 0.00279831
3 *309:11 0.0228274
4 *309:9 0.0196352
5 gpio_dm2[0] gpio_holdover[0] 0.00208187
6 gpio_dm2[0] gpio_out[0] 0
7 *309:9 *320:13 0
8 *309:9 *340:11 0.000142505
9 *309:11 *320:13 0.00715562
10 *309:11 *443:19 0
11 *309:11 *452:11 0.000148344
12 *309:11 *463:11 0.000466944
13 *309:11 *474:11 0.000483734
14 *309:11 *479:11 0.000708185
15 *309:11 *480:11 0.000779695
16 *309:11 *534:15 0.00344596
17 *309:11 *571:31 0.000483734
18 gpio_analog_sel[0] gpio_dm2[0] 0.00265493
19 *242:9 gpio_dm2[0] 0.00087184
20 *245:11 *309:11 0
21 *250:11 *309:11 0
22 *265:13 *309:11 0.00636036
23 *274:11 *309:11 0.00142428
24 *279:11 *309:11 0
25 *284:11 *309:11 0.00101083
26 *292:11 *309:11 0.00137203
*RES
1 *921:gpio_dm2[0] *309:9 14.4941 
2 *309:9 *309:11 58.8261 
3 *309:11 gpio_dm2[0] 25.6913 
*END

*D_NET *310 0.489297
*CONN
*P gpio_dm2[10] O
*I *921:gpio_dm2[10] O *D CF_CARAVEL_SOC
*CAP
1 gpio_dm2[10] 0.00410066
2 *921:gpio_dm2[10] 0.00458813
3 *310:11 0.0440675
4 *310:9 0.0445549
5 gpio_dm2[10] gpio_holdover[10] 0.000384918
6 gpio_dm2[10] *354:15 0.00422368
7 gpio_dm2[10] *706:11 0
8 *310:9 *311:9 0
9 *310:9 *352:9 0.000708102
10 *310:11 *349:11 0.00974749
11 *310:11 *444:11 0.0118408
12 *310:11 *484:11 0.184369
13 *131:11 *310:11 0.14949
14 *135:11 *310:11 0.0244807
15 *155:11 *310:11 0.00457529
16 *225:19 *310:11 0
17 *304:11 *310:11 0.00216584
*RES
1 *921:gpio_dm2[10] *310:9 19.4389 
2 *310:9 *310:11 2631.36 
3 *310:11 gpio_dm2[10] 20.3639 
*END

*D_NET *311 0.46913
*CONN
*P gpio_dm2[11] O
*I *921:gpio_dm2[11] O *D CF_CARAVEL_SOC
*CAP
1 gpio_dm2[11] 0.00197694
2 *921:gpio_dm2[11] 0.00850899
3 *311:11 0.0551335
4 *311:9 0.0616656
5 gpio_dm2[11] gpio_holdover[11] 0.000241219
6 gpio_dm2[11] *355:15 6.39677e-05
7 *311:9 *312:9 0
8 *311:11 gpio_holdover[10] 0
9 *311:11 gpio_ib_mode_sel[8] 0
10 *311:11 gpio_oeb[9] 0
11 *311:11 gpio_out[8] 0
12 *311:11 *815:53 0.00696957
13 gpio_analog_pol[10] *311:11 0
14 gpio_analog_pol[9] *311:11 0
15 gpio_analog_sel[11] gpio_dm2[11] 0
16 *219:11 *311:11 0.131847
17 *264:11 *311:11 0.186524
18 *305:11 *311:11 0.0161991
19 *310:9 *311:9 0
*RES
1 *921:gpio_dm2[11] *311:9 27.0811 
2 *311:9 *311:11 2858.14 
3 *311:11 gpio_dm2[11] 12.8337 
*END

*D_NET *312 0.470669
*CONN
*P gpio_dm2[12] O
*I *921:gpio_dm2[12] O *D CF_CARAVEL_SOC
*CAP
1 gpio_dm2[12] 0.00381706
2 *921:gpio_dm2[12] 0.00514843
3 *312:19 0.0729272
4 *312:17 0.0691101
5 *312:15 0.00466573
6 *312:9 0.00981416
7 gpio_dm2[12] gpio_holdover[12] 0
8 *312:9 *313:9 0
9 *312:15 *315:11 0.00189639
10 *312:15 *321:11 0.00203699
11 *312:19 *337:35 0.00174953
12 *312:19 *375:43 0.0139389
13 *312:19 *532:36 0
14 *312:19 *535:121 0.000250694
15 *312:19 *568:15 0.0139424
16 *312:19 *782:31 0.00724733
17 gpio_analog_sel[12] gpio_dm2[12] 0.00330132
18 *94:11 *312:19 0.0027025
19 *113:19 *312:19 0.000302521
20 *122:13 *312:19 0.000571788
21 *128:11 *312:15 0.000242604
22 *129:9 *312:15 4.92467e-05
23 *132:11 *312:19 0
24 *136:11 *312:19 0.00521808
25 *161:13 *312:19 0.00189576
26 *171:13 *312:19 0.000935226
27 *176:11 *312:19 0.00674026
28 *182:19 *312:19 0.18397
29 *202:25 *312:19 0.000454367
30 *215:13 *312:19 0.0001646
31 *259:11 *312:15 0.0067185
32 *260:19 *312:19 0.0415182
33 *266:11 *312:19 0
34 *304:11 *312:15 0.00933931
35 *311:9 *312:9 0
*RES
1 *921:gpio_dm2[12] *312:9 19.9971 
2 *312:9 *312:15 47.2653 
3 *312:15 *312:17 8 
4 *312:17 *312:19 2873.63 
5 *312:19 gpio_dm2[12] 19.0684 
*END

*D_NET *313 0.622218
*CONN
*P gpio_dm2[13] O
*I *921:gpio_dm2[13] O *D CF_CARAVEL_SOC
*CAP
1 gpio_dm2[13] 0.00298786
2 *921:gpio_dm2[13] 0.00653271
3 *313:18 1.53193e-05
4 *313:11 0.0625802
5 *313:9 0.0661404
6 gpio_dm2[13] gpio_holdover[13] 0.000925298
7 gpio_dm2[13] gpio_out[13] 0
8 gpio_dm2[13] *357:23 0.00222149
9 *313:9 *463:9 0
10 *313:11 *445:11 0.245668
11 *313:11 *531:28 0.222531
12 *313:11 *692:23 0.0126153
13 *94:19 *313:11 0
14 *312:9 *313:9 0
*RES
1 *921:gpio_dm2[13] *313:9 23.2171 
2 *313:9 *313:11 3544.11 
3 *313:11 gpio_dm2[13] 16.2264 
4 gpio_dm2[13] *313:18 0.0606667 
*END

*D_NET *314 0.605373
*CONN
*P gpio_dm2[14] O
*I *921:gpio_dm2[14] O *D CF_CARAVEL_SOC
*CAP
1 gpio_dm2[14] 0.00540068
2 *921:gpio_dm2[14] 0.00238847
3 *314:19 0.104932
4 *314:17 0.100038
5 *314:13 0.0106814
6 *314:9 0.0125633
7 gpio_dm2[14] *358:23 0.000242342
8 *314:9 *315:9 0.000604895
9 *314:9 *340:11 0.000142505
10 *314:13 *352:11 0.00221272
11 *314:17 *474:9 0.000161602
12 *314:19 *337:19 0.0134623
13 *314:19 *350:11 0.00374251
14 *314:19 *474:11 1.61501e-05
15 *314:19 *479:11 0
16 *314:19 *480:11 0
17 *314:19 *534:15 0
18 *314:19 *571:31 0
19 *314:19 *699:10 0
20 *314:19 *700:10 0.00619674
21 *314:19 *744:15 0
22 gpio_analog_sel[14] gpio_dm2[14] 0.00374664
23 *91:9 *314:17 0.00015403
24 *91:11 *314:13 4.56421e-05
25 *92:9 *314:17 0
26 *96:11 *314:19 0.293601
27 *105:27 *314:19 0.0419381
28 *125:11 *314:19 0.00108351
29 *206:19 *314:19 0
30 *274:11 *314:13 0.0020186
31 *279:11 *314:13 0
*RES
1 *921:gpio_dm2[14] *314:9 13.9789 
2 *314:9 *314:13 49.944 
3 *314:13 *314:17 9.30107 
4 *314:17 *314:19 3759.62 
5 *314:19 gpio_dm2[14] 44.8762 
*END

*D_NET *315 0.452812
*CONN
*P gpio_dm2[15] O
*I *921:gpio_dm2[15] O *D CF_CARAVEL_SOC
*CAP
1 gpio_dm2[15] 8.82969e-05
2 *921:gpio_dm2[15] 0.00502428
3 *315:27 0.140502
4 *315:25 0.142347
5 *315:15 0.00510156
6 *315:13 0.00316819
7 *315:11 0.0194217
8 *315:9 0.024446
9 gpio_dm2[15] gpio_holdover[15] 0
10 *315:9 *463:9 0
11 *315:11 *321:11 0.023789
12 *315:11 *532:36 0.0291584
13 *315:15 *789:23 0.000433762
14 *315:15 *833:31 0.00914478
15 *315:25 *436:23 0.00226988
16 *315:25 *694:6 0.00307895
17 gpio_analog_sel[15] gpio_dm2[15] 0
18 *112:11 *315:11 0.00389427
19 *129:11 *315:11 0.00715489
20 *139:11 *315:11 0.00490048
21 *161:15 *315:25 0.00150416
22 *162:11 *315:11 0.0133227
23 *182:11 *315:11 0.00221846
24 *183:19 *315:27 0
25 *203:11 *315:11 0.000637361
26 *225:19 *315:11 0
27 *271:15 *315:15 0.00485888
28 *271:25 *315:25 0.00350595
29 *274:125 *315:15 0.000338455
30 *312:15 *315:11 0.00189639
31 *314:9 *315:9 0.000604895
*RES
1 *921:gpio_dm2[15] *315:9 20.2976 
2 *315:9 *315:11 1031.75 
3 *315:11 *315:13 15 
4 *315:13 *315:15 101.624 
5 *315:15 *315:25 48.1567 
6 *315:25 *315:27 3127.88 
7 *315:27 gpio_dm2[15] 1.86429 
*END

*D_NET *316 0.526889
*CONN
*P gpio_dm2[16] O
*I *921:gpio_dm2[16] O *D CF_CARAVEL_SOC
*CAP
1 gpio_dm2[16] 0.134733
2 *921:gpio_dm2[16] 0.00240572
3 *316:17 0.134733
4 *316:15 0.0286616
5 *316:13 0.0286616
6 *316:11 0.0205711
7 *316:9 0.0229769
8 gpio_dm2[16] gpio_holdover[16] 0
9 gpio_dm2[16] *537:240 0.00208434
10 *316:9 *317:9 0
11 *316:9 *340:11 0.000112317
12 *316:11 *319:11 0.0066518
13 *316:11 *339:11 0.00266337
14 *316:11 *483:11 0
15 *316:11 *551:125 0.00172776
16 *316:11 *701:15 0.00263235
17 *316:11 *788:27 0.00738178
18 *316:15 *681:15 0.000158056
19 *316:15 *685:15 0.000241161
20 gpio_analog_sel[16] gpio_dm2[16] 0
21 *97:11 *316:11 0
22 *99:11 *316:11 0
23 *117:11 *316:11 0.0388896
24 *140:63 *316:11 0.00279535
25 *140:81 *316:15 0
26 *143:15 *316:15 0
27 *153:19 *316:11 0.000231276
28 *202:27 *316:15 0.011531
29 *274:11 *316:11 0
30 *279:11 *316:11 0.00521011
31 *280:11 *316:11 0.0694729
32 *280:19 *316:11 0.00236373
*RES
1 *921:gpio_dm2[16] *316:9 13.208 
2 *316:9 *316:11 1090.38 
3 *316:11 *316:13 8 
4 *316:13 *316:15 117.779 
5 *316:15 *316:17 8 
6 *316:17 gpio_dm2[16] 3067.94 
*END

*D_NET *317 0.623643
*CONN
*P gpio_dm2[17] O
*I *921:gpio_dm2[17] O *D CF_CARAVEL_SOC
*CAP
1 gpio_dm2[17] 0.130402
2 *921:gpio_dm2[17] 0.00227096
3 *317:17 0.130402
4 *317:15 0.0472647
5 *317:13 0.0472647
6 *317:11 0.0167838
7 *317:9 0.0190548
8 gpio_dm2[17] gpio_holdover[17] 0
9 gpio_dm2[17] *361:35 0.0463185
10 *317:9 *318:9 0
11 *317:9 *340:11 0.000112317
12 *317:11 *319:11 0.0874689
13 *317:11 *323:11 0.00351429
14 *317:11 *483:11 0
15 *317:15 *538:177 0
16 gpio_analog_sel[17] gpio_dm2[17] 0
17 *245:11 *317:11 0.0102554
18 *280:11 *317:11 0.000347824
19 *290:11 *317:11 0.00140668
20 *291:11 *317:11 0.080777
21 *316:9 *317:9 0
*RES
1 *921:gpio_dm2[17] *317:9 12.9504 
2 *317:9 *317:11 1191.8 
3 *317:11 *317:13 8 
4 *317:13 *317:15 165.521 
5 *317:15 *317:17 8 
6 *317:17 gpio_dm2[17] 2960.89 
*END

*D_NET *318 0.665202
*CONN
*P gpio_dm2[18] O
*I *921:gpio_dm2[18] O *D CF_CARAVEL_SOC
*CAP
1 gpio_dm2[18] 0.00478642
2 *921:gpio_dm2[18] 0.00189911
3 *318:17 0.00478642
4 *318:15 0.0683681
5 *318:13 0.0683681
6 *318:11 0.147489
7 *318:9 0.149388
8 gpio_dm2[18] gpio_holdover[18] 0
9 *318:9 *319:9 0.000627604
10 *318:9 *340:11 0.000142505
11 *318:11 *323:11 0.149525
12 *318:11 *324:11 0
13 gpio_analog_sel[18] gpio_dm2[18] 0
14 *140:361 *318:15 0.0010445
15 *282:11 *318:11 0.0678527
16 *286:11 *318:11 0
17 *290:11 *318:11 0.000925421
18 *317:9 *318:9 0
*RES
1 *921:gpio_dm2[18] *318:9 12.7339 
2 *318:9 *318:11 4036.41 
3 *318:11 *318:13 8 
4 *318:13 *318:15 248.211 
5 *318:15 *318:17 8 
6 *318:17 gpio_dm2[18] 109.941 
*END

*D_NET *319 0.670684
*CONN
*P gpio_dm2[19] O
*I *921:gpio_dm2[19] O *D CF_CARAVEL_SOC
*CAP
1 gpio_dm2[19] 0.133333
2 *921:gpio_dm2[19] 0.00191538
3 *319:17 0.133333
4 *319:15 0.0962037
5 *319:13 0.0962037
6 *319:11 0.0154372
7 *319:9 0.0173526
8 *319:9 *321:9 0
9 *319:11 *483:11 0
10 *319:15 *538:161 0
11 gpio_analog_sel[19] gpio_dm2[19] 0
12 *140:63 *319:11 0.00279758
13 *140:93 *319:15 0.000206214
14 *187:15 *319:15 0
15 *279:11 *319:11 0.0107892
16 *280:11 *319:11 0.0683637
17 *316:11 *319:11 0.0066518
18 *317:11 *319:11 0.0874689
19 *318:9 *319:9 0.000627604
*RES
1 *921:gpio_dm2[19] *319:9 12.6555 
2 *319:9 *319:11 1118.55 
3 *319:11 *319:13 8 
4 *319:13 *319:15 343.694 
5 *319:15 *319:17 8 
6 *319:17 gpio_dm2[19] 3025.68 
*END

*D_NET *320 0.042417
*CONN
*P gpio_dm2[1] O
*I *921:gpio_dm2[1] O *D CF_CARAVEL_SOC
*CAP
1 gpio_dm2[1] 0.00718618
2 *921:gpio_dm2[1] 0.00571738
3 *320:13 0.0129036
4 gpio_dm2[1] gpio_holdover[1] 0.00106108
5 gpio_dm2[1] gpio_out[1] 0
6 *320:13 *340:11 0.000112317
7 *320:13 *443:19 0
8 *320:13 *463:11 0.00087541
9 *320:13 *474:11 0.00106801
10 *320:13 *479:11 0.00136866
11 *320:13 *480:11 0.0015612
12 *320:13 *571:31 0.00117585
13 gpio_analog_sel[1] gpio_dm2[1] 0.00223173
14 *279:11 *320:13 0
15 *309:9 *320:13 0
16 *309:11 *320:13 0.00715562
*RES
1 *921:gpio_dm2[1] *320:13 39.9848 
2 *320:13 gpio_dm2[1] 17.9676 
*END

*D_NET *321 0.752207
*CONN
*P gpio_dm2[20] O
*I *921:gpio_dm2[20] O *D CF_CARAVEL_SOC
*CAP
1 gpio_dm2[20] 0.000134032
2 *921:gpio_dm2[20] 0.00457771
3 *321:71 0.137171
4 *321:69 0.137037
5 *321:67 0.105728
6 *321:65 0.105728
7 *321:63 0.00356094
8 *321:61 0.00424511
9 *321:55 0.00131154
10 *321:53 0.000788747
11 *321:47 0.00134761
12 *321:45 0.00118624
13 *321:43 0.00581866
14 *321:41 0.00581866
15 *321:39 0.000374022
16 *321:35 0.00536755
17 *321:23 0.0103897
18 *321:17 0.00612712
19 *321:11 0.0103604
20 *321:9 0.0142071
21 gpio_dm2[20] gpio_holdover[20] 0
22 *321:9 gpio_inp_dis[2] 0.00118666
23 *321:35 *334:26 0.0027158
24 *321:39 *333:11 0.00246344
25 *321:39 *334:26 0.000427876
26 *321:47 *445:11 0.00236857
27 *321:71 gpio_holdover[20] 0
28 *321:71 *722:9 0
29 gpio_analog_en[2] *321:9 0.000794171
30 gpio_analog_sel[20] gpio_dm2[20] 0
31 gpio_analog_sel[20] *321:71 0
32 *93:11 *321:23 0.00216225
33 *109:21 *321:35 0.0060338
34 *109:23 *321:35 0.000117807
35 *112:11 *321:11 0.0214512
36 *116:27 *321:39 0.00245421
37 *128:11 *321:11 0.00251799
38 *130:11 *321:23 0.000386756
39 *137:11 *321:63 0.00139751
40 *142:11 *321:35 0.000612294
41 *143:11 *321:35 0.000543488
42 *148:9 *321:35 5.68352e-05
43 *152:9 *321:35 0
44 *178:19 *321:47 0.00485087
45 *182:11 *321:11 0.00122575
46 *189:19 *321:71 0
47 *203:11 *321:11 0.000126798
48 *205:21 *321:35 0.00567056
49 *206:15 *321:23 0.000121456
50 *206:47 *321:67 0.076318
51 *209:9 *321:23 2.86947e-05
52 *212:9 *321:23 0
53 *222:19 *321:55 0.00319929
54 *223:17 *321:9 0.000573163
55 *223:19 *321:23 0
56 *224:19 *321:63 0
57 *225:19 *321:11 0.00859039
58 *241:11 *321:55 0.00319929
59 *274:39 *321:17 0
60 *274:67 *321:47 3.43144e-05
61 *274:71 *321:43 5.3304e-05
62 *274:133 *321:67 0.00423127
63 *286:15 *321:67 0
64 *288:23 *321:23 0
65 *307:11 *321:63 0.00918864
66 *312:15 *321:11 0.00203699
67 *315:11 *321:11 0.023789
68 *319:9 *321:9 0
*RES
1 *921:gpio_dm2[20] *321:9 20.1259 
2 *321:9 *321:11 577.835 
3 *321:11 *321:17 41.1029 
4 *321:17 *321:23 44.8086 
5 *321:23 *321:35 48.7731 
6 *321:35 *321:39 39.3096 
7 *321:39 *321:41 15 
8 *321:41 *321:43 85.9021 
9 *321:43 *321:45 15 
10 *321:45 *321:47 62.8264 
11 *321:47 *321:53 32.0507 
12 *321:53 *321:55 41.3457 
13 *321:55 *321:61 40.6264 
14 *321:61 *321:63 118.113 
15 *321:63 *321:65 15 
16 *321:65 *321:67 2225.07 
17 *321:67 *321:69 15 
18 *321:69 *321:71 3102.35 
19 *321:71 gpio_dm2[20] 1.86429 
*END

*D_NET *322 1.46211
*CONN
*P gpio_dm2[21] O
*I *921:gpio_dm2[21] O *D CF_CARAVEL_SOC
*CAP
1 gpio_dm2[21] 0.000768731
2 *921:gpio_dm2[21] 0.000271607
3 *322:481 0.0145531
4 *322:479 0.0137844
5 *322:477 0.00475997
6 *322:475 0.00546972
7 *322:469 0.00225002
8 *322:461 0.00710347
9 *322:459 0.00627294
10 *322:453 0.00276591
11 *322:451 0.00367089
12 *322:445 0.00516199
13 *322:443 0.00354726
14 *322:441 0.00203465
15 *322:435 0.00266531
16 *322:429 0.00753033
17 *322:427 0.00764678
18 *322:417 0.00790877
19 *322:415 0.00787394
20 *322:409 0.00290382
21 *322:407 0.00262083
22 *322:401 0.00150324
23 *322:393 0.00989682
24 *322:391 0.00906678
25 *322:385 0.00560466
26 *322:383 0.00611635
27 *322:377 0.0192698
28 *322:375 0.0193989
29 *322:367 0.00261623
30 *322:359 0.00332347
31 *322:355 0.00213709
32 *322:349 0.00875817
33 *322:347 0.00857917
34 *322:341 0.00515216
35 *322:339 0.00517457
36 *322:333 0.0250361
37 *322:331 0.0262229
38 *322:317 0.0135818
39 *322:315 0.0120064
40 *322:313 0.0023402
41 *322:311 0.0023402
42 *322:309 0.00157285
43 *322:307 0.00157285
44 *322:305 0.0028465
45 *322:303 0.0028465
46 *322:301 0.000404576
47 *322:297 0.00285489
48 *322:295 0.00245031
49 *322:293 0.00685004
50 *322:291 0.00685004
51 *322:289 0.00371521
52 *322:287 0.00371521
53 *322:285 0.00637387
54 *322:283 0.00666857
55 *322:277 0.0125714
56 *322:275 0.0122767
57 *322:273 0.00364394
58 *322:271 0.00517293
59 *322:263 0.00384613
60 *322:259 0.00231714
61 *322:257 0.000530606
62 *322:255 0.000611721
63 *322:245 0.00737014
64 *322:235 0.00893426
65 *322:225 0.00731956
66 *322:219 0.0068243
67 *322:215 0.00172344
68 *322:209 0.00208918
69 *322:199 0.00367102
70 *322:191 0.0053149
71 *322:189 0.00315959
72 *322:187 0.00121125
73 *322:181 0.00125925
74 *322:175 0.00614678
75 *322:173 0.00627275
76 *322:167 0.00760698
77 *322:165 0.00747531
78 *322:163 0.00113074
79 *322:161 0.00108844
80 *322:159 0.00356064
81 *322:153 0.00517975
82 *322:145 0.00189995
83 *322:139 0.00234829
84 *322:131 0.00452084
85 *322:129 0.00263274
86 *322:123 0.00369261
87 *322:115 0.00392134
88 *322:111 0.0039346
89 *322:105 0.00622508
90 *322:95 0.0032137
91 *322:89 0.000953849
92 *322:85 0.00342315
93 *322:79 0.00447403
94 *322:75 0.00220892
95 *322:71 0.00205362
96 *322:63 0.00191021
97 *322:61 0.000575925
98 *322:59 0.00124782
99 *322:47 0.00341747
100 *322:39 0.00657194
101 *322:37 0.0044023
102 *322:35 0.00713829
103 *322:33 0.00840187
104 *322:27 0.00232772
105 *322:25 0.00186203
106 *322:19 0.00410737
107 *322:17 0.00330948
108 *322:15 0.00179092
109 *322:11 0.00536241
110 *322:9 0.0038431
111 gpio_dm2[21] gpio_holdover[21] 0
112 *322:9 *341:12 0.000227734
113 *322:11 *340:11 0.0103239
114 *322:11 *341:12 0.00298034
115 *322:19 *339:11 0.0217641
116 *322:19 *551:125 0.0217663
117 *322:27 *335:13 0.00697623
118 *322:27 *338:11 0.00697623
119 *322:27 *443:19 0.000894121
120 *322:35 *740:75 0.0195706
121 *322:39 *697:109 0.000257471
122 *322:39 *826:127 0.02057
123 *322:47 *397:173 0.00601766
124 *322:47 *530:93 0.00467054
125 *322:47 *535:113 0.00202274
126 *322:47 *551:121 0.00601068
127 *322:59 *537:56 2.17681e-05
128 *322:59 *551:121 0.000616686
129 *322:59 *696:81 0.00200751
130 *322:59 *826:125 0.000132813
131 *322:63 *533:102 0.00452007
132 *322:63 *536:63 0.000467807
133 *322:71 *444:21 0.000274416
134 *322:75 *474:15 0.001119
135 *322:75 *771:27 0
136 *322:79 *386:203 0.00224791
137 *322:85 *386:201 0
138 *322:85 *533:92 0.00317379
139 *322:85 *535:93 0.000158983
140 *322:85 *536:47 0.00967049
141 *322:85 *537:34 0.00976095
142 *322:89 *533:84 0.000619133
143 *322:89 *540:32 1.0092e-05
144 *322:95 *533:84 0.00166266
145 *322:95 *535:65 7.14436e-05
146 *322:95 *536:35 0.0022687
147 *322:95 *537:24 9.88574e-06
148 *322:95 *741:140 8.25747e-05
149 *322:95 *826:101 2.68403e-05
150 *322:95 *826:109 6.32615e-05
151 *322:105 *397:135 0.0012998
152 *322:105 *533:68 0.000512245
153 *322:105 *533:70 0.00149235
154 *322:105 *535:65 0.00748499
155 *322:105 *551:95 0.00129263
156 *322:105 *740:123 0.00150063
157 *322:111 *325:35 0
158 *322:111 *336:27 0
159 *322:111 *533:62 0.00820332
160 *322:111 *535:57 0.000712599
161 *322:115 *531:16 0.00256442
162 *322:115 *540:22 0.000182169
163 *322:115 *840:19 0.000116212
164 *322:123 *338:35 0.00010722
165 *322:123 *419:111 0.000246914
166 *322:123 *444:55 0.0013345
167 *322:123 *535:33 0
168 *322:123 *537:10 0.00433009
169 *322:123 *538:39 1.96401e-05
170 *322:123 *540:16 0.00158721
171 *322:129 *336:43 0
172 *322:131 *386:155 0.000312262
173 *322:131 *386:159 0
174 *322:131 *419:111 0.00139674
175 *322:131 *539:11 0.00786665
176 *322:139 *536:11 0.00016364
177 *322:139 *539:15 0
178 *322:139 *696:129 4.4382e-05
179 *322:139 *740:167 0
180 *322:139 *760:29 2.54821e-05
181 *322:139 *847:14 0
182 *322:145 *364:39 0.00183044
183 *322:145 *852:11 0.00182546
184 *322:153 *531:12 2.05503e-05
185 *322:153 *571:23 0
186 *322:159 *529:9 0.0169459
187 *322:159 *539:41 4.45778e-05
188 *322:159 *540:16 0.00193659
189 *322:159 *570:14 0.00343199
190 *322:159 *571:19 0.00343545
191 *322:159 *840:19 0.00809106
192 *322:163 *397:79 0.00113923
193 *322:163 *570:14 0.000470327
194 *322:163 *571:19 0.000707122
195 *322:163 *840:19 0.000918153
196 *322:167 *397:79 0.0279886
197 *322:167 *472:55 0.000575401
198 *322:167 *476:19 0.00431515
199 *322:167 *529:9 0.00310736
200 *322:167 *539:55 0.0491936
201 *322:167 *571:17 0.000500783
202 *322:167 *840:19 0.000867449
203 *322:173 *444:61 4.15283e-06
204 *322:173 *539:61 0.000260718
205 *322:173 *826:43 1.00446e-05
206 *322:175 gpio_out[39] 0.0036861
207 *322:175 *338:63 0.000732086
208 *322:175 *472:55 6.25481e-06
209 *322:175 *539:63 0.0321496
210 *322:175 *541:35 0.00928201
211 *322:181 *539:69 0.000106498
212 *322:187 *826:31 0.00165577
213 *322:191 *325:87 0
214 *322:191 *419:31 0.0172666
215 *322:191 *539:75 0.0205687
216 *322:199 *325:97 0.00658566
217 *322:199 *397:75 4.44263e-05
218 *322:199 *541:53 1.00446e-05
219 *322:199 *737:173 0.00280883
220 *322:209 *397:69 0.000446699
221 *322:209 *444:71 0.000121197
222 *322:209 *451:35 8.11914e-06
223 *322:209 *693:169 0.000410924
224 *322:209 *739:112 0.000127127
225 *322:209 *826:27 0.000163779
226 *322:215 *539:101 0.00184087
227 *322:215 *543:11 0
228 *322:215 *739:104 0.000270434
229 *322:219 *325:107 0.000389377
230 *322:219 *541:63 0.000745903
231 *322:219 *739:92 7.0508e-05
232 *322:225 *397:49 0.000445144
233 *322:225 *443:45 0.000113152
234 *322:225 *539:111 0.015625
235 *322:225 *541:69 4.67767e-05
236 *322:225 *693:163 0.000133218
237 *322:225 *739:84 0.000141662
238 *322:225 *739:92 0
239 *322:225 *815:47 6.67499e-05
240 *322:225 *826:21 0.0015292
241 *322:235 *397:39 0
242 *322:235 *397:49 0.00199359
243 *322:235 *419:23 0.000400622
244 *322:235 *556:21 0.000807095
245 *322:235 *737:147 2.86919e-05
246 *322:235 *826:21 0.000357202
247 *322:235 *873:15 0
248 *322:245 *325:139 3.93715e-05
249 *322:245 *386:45 3.03428e-06
250 *322:245 *539:133 0.000588162
251 *322:245 *541:85 0
252 *322:245 *737:135 0
253 *322:245 *739:74 0.0155308
254 *322:245 *826:21 0.00164185
255 *322:255 *386:45 0.000273695
256 *322:255 *472:11 0.00028042
257 *322:257 *364:39 0.0033165
258 *322:257 *390:23 0.00184515
259 *322:257 *472:11 0.000600844
260 *322:271 *539:151 0.00815599
261 *322:271 *693:103 0.00745026
262 *322:271 *737:97 0.000203733
263 *322:273 *539:155 0.0129658
264 *322:273 *541:107 0.00795723
265 *322:273 *693:95 0.000136495
266 *322:273 *815:15 0.00251022
267 *322:277 *338:83 0.0234795
268 *322:277 *440:19 0.00868782
269 *322:285 *411:11 0.0336883
270 *322:285 *544:17 0.0336905
271 *322:293 *459:13 0.00798704
272 *322:297 *541:115 0
273 *322:301 *396:11 0.0019067
274 *322:301 *472:25 0.000146456
275 *322:301 *802:11 0.00190886
276 *322:305 *693:35 0.00120253
277 *322:309 *361:11 0.00179503
278 *322:309 *370:11 0.0107332
279 *322:309 *755:11 0.0107311
280 *322:313 *436:23 0
281 *322:313 *539:187 0.00441777
282 *322:313 *693:27 0.000375177
283 *322:313 *731:14 0.000120171
284 *322:313 *808:23 0
285 *322:317 *539:205 0
286 *322:317 *705:17 0
287 *322:317 *808:21 0
288 *322:333 *680:17 0.00539677
289 *322:341 *677:15 0.0135303
290 *322:349 *676:15 0.00732086
291 *322:355 *792:15 0
292 *322:359 *720:13 0
293 *322:367 gpio_holdover[9] 0
294 *322:367 *720:13 0
295 *322:367 *836:15 0.00143118
296 *322:375 *722:17 0
297 *322:377 *544:33 0.0164064
298 *322:391 *326:35 0.000729649
299 *322:391 *400:23 0
300 *322:401 *764:23 0.00217686
301 *322:409 *456:11 0.00628796
302 *322:481 *539:435 0.0247841
303 gpio_analog_pol[35] *322:289 0.000200278
304 gpio_analog_sel[21] gpio_dm2[21] 0
305 gpio_analog_sel[43] *322:47 0.00119542
306 gpio_analog_sel[43] *322:105 0.000658323
307 *104:35 *322:385 0
308 *118:19 *322:35 0
309 *118:33 *322:59 0
310 *118:37 *322:59 0.000267877
311 *118:39 *322:63 0.00451837
312 *118:69 *322:95 0
313 *118:69 *322:111 2.17681e-05
314 *118:85 *322:115 0.00131056
315 *118:171 *322:199 0.0117078
316 *118:177 *322:209 7.75751e-05
317 *118:179 *322:209 0.000211953
318 *118:211 *322:277 0.0561712
319 *125:15 *322:39 0.00603726
320 *169:15 *322:75 0.000277582
321 *190:19 gpio_dm2[21] 0
322 *192:19 *322:375 0.000615693
323 *193:57 *322:317 0
324 *197:15 *322:375 0.000303059
325 *204:45 *322:293 0.0168901
326 *206:59 *322:293 0.0330598
327 *245:11 *322:19 0.000665201
328 *251:11 *322:35 0
329 *255:15 *322:145 0.000112764
330 *279:11 *322:19 0.00070855
331 *280:27 *322:385 0
332 *280:27 *322:393 0
333 *281:31 *322:469 0.000710318
334 *293:15 *322:115 0.000720628
335 *293:15 *322:163 0.00302933
336 *293:15 *322:167 7.64059e-06
337 *301:13 *322:11 8.72356e-05
338 *302:13 *322:11 0
*RES
1 *921:gpio_dm2[21] *322:9 8.69813 
2 *322:9 *322:11 130.966 
3 *322:11 *322:15 42.7779 
4 *322:15 *322:17 15 
5 *322:17 *322:19 277.281 
6 *322:19 *322:25 42.0557 
7 *322:25 *322:27 88.885 
8 *322:27 *322:33 49.6786 
9 *322:33 *322:35 249.462 
10 *322:35 *322:37 15 
11 *322:37 *322:39 225.972 
12 *322:39 *322:47 48.2711 
13 *322:47 *322:59 38.6095 
14 *322:59 *322:61 15 
15 *322:61 *322:63 49.2171 
16 *322:63 *322:71 35.2793 
17 *322:71 *322:75 36.5843 
18 *322:75 *322:79 46.3096 
19 *322:79 *322:85 44.3061 
20 *322:85 *322:89 25.1811 
21 *322:89 *322:95 43.0575 
22 *322:95 *322:105 45.5151 
23 *322:105 *322:111 40.5729 
24 *322:111 *322:115 43.2543 
25 *322:115 *322:123 42.2088 
26 *322:123 *322:129 26.1382 
27 *322:129 *322:131 86.3786 
28 *322:131 *322:139 45.6157 
29 *322:139 *322:145 49.6786 
30 *322:145 *322:153 30.9204 
31 *322:153 *322:159 39.7271 
32 *322:159 *322:161 15 
33 *322:161 *322:163 57.7929 
34 *322:163 *322:165 0.849286 
35 *322:165 *322:167 539.462 
36 *322:167 *322:173 27.1946 
37 *322:173 *322:175 58.7029 
38 *322:175 *322:181 24.3775 
39 *322:181 *322:187 48.9714 
40 *322:187 *322:189 15 
41 *322:189 *322:191 225.496 
42 *322:191 *322:199 46.1578 
43 *322:199 *322:209 36.2854 
44 *322:209 *322:215 49.6786 
45 *322:215 *322:219 32.9711 
46 *322:219 *322:225 46.6372 
47 *322:225 *322:235 38.5946 
48 *322:235 *322:245 42.4867 
49 *322:245 *322:255 31.8493 
50 *322:255 *322:257 35.4007 
51 *322:257 *322:259 15 
52 *322:259 *322:263 44.9439 
53 *322:263 *322:271 42.9556 
54 *322:271 *322:273 146.409 
55 *322:273 *322:275 15 
56 *322:275 *322:277 722.742 
57 *322:277 *322:283 34.9093 
58 *322:283 *322:285 434.337 
59 *322:285 *322:287 15 
60 *322:287 *322:289 59.6986 
61 *322:289 *322:291 15 
62 *322:291 *322:293 425.886 
63 *322:293 *322:295 15 
64 *322:295 *322:297 37.7829 
65 *322:297 *322:301 39.795 
66 *322:301 *322:303 15 
67 *322:303 *322:305 48.7407 
68 *322:305 *322:307 15 
69 *322:307 *322:309 136.424 
70 *322:309 *322:311 15 
71 *322:311 *322:313 56.3636 
72 *322:313 *322:315 15 
73 *322:315 *322:317 257.033 
74 *322:317 *322:331 47.4754 
75 *322:331 *322:333 585.406 
76 *322:333 *322:339 17.344 
77 *322:339 *322:341 171.991 
78 *322:341 *322:347 17.2581 
79 *322:347 *322:349 257.914 
80 *322:349 *322:355 17.9451 
81 *322:355 *322:359 35.9807 
82 *322:359 *322:367 46.9484 
83 *322:367 *322:375 32.8801 
84 *322:375 *322:377 578.364 
85 *322:377 *322:383 18.632 
86 *322:383 *322:385 121.986 
87 *322:385 *322:391 17.344 
88 *322:391 *322:393 200.866 
89 *322:393 *322:401 44.6985 
90 *322:401 *322:407 17.6016 
91 *322:407 *322:409 79.7293 
92 *322:409 *322:415 18.632 
93 *322:415 *322:417 163.539 
94 *322:417 *322:427 18.8709 
95 *322:427 *322:429 157.201 
96 *322:429 *322:435 18.3744 
97 *322:435 *322:441 45.6652 
98 *322:441 *322:443 8 
99 *322:443 *322:445 81.8421 
100 *322:445 *322:451 19.92 
101 *322:451 *322:453 46.6279 
102 *322:453 *322:459 18.632 
103 *322:459 *322:461 124.099 
104 *322:461 *322:469 47.7733 
105 *322:469 *322:475 18.632 
106 *322:475 *322:477 107.196 
107 *322:477 *322:479 8 
108 *322:479 *322:481 67.5472 
109 *322:481 gpio_dm2[21] 24.7993 
*END

*D_NET *323 0.801043
*CONN
*P gpio_dm2[22] O
*I *921:gpio_dm2[22] O *D CF_CARAVEL_SOC
*CAP
1 gpio_dm2[22] 0.0976877
2 *921:gpio_dm2[22] 0.00210073
3 *323:17 0.0976877
4 *323:15 0.135869
5 *323:13 0.135869
6 *323:11 0.0356392
7 *323:9 0.0377399
8 *323:9 *324:9 0
9 *323:9 *340:11 0.000285009
10 *323:15 *684:21 0
11 gpio_analog_sel[22] gpio_dm2[22] 0
12 *140:187 *323:15 0.00022731
13 *282:11 *323:11 0.0235333
14 *290:11 *323:11 0.081364
15 *317:11 *323:11 0.00351429
16 *318:11 *323:11 0.149525
*RES
1 *921:gpio_dm2[22] *323:9 12.8197 
2 *323:9 *323:11 1905.94 
3 *323:11 *323:13 8 
4 *323:13 *323:15 487.435 
5 *323:15 *323:17 8 
6 *323:17 gpio_dm2[22] 2217.87 
*END

*D_NET *324 0.809681
*CONN
*P gpio_dm2[23] O
*I *921:gpio_dm2[23] O *D CF_CARAVEL_SOC
*CAP
1 gpio_dm2[23] 0.00229802
2 *921:gpio_dm2[23] 0.00150165
3 *324:19 0.116637
4 *324:17 0.114339
5 *324:15 0.139061
6 *324:13 0.139061
7 *324:11 0.0318327
8 *324:9 0.0333343
9 gpio_dm2[23] gpio_holdover[23] 0
10 *324:9 *325:9 0.00121077
11 *324:15 *405:15 0
12 *324:15 *679:13 0
13 *324:15 *806:15 0.0510206
14 *324:15 *807:15 0
15 gpio_analog_sel[23] gpio_dm2[23] 0
16 *102:23 *324:15 0
17 *192:19 *324:19 0
18 *233:11 *324:11 0.00384502
19 *236:11 *324:11 0.01656
20 *244:11 *324:11 0.0799226
21 *272:11 *324:11 0.0790175
22 *278:11 *324:11 0
23 *286:11 *324:11 4.09717e-05
24 *318:11 *324:11 0
25 *323:9 *324:9 0
*RES
1 *921:gpio_dm2[23] *324:9 11.7072 
2 *324:9 *324:11 1472.81 
3 *324:11 *324:13 8 
4 *324:13 *324:15 534.576 
5 *324:15 *324:17 8 
6 *324:17 *324:19 2598.32 
7 *324:19 gpio_dm2[23] 49.8489 
*END

*D_NET *325 1.37263
*CONN
*P gpio_dm2[24] O
*I *921:gpio_dm2[24] O *D CF_CARAVEL_SOC
*CAP
1 gpio_dm2[24] 0.00060373
2 *921:gpio_dm2[24] 0.000997389
3 *325:167 0.121351
4 *325:165 0.121987
5 *325:159 0.0271895
6 *325:157 0.0259504
7 *325:155 0.00830135
8 *325:153 0.00856633
9 *325:147 0.00200534
10 *325:145 0.00231671
11 *325:139 0.00282458
12 *325:133 0.00336815
13 *325:125 0.00507192
14 *325:117 0.00473743
15 *325:107 0.00321867
16 *325:105 0.00243324
17 *325:103 0.000889357
18 *325:101 0.000889357
19 *325:99 0.00304646
20 *325:97 0.00460122
21 *325:87 0.0175904
22 *325:85 0.0160356
23 *325:83 0.00325856
24 *325:77 0.00434691
25 *325:71 0.0125793
26 *325:69 0.0123226
27 *325:63 0.00173657
28 *325:61 0.00171899
29 *325:57 0.00390545
30 *325:49 0.00346914
31 *325:45 0.000570263
32 *325:39 0.0010114
33 *325:37 0.000818911
34 *325:35 0.00307781
35 *325:27 0.00647103
36 *325:25 0.00339323
37 *325:23 0.00883449
38 *325:21 0.00883449
39 *325:19 0.0130108
40 *325:17 0.0132388
41 *325:11 0.00430611
42 *325:9 0.0050755
43 gpio_dm2[24] gpio_holdover[24] 0.000170295
44 *325:9 *340:11 0.000285009
45 *325:19 *858:7 0.00224344
46 *325:23 *345:15 0.0568688
47 *325:23 *552:13 0.0129584
48 *325:23 *565:13 0.0113515
49 *325:23 *740:87 0.00831318
50 *325:23 *861:11 0.000121191
51 *325:27 *335:23 0
52 *325:27 *336:19 0.000476803
53 *325:27 *547:11 0.000805174
54 *325:35 *336:27 0.00827536
55 *325:39 *444:51 0.0015224
56 *325:39 *532:16 0.0067023
57 *325:45 *444:51 9.28078e-06
58 *325:45 *741:162 0
59 *325:49 *336:31 0.00205223
60 *325:49 *533:54 0.000822638
61 *325:57 *338:33 0
62 *325:57 *386:167 0.00724475
63 *325:57 *386:173 0.000852199
64 *325:57 *397:117 1.48498e-05
65 *325:57 *408:35 0
66 *325:57 *408:45 0
67 *325:57 *535:33 3.84366e-05
68 *325:57 *541:11 0.000978956
69 *325:57 *696:101 0
70 *325:57 *740:163 0.00408927
71 *325:63 *338:35 0.00695368
72 *325:63 *532:16 2.47321e-05
73 *325:63 *537:10 0.000411664
74 *325:69 *539:15 0.00102958
75 *325:71 *548:11 0.0718678
76 *325:71 *842:11 0.0166392
77 *325:77 *839:139 0.000108449
78 *325:83 gpio_out[39] 0.000835161
79 *325:83 *338:63 0.00075715
80 *325:83 *386:99 0.00593621
81 *325:83 *541:35 0.0162599
82 *325:87 *386:99 0.00651837
83 *325:87 *419:31 0
84 *325:87 *541:43 0.0234331
85 *325:97 *386:89 0.00262539
86 *325:97 *539:87 0.00116327
87 *325:97 *693:183 0
88 *325:97 *737:173 0.000406026
89 *325:99 *434:21 0
90 *325:103 *737:173 0.000315151
91 *325:103 *784:13 0.000729562
92 *325:103 *861:11 0.00706077
93 *325:107 *541:63 0
94 *325:107 *739:104 0.00149181
95 *325:117 *386:73 0.000361081
96 *325:117 *444:79 6.11806e-05
97 *325:117 *693:163 0
98 *325:117 *815:47 1.12346e-05
99 *325:125 *386:65 0.000462929
100 *325:125 *693:143 0
101 *325:125 *737:151 0.0149712
102 *325:125 *739:92 0.0156667
103 *325:125 *815:39 0.000253297
104 *325:125 *826:21 0.00146069
105 *325:133 *921:gpio_in[10] 2.25693e-05
106 *325:133 *451:25 0.00039906
107 *325:133 *539:121 0.000535838
108 *325:133 *541:81 0.00068418
109 *325:133 *693:125 9.2467e-06
110 *325:133 *739:74 4.63531e-05
111 *325:133 *793:27 0.000460718
112 *325:133 *839:205 0.00231523
113 *325:133 *866:17 0.00230478
114 *325:139 *386:53 0.0158712
115 *325:139 *539:133 0.000174723
116 *325:139 *541:89 0.000690681
117 *325:139 *556:29 0
118 *325:139 *739:74 0.0161335
119 *325:139 *826:21 0.00203176
120 *325:145 *539:133 0.000201171
121 *325:145 *539:151 0.000152748
122 *325:145 *541:95 0.00196938
123 *325:145 *693:111 0.000912746
124 *325:147 *693:111 7.51453e-06
125 *325:147 *840:19 0.000521717
126 *325:155 *386:25 0.000228616
127 *325:155 *419:15 0.017766
128 *325:155 *550:21 0
129 *325:155 *556:41 0.0171629
130 *325:155 *826:21 0.00387052
131 *325:159 *335:57 0.122853
132 *325:159 *554:25 0.136457
133 *325:159 *873:57 0.00641086
134 *325:167 *378:11 0
135 *325:167 *466:11 0.00394616
136 *325:167 *547:25 0
137 gpio_analog_sel[24] gpio_dm2[24] 0
138 gpio_dm1[38] *325:99 0
139 *118:69 *325:35 0
140 *118:73 *325:35 0.000806124
141 *118:93 *325:57 0
142 *118:97 *325:61 0.000751705
143 *118:99 *325:63 0.00691281
144 *118:163 *325:87 2.32101e-05
145 *118:171 *325:97 5.16759e-05
146 *118:187 *325:145 0.000230081
147 *118:207 *325:155 0
148 *121:15 *325:71 0.0135944
149 *125:15 *325:39 0.0067057
150 *149:43 *325:167 0.00161002
151 *165:15 *325:71 0.0257118
152 *170:19 *325:11 0.010928
153 *170:19 *325:19 0
154 *193:63 *325:167 0
155 *197:21 *325:167 0.00256187
156 *204:41 *325:165 0.000207896
157 *212:19 *325:11 0.0209625
158 *228:11 *325:11 0.00215084
159 *231:11 *325:19 0.0196217
160 *234:11 *325:19 0.018682
161 *235:11 *325:19 0.00201611
162 *238:11 *325:19 0.00741517
163 *244:19 *325:167 0.0198126
164 *248:19 *325:23 0.0201492
165 *248:19 *325:103 0.00706575
166 *284:15 *325:23 0.000368097
167 *284:51 *325:159 0
168 *286:41 *325:167 0
169 *293:15 *325:145 0.000330774
170 *293:15 *325:147 0.00163034
171 *322:111 *325:35 0
172 *322:191 *325:87 0
173 *322:199 *325:97 0.00658566
174 *322:219 *325:107 0.000389377
175 *322:245 *325:139 3.93715e-05
176 *324:9 *325:9 0.00121077
*RES
1 *921:gpio_dm2[24] *325:9 11.0165 
2 *325:9 *325:11 267.95 
3 *325:11 *325:17 33.48 
4 *325:17 *325:19 537.163 
5 *325:19 *325:21 15 
6 *325:21 *325:23 619.502 
7 *325:23 *325:25 15 
8 *325:25 *325:27 59.1289 
9 *325:27 *325:35 48.8478 
10 *325:35 *325:37 15 
11 *325:37 *325:39 73.515 
12 *325:39 *325:45 32.9621 
13 *325:45 *325:49 37.5371 
14 *325:49 *325:57 48.624 
15 *325:57 *325:61 32.9282 
16 *325:61 *325:63 76.3736 
17 *325:63 *325:69 44.935 
18 *325:69 *325:71 767.195 
19 *325:71 *325:77 40.9282 
20 *325:77 *325:83 40.5519 
21 *325:83 *325:85 15 
22 *325:85 *325:87 436.554 
23 *325:87 *325:97 44.6266 
24 *325:97 *325:99 45.3954 
25 *325:99 *325:101 15 
26 *325:101 *325:103 75.4207 
27 *325:103 *325:105 15 
28 *325:105 *325:107 42.5782 
29 *325:107 *325:117 26.2792 
30 *325:117 *325:125 48.3456 
31 *325:125 *325:133 33.9187 
32 *325:133 *325:139 46.6329 
33 *325:139 *325:145 43.7514 
34 *325:145 *325:147 48.7407 
35 *325:147 *325:153 28.2511 
36 *325:153 *325:155 44.4491 
37 *325:155 *325:157 8 
38 *325:157 *325:159 1756.63 
39 *325:159 *325:165 18.4603 
40 *325:165 *325:167 2936.31 
41 *325:167 gpio_dm2[24] 9.60627 
*END

*D_NET *326 0.760083
*CONN
*P gpio_dm2[25] O
*I *921:gpio_dm2[25] O *D CF_CARAVEL_SOC
*CAP
1 gpio_dm2[25] 0.00304668
2 *921:gpio_dm2[25] 0.0054456
3 *326:35 0.158981
4 *326:33 0.155934
5 *326:31 0.0265696
6 *326:29 0.0266985
7 *326:23 0.0327869
8 *326:21 0.0326852
9 *326:19 0.00300988
10 *326:17 0.00298266
11 *326:15 0.00358057
12 *326:13 0.00358057
13 *326:11 0.0121917
14 *326:9 0.0176373
15 gpio_dm2[25] gpio_holdover[25] 0.000643486
16 *326:9 gpio_dm2[2] 0
17 *326:9 gpio_out[2] 0.00110686
18 *326:9 *327:9 0
19 *326:11 *535:121 0.076758
20 *326:15 *436:23 0
21 *326:35 gpio_holdover[25] 1.21272e-05
22 *326:35 gpio_out[25] 0
23 *326:35 *664:11 0
24 *94:11 *326:11 0.00270977
25 *100:11 *326:11 0.000877193
26 *104:27 *326:11 0.0143141
27 *113:11 *326:11 0.00871796
28 *117:35 *326:19 0.000102495
29 *122:13 *326:11 0.000561154
30 *140:71 *326:19 0.000733965
31 *144:17 *326:9 0
32 *150:27 *326:31 0.00832193
33 *161:13 *326:11 0.00189576
34 *176:11 *326:11 0.000963597
35 *177:11 *326:11 0.000100357
36 *181:11 *326:11 0.000935226
37 *194:39 gpio_dm2[25] 0
38 *194:39 *326:35 0
39 *196:27 *326:31 0.0187536
40 *204:25 *326:15 0.000774016
41 *215:13 *326:11 0.000122544
42 *242:15 *326:15 0.00707937
43 *242:19 *326:19 0.000728021
44 *242:27 *326:23 0.016912
45 *242:27 *326:31 0.00179795
46 *274:125 *326:15 4.95901e-05
47 *281:19 *326:19 0.0045089
48 *281:19 *326:23 0.0450964
49 *281:27 *326:31 0.0137685
50 *288:11 *326:11 0.0458779
51 *322:391 *326:35 0.000729649
*RES
1 *921:gpio_dm2[25] *326:9 21.328 
2 *326:9 *326:11 977.87 
3 *326:11 *326:13 15 
4 *326:13 *326:15 80.6614 
5 *326:15 *326:17 15 
6 *326:17 *326:19 81.8939 
7 *326:19 *326:21 0.621429 
8 *326:21 *326:23 1086.63 
9 *326:23 *326:29 16.3565 
10 *326:29 *326:31 161.134 
11 *326:31 *326:33 8 
12 *326:33 *326:35 559.735 
13 *326:35 gpio_dm2[25] 7.25667 
*END

*D_NET *327 0.969248
*CONN
*P gpio_dm2[26] O
*I *921:gpio_dm2[26] O *D CF_CARAVEL_SOC
*CAP
1 gpio_dm2[26] 0.000103362
2 *921:gpio_dm2[26] 0.000998569
3 *327:67 0.108246
4 *327:65 0.108143
5 *327:63 0.0404989
6 *327:61 0.0411743
7 *327:53 0.00349724
8 *327:39 0.00524982
9 *327:37 0.00304544
10 *327:31 0.00157299
11 *327:29 0.0055849
12 *327:23 0.00536467
13 *327:19 0.0104161
14 *327:17 0.0102366
15 *327:11 0.00269409
16 *327:9 0.00313695
17 *327:19 gpio_slow_sel[4] 0.000737247
18 *327:19 *328:11 0.00801883
19 *327:19 *334:6 0.000118027
20 *327:31 *375:43 0.00284151
21 *327:39 *391:43 2.75733e-06
22 *327:39 *481:11 0.0055796
23 *327:53 *789:27 0
24 *327:61 *337:33 4.32612e-05
25 *327:63 *571:39 0.0891732
26 *327:67 gpio_holdover[26] 0.000629204
27 *327:67 *723:21 0
28 gpio_analog_sel[26] *327:67 0.000624575
29 *93:9 *327:17 0.000114487
30 *94:9 *327:17 0.000245307
31 *116:27 *327:19 0.00478557
32 *116:27 *327:23 0.00368533
33 *132:11 *327:31 0.0053861
34 *137:11 *327:39 0.000877265
35 *140:13 *327:23 0.00119142
36 *140:19 *327:23 0.000820807
37 *148:7 *327:29 3.29305e-05
38 *149:13 *327:29 4.32671e-05
39 *161:9 *327:37 4.05202e-05
40 *176:11 *327:31 0.00105235
41 *194:11 *327:19 0.00473729
42 *194:27 *327:19 0.000391268
43 *195:35 *327:67 0.305388
44 *204:9 *327:19 0.00574543
45 *204:9 *327:23 0.000183893
46 *205:35 *327:61 0.000430483
47 *205:47 *327:61 0.000530002
48 *206:33 *327:29 0.00569404
49 *211:9 *327:19 0.00987111
50 *218:11 *327:53 0
51 *220:11 *327:63 0.108372
52 *224:19 *327:39 0
53 *227:11 *327:11 0.0138765
54 *269:11 *327:63 0.019415
55 *273:11 *327:53 0.000458403
56 *274:27 *327:19 0.00100619
57 *275:11 *327:11 0.0138765
58 *283:11 *327:61 0.00141065
59 *285:11 *327:11 0.0013311
60 *288:23 *327:19 2.31116e-05
61 *307:11 *327:39 0.000501713
62 *326:9 *327:9 0
*RES
1 *921:gpio_dm2[26] *327:9 10.0757 
2 *327:9 *327:11 176.921 
3 *327:11 *327:17 17.6016 
4 *327:17 *327:19 504.186 
5 *327:19 *327:23 47.4771 
6 *327:23 *327:29 28.6784 
7 *327:29 *327:31 68.4607 
8 *327:31 *327:37 17.2581 
9 *327:37 *327:39 83.2507 
10 *327:39 *327:53 48.6091 
11 *327:53 *327:61 35.0276 
12 *327:61 *327:63 1901.72 
13 *327:63 *327:65 8 
14 *327:65 *327:67 585.596 
15 *327:67 gpio_dm2[26] 0.396667 
*END

*D_NET *328 0.890692
*CONN
*P gpio_dm2[27] O
*I *921:gpio_dm2[27] O *D CF_CARAVEL_SOC
*CAP
1 gpio_dm2[27] 3.39421e-05
2 *921:gpio_dm2[27] 0.000259608
3 *328:65 0.100887
4 *328:63 0.100853
5 *328:61 0.0358007
6 *328:59 0.036476
7 *328:53 0.00537078
8 *328:51 0.00553583
9 *328:43 0.00318588
10 *328:23 0.00277218
11 *328:17 0.000550602
12 *328:11 0.0112155
13 *328:9 0.0113512
14 *328:9 *341:12 0.000227734
15 *328:11 gpio_slow_sel[4] 0.00141133
16 *328:11 *329:10 0.0010436
17 *328:11 *330:13 0
18 *328:11 *332:13 0.000265613
19 *328:11 *333:9 0.000120707
20 *328:11 *333:11 0.0541405
21 *328:11 *334:6 0.00438301
22 *328:11 *340:11 0.00438739
23 *328:11 *341:12 0.000207907
24 *328:23 *329:50 0.000197954
25 *328:23 *330:13 0.00215141
26 *328:23 *332:13 0.00214691
27 *328:43 *329:50 0
28 *328:43 *329:54 0.00021019
29 *328:43 *332:13 0.000811211
30 *328:43 *333:11 0.000589835
31 *328:43 *334:26 0.00226046
32 *328:43 *334:32 0.000997205
33 *328:51 *334:32 0.00158323
34 *328:51 *392:45 1.86635e-05
35 *328:53 *329:58 0.0118036
36 *328:53 *330:13 0
37 *328:53 *392:45 0.000146008
38 *328:53 *831:43 0
39 *328:59 *745:11 0.00252978
40 *328:61 *332:21 0.0710372
41 *328:65 gpio_holdover[27] 0
42 gpio_analog_sel[27] *328:65 0.00176071
43 *99:15 *328:59 0.000303609
44 *101:15 *328:59 0.000350519
45 *107:27 *328:61 0.0201361
46 *112:27 *328:61 0.0417827
47 *116:27 *328:11 0.0117863
48 *116:27 *328:43 2.11157e-05
49 *116:45 *328:51 0
50 *117:27 *328:51 0.000121582
51 *117:33 *328:51 0.000248724
52 *141:25 *328:59 0.000355507
53 *157:29 *328:51 0.000194978
54 *158:18 *328:43 0.000858547
55 *158:18 *328:51 0.0019588
56 *158:22 *328:51 0.000266481
57 *158:22 *328:53 0.00194281
58 *194:11 *328:11 0.00075474
59 *194:27 *328:11 0.000565721
60 *196:31 *328:65 0.30506
61 *205:29 *328:43 0
62 *208:9 *328:11 0.00265339
63 *211:9 *328:11 0
64 *227:17 *328:59 0.00252386
65 *274:27 *328:11 0.00533886
66 *283:27 *328:61 0.00635889
67 *288:27 *328:43 0.000366175
68 *327:19 *328:11 0.00801883
*RES
1 *921:gpio_dm2[27] *328:9 8.69813 
2 *328:9 *328:11 708.833 
3 *328:11 *328:17 31.5743 
4 *328:17 *328:23 43.8343 
5 *328:23 *328:43 44.1021 
6 *328:43 *328:51 23.2893 
7 *328:51 *328:53 152.271 
8 *328:53 *328:59 20.7357 
9 *328:59 *328:61 288.068 
10 *328:61 *328:63 8 
11 *328:63 *328:65 562.197 
12 *328:65 gpio_dm2[27] 0.122267 
*END

*D_NET *329 0.594058
*CONN
*P gpio_dm2[28] O
*I *921:gpio_dm2[28] O *D CF_CARAVEL_SOC
*CAP
1 gpio_dm2[28] 0.00160143
2 *921:gpio_dm2[28] 0.000630095
3 *329:70 0.154774
4 *329:68 0.153172
5 *329:66 0.0641776
6 *329:64 0.0666864
7 *329:58 0.00812217
8 *329:56 0.00568265
9 *329:54 0.0020199
10 *329:52 0.00195059
11 *329:50 0.00227018
12 *329:36 0.00404253
13 *329:10 0.0232054
14 *329:8 0.0220631
15 gpio_dm2[28] gpio_holdover[28] 0.000767766
16 gpio_dm2[28] *548:23 0.000169974
17 gpio_dm2[28] *811:11 0.000167799
18 *329:8 *330:13 0.000225664
19 *329:8 *341:12 0.00167099
20 *329:10 *330:13 0.00445691
21 *329:10 *334:6 0.0191978
22 *329:10 *341:8 0.00157414
23 *329:10 *341:12 0.000968982
24 *329:10 *787:51 0.00574965
25 *329:36 *333:11 0.000400583
26 *329:36 *334:6 0.00132287
27 *329:36 *787:51 0.000814177
28 *329:50 *330:13 0.000197954
29 *329:50 *332:13 0.000241504
30 *329:50 *333:11 0.000286199
31 *329:50 *334:26 0.0027653
32 *329:50 *788:53 8.54984e-05
33 *329:54 *330:13 0
34 *329:58 *330:13 0
35 *329:58 *392:45 0.000141387
36 *329:64 *332:19 0.000635186
37 *329:70 gpio_holdover[28] 0.00530853
38 *329:70 *725:19 0
39 gpio_analog_sel[28] gpio_dm2[28] 0
40 *109:23 *329:36 0.00025616
41 *109:23 *329:50 0.00445029
42 *116:27 *329:36 0.000395311
43 *116:27 *329:50 0.000216499
44 *116:45 *329:58 0.00160341
45 *117:27 *329:54 0.000283035
46 *117:35 *329:58 0
47 *140:19 *329:50 0.000100494
48 *140:71 *329:58 0
49 *147:11 *329:36 5.63512e-06
50 *148:7 *329:36 3.6433e-07
51 *152:9 *329:50 0.000287215
52 *153:19 *329:50 0.000364411
53 *156:9 *329:50 0.000210019
54 *157:29 *329:54 0.000610232
55 *157:29 *329:58 0
56 *158:18 *329:54 0.000878382
57 *158:22 *329:58 0.000119031
58 *230:25 *329:64 0.000472227
59 *242:19 *329:58 0.00218697
60 *273:15 *329:64 0
61 *275:15 *329:64 0.00808842
62 *277:23 *329:64 0.000343729
63 *281:19 *329:58 0.000441419
64 *288:27 *329:10 0.0014833
65 *288:27 *329:36 0.000459168
66 *328:11 *329:10 0.0010436
67 *328:23 *329:50 0.000197954
68 *328:43 *329:50 0
69 *328:43 *329:54 0.00021019
70 *328:53 *329:58 0.0118036
*RES
1 *921:gpio_dm2[28] *329:8 12.0283 
2 *329:8 *329:10 117.301 
3 *329:10 *329:36 44.5977 
4 *329:36 *329:50 45.9268 
5 *329:50 *329:52 15 
6 *329:52 *329:54 51.9204 
7 *329:54 *329:56 1.57429 
8 *329:56 *329:58 182.016 
9 *329:58 *329:64 30.9539 
10 *329:64 *329:66 243.006 
11 *329:66 *329:68 8 
12 *329:68 *329:70 548.615 
13 *329:70 gpio_dm2[28] 22.078 
*END

*D_NET *330 0.614813
*CONN
*P gpio_dm2[29] O
*I *921:gpio_dm2[29] O *D CF_CARAVEL_SOC
*CAP
1 gpio_dm2[29] 0.000105308
2 *921:gpio_dm2[29] 0.000221277
3 *330:33 0.0306435
4 *330:31 0.0305382
5 *330:29 0.0515954
6 *330:27 0.0515954
7 *330:25 0.114538
8 *330:23 0.115036
9 *330:13 0.024347
10 *330:11 0.0240706
11 *330:11 *332:11 0
12 *330:13 *332:13 0.033815
13 *330:13 *334:26 0.000256896
14 *330:13 *341:8 0.000318539
15 *330:13 *341:12 0.000302521
16 *330:13 *392:45 0
17 *330:13 *787:51 0.00594217
18 *330:13 *831:43 0.00646904
19 *330:23 *333:19 0.00220794
20 *330:23 *334:36 2.047e-05
21 *330:33 gpio_holdover[29] 0.000292587
22 gpio_analog_sel[29] *330:33 0.000295865
23 *117:27 *330:13 0.00254357
24 *145:15 *330:25 0
25 *148:13 *330:23 0
26 *150:19 *330:13 0
27 *150:25 *330:25 4.01866e-05
28 *153:27 *330:13 0.00151978
29 *153:27 *330:23 0.00220268
30 *157:29 *330:13 0.000196677
31 *158:18 *330:13 0.000464375
32 *163:19 *330:13 0.0112184
33 *186:15 *330:25 0
34 *198:31 *330:33 0.0816131
35 *281:19 *330:13 0
36 *288:27 *330:13 0.0153704
37 *328:11 *330:13 0
38 *328:23 *330:13 0.00215141
39 *328:53 *330:13 0
40 *329:8 *330:13 0.000225664
41 *329:10 *330:13 0.00445691
42 *329:50 *330:13 0.000197954
43 *329:54 *330:13 0
44 *329:58 *330:13 0
*RES
1 *921:gpio_dm2[29] *330:11 9.89162 
2 *330:11 *330:13 1011.5 
3 *330:13 *330:23 29.2323 
4 *330:23 *330:25 413.59 
5 *330:25 *330:27 8 
6 *330:27 *330:29 195.406 
7 *330:29 *330:31 8 
8 *330:31 *330:33 153.815 
9 *330:33 gpio_dm2[29] 0.404133 
*END

*D_NET *331 0.0424489
*CONN
*P gpio_dm2[2] O
*I *921:gpio_dm2[2] O *D CF_CARAVEL_SOC
*CAP
1 gpio_dm2[2] 0.00599826
2 *921:gpio_dm2[2] 0.00659204
3 *331:13 0.0125903
4 gpio_dm2[2] gpio_holdover[2] 0
5 gpio_dm2[2] gpio_out[2] 0
6 *331:13 *342:9 0
7 gpio_analog_sel[2] gpio_dm2[2] 0.00115369
8 *144:11 *331:13 4.09577e-05
9 *144:17 gpio_dm2[2] 0.000351
10 *207:19 *331:13 0.000786888
11 *223:11 *331:13 0.00411362
12 *247:11 *331:13 0.000195307
13 *254:11 *331:13 0.00983866
14 *270:15 *331:13 0.000788135
15 *308:11 *331:13 0
16 *326:9 gpio_dm2[2] 0
*RES
1 *921:gpio_dm2[2] *331:13 48.4147 
2 *331:13 gpio_dm2[2] 13.7564 
*END

*D_NET *332 0.619303
*CONN
*P gpio_dm2[30] O
*I *921:gpio_dm2[30] O *D CF_CARAVEL_SOC
*CAP
1 gpio_dm2[30] 1.7754e-05
2 *921:gpio_dm2[30] 0.000296212
3 *332:25 0.159648
4 *332:23 0.159631
5 *332:21 0.0157565
6 *332:19 0.0167814
7 *332:13 0.014852
8 *332:11 0.0141234
9 *332:11 *333:9 0
10 *332:13 *333:11 0.0743718
11 *332:13 *334:6 0.00940529
12 *332:13 *334:26 0.000120258
13 *332:13 *334:32 0.000457793
14 *332:13 *341:12 0.00036308
15 *332:25 gpio_holdover[30] 0
16 gpio_analog_sel[30] *332:25 3.18008e-05
17 *152:19 *332:13 0.00119625
18 *152:25 *332:19 0.000308174
19 *153:27 *332:13 0.0019544
20 *163:19 *332:13 0.0112256
21 *228:25 *332:19 0.000104018
22 *273:15 *332:19 0.00131738
23 *275:15 *332:19 5.48594e-05
24 *283:27 *332:21 0.0283338
25 *328:11 *332:13 0.000265613
26 *328:23 *332:13 0.00214691
27 *328:43 *332:13 0.000811211
28 *328:61 *332:21 0.0710372
29 *329:50 *332:13 0.000241504
30 *329:64 *332:19 0.000635186
31 *330:11 *332:11 0
32 *330:13 *332:13 0.033815
*RES
1 *921:gpio_dm2[30] *332:11 9.19263 
2 *332:11 *332:13 986.849 
3 *332:13 *332:19 21.2509 
4 *332:19 *332:21 163.673 
5 *332:21 *332:23 8 
6 *332:23 *332:25 562.369 
7 *332:25 gpio_dm2[30] 0.0681333 
*END

*D_NET *333 0.620451
*CONN
*P gpio_dm2[31] O
*I *921:gpio_dm2[31] O *D CF_CARAVEL_SOC
*CAP
1 gpio_dm2[31] 0.00560803
2 *921:gpio_dm2[31] 0.000266568
3 *333:27 0.161286
4 *333:25 0.15641
5 *333:19 0.0128821
6 *333:17 0.0123428
7 *333:11 0.0108452
8 *333:9 0.0109189
9 gpio_dm2[31] gpio_holdover[31] 0.000959096
10 gpio_dm2[31] *769:11 0.000440025
11 *333:9 *341:12 0.000227734
12 *333:11 *334:6 0.0107909
13 *333:11 *334:26 0.000104422
14 *333:11 *334:32 0.000469389
15 *333:11 *341:12 0.000317218
16 *333:11 *788:37 1.11421e-05
17 *333:11 *788:53 0.00123377
18 *333:17 *694:6 0.000115938
19 *333:27 gpio_ib_mode_sel[31] 0.000512598
20 *333:27 *729:21 0
21 *116:27 *333:11 0.00111659
22 *116:35 *333:11 3.74521e-05
23 *117:23 *333:11 0.000856977
24 *152:19 *333:11 0.0105568
25 *152:27 *333:19 0.0523254
26 *153:27 *333:11 0.00170426
27 *153:27 *333:19 0.0295779
28 *157:9 *333:11 0.000112317
29 *157:37 *333:19 1.87002e-05
30 *158:22 *333:19 0.00109749
31 *161:15 *333:17 0.000118597
32 *163:11 *333:11 0.00257845
33 *201:15 gpio_dm2[31] 0
34 *241:25 *333:25 2.79505e-05
35 *242:27 *333:19 0
36 *245:15 *333:27 0
37 *321:39 *333:11 0.00246344
38 *328:11 *333:9 0.000120707
39 *328:11 *333:11 0.0541405
40 *328:43 *333:11 0.000589835
41 *329:36 *333:11 0.000400583
42 *329:50 *333:11 0.000286199
43 *330:23 *333:19 0.00220794
44 *332:11 *333:9 0
45 *332:13 *333:11 0.0743718
*RES
1 *921:gpio_dm2[31] *333:9 8.69813 
2 *333:9 *333:11 943.888 
3 *333:11 *333:17 16.5283 
4 *333:17 *333:19 126.862 
5 *333:19 *333:25 9.95627 
6 *333:25 *333:27 555.442 
7 *333:27 gpio_dm2[31] 29.1628 
*END

*D_NET *334 0.837692
*CONN
*P gpio_dm2[32] O
*I *921:gpio_dm2[32] O *D CF_CARAVEL_SOC
*CAP
1 gpio_dm2[32] 6.68147e-05
2 *921:gpio_dm2[32] 0
3 *334:44 0.017149
4 *334:42 0.0173629
5 *334:36 0.0458105
6 *334:34 0.0455299
7 *334:32 0.00591339
8 *334:26 0.00831483
9 *334:6 0.0198072
10 *334:4 0.0174058
11 *334:6 gpio_slow_sel[4] 0.00025063
12 *334:6 *336:9 0.000227734
13 *334:6 *340:9 0.000227734
14 *334:6 *340:11 0.000435844
15 *334:6 *341:8 0.000888077
16 *334:6 *341:12 0.00160041
17 *334:6 *343:9 0.000227734
18 *334:6 *346:9 0.000227734
19 *334:32 *788:37 0.00016631
20 *334:32 *788:53 0.000202284
21 *334:32 *831:55 0.000435696
22 *334:36 *361:33 0.0298422
23 *334:36 *394:15 3.52728e-05
24 *334:36 *438:23 0.267788
25 *334:36 *440:31 0.0251655
26 *334:36 *757:15 0.0155339
27 *334:36 *759:15 0.0865466
28 *334:44 gpio_holdover[32] 0
29 *334:44 *361:33 0.00352204
30 *334:44 *873:61 0.0380668
31 gpio_analog_sel[32] *334:44 0.000412169
32 *91:9 *334:6 0.000227734
33 *92:9 *334:6 0.000227734
34 *95:9 *334:6 0.000227734
35 *96:9 *334:6 0.000227734
36 *97:9 *334:6 0.000227734
37 *102:9 *334:6 0.000227734
38 *106:9 *334:6 0.000227734
39 *107:9 *334:6 0.000227734
40 *109:21 *334:6 0.000627993
41 *109:23 *334:6 0.000150521
42 *109:23 *334:26 0.000663844
43 *109:23 *334:32 0.0116115
44 *114:29 *334:42 8.17237e-05
45 *116:9 *334:6 0.000227734
46 *116:27 *334:6 0.000412576
47 *116:27 *334:26 0.00035103
48 *116:27 *334:32 0.000231974
49 *116:35 *334:32 0.000509653
50 *117:23 *334:32 0.000149785
51 *119:9 *334:6 0.000227734
52 *125:9 *334:6 0.000227734
53 *126:9 *334:6 0.000227734
54 *142:9 *334:6 0.000227734
55 *143:9 *334:6 0.000227734
56 *145:9 *334:26 0.000127265
57 *145:11 *334:26 0.00037028
58 *146:7 *334:26 4.71048e-05
59 *146:9 *334:26 0.000170919
60 *148:9 *334:26 0.00145141
61 *149:13 *334:26 0.000104065
62 *151:7 *334:26 5.01014e-05
63 *152:19 *334:32 0.00195269
64 *153:27 *334:32 0.014266
65 *157:9 *334:26 0.000287215
66 *157:29 *334:32 5.88321e-05
67 *158:22 *334:32 0
68 *158:30 *334:42 0
69 *163:11 *334:32 0.000697123
70 *187:9 *334:6 0.000227734
71 *189:9 *334:6 0.000227734
72 *192:9 *334:6 0.000227734
73 *193:15 *334:26 5.10636e-05
74 *194:9 *334:6 0.000227734
75 *194:27 *334:6 0.00726729
76 *197:9 *334:6 0.000227734
77 *200:9 *334:6 0.000227734
78 *202:27 *334:36 0.0670923
79 *202:27 *334:44 0.000124629
80 *204:17 *334:32 0.000151253
81 *208:9 *334:6 0.0165471
82 *274:27 *334:6 0.000970191
83 *321:35 *334:26 0.0027158
84 *321:39 *334:26 0.000427876
85 *327:19 *334:6 0.000118027
86 *328:11 *334:6 0.00438301
87 *328:43 *334:26 0.00226046
88 *328:43 *334:32 0.000997205
89 *328:51 *334:32 0.00158323
90 *329:10 *334:6 0.0191978
91 *329:36 *334:6 0.00132287
92 *329:50 *334:26 0.0027653
93 *330:13 *334:26 0.000256896
94 *330:23 *334:36 2.047e-05
95 *332:13 *334:6 0.00940529
96 *332:13 *334:26 0.000120258
97 *332:13 *334:32 0.000457793
98 *333:11 *334:6 0.0107909
99 *333:11 *334:26 0.000104422
100 *333:11 *334:32 0.000469389
*RES
1 *921:gpio_dm2[32] *334:4 8 
2 *334:4 *334:6 122.136 
3 *334:6 *334:26 46.6683 
4 *334:26 *334:32 45.1472 
5 *334:32 *334:34 8 
6 *334:34 *334:36 492.931 
7 *334:36 *334:42 16.6907 
8 *334:42 *334:44 74.8179 
9 *334:44 gpio_dm2[32] 0.21 
*END

*D_NET *335 0.998735
*CONN
*P gpio_dm2[33] O
*I *921:gpio_dm2[33] O *D CF_CARAVEL_SOC
*CAP
1 gpio_dm2[33] 0.00199914
2 *921:gpio_dm2[33] 0.00279299
3 *335:57 0.0358791
4 *335:55 0.0423974
5 *335:49 0.0108901
6 *335:43 0.00357441
7 *335:39 0.00360316
8 *335:33 0.00757047
9 *335:31 0.00567661
10 *335:25 0.0387752
11 *335:23 0.0387786
12 *335:17 0.00874537
13 *335:15 0.00823451
14 *335:13 0.0144271
15 *335:11 0.0172201
16 gpio_dm2[33] gpio_holdover[33] 0.000189198
17 *335:11 *336:9 0.00106057
18 *335:13 *336:11 0.000325105
19 *335:13 *338:11 0.0288422
20 *335:13 *338:15 0.00351708
21 *335:13 *443:11 1.14452e-05
22 *335:13 *443:19 0.0084243
23 *335:13 *570:26 0.0349774
24 *335:13 *572:26 0.000161448
25 *335:17 *856:11 0.0573682
26 *335:17 *861:11 0
27 *335:17 *864:11 0.0121592
28 *335:25 *453:49 0.00170788
29 *335:25 *454:53 0.000790801
30 *335:25 *475:13 0.00162084
31 *335:25 *541:19 0.00197104
32 *335:25 *541:59 0.000554801
33 *335:25 *546:13 0.0104371
34 *335:25 *560:19 0.000476303
35 *335:25 *561:18 0.00219657
36 *335:25 *563:14 0.015432
37 *335:25 *825:23 0.0123863
38 *335:25 *844:13 0.166597
39 *335:33 *387:23 0.0422657
40 *335:33 *736:43 0.00806827
41 *335:39 *921:gpio_in[5] 0
42 *335:39 *850:17 7.13521e-05
43 *335:43 *921:gpio_in[5] 0.000288337
44 *335:43 *338:77 0
45 *335:43 *541:95 0.000669467
46 *335:49 *338:79 0.000388001
47 *335:49 *419:15 0.000202883
48 *335:49 *541:103 0.0162747
49 *335:49 *826:21 0.000151136
50 *335:55 *338:79 2.04319e-05
51 *335:55 *737:97 0.00694135
52 *335:55 *826:21 0.000175945
53 *335:57 *410:11 0.0392605
54 *335:57 *873:57 0.00283858
55 gpio_analog_sel[33] gpio_dm2[33] 0
56 gpio_dm1[38] *335:31 0.000645
57 *118:207 *335:49 0.0167535
58 *118:207 *335:55 1.43357e-05
59 *207:23 *335:17 0.0597657
60 *251:15 *335:33 0.0422707
61 *284:51 *335:57 0
62 *300:19 *335:25 0.0300684
63 *322:27 *335:13 0.00697623
64 *325:27 *335:23 0
65 *325:159 *335:57 0.122853
*RES
1 *921:gpio_dm2[33] *335:11 15.767 
2 *335:11 *335:13 854.268 
3 *335:13 *335:15 15 
4 *335:15 *335:17 639.036 
5 *335:17 *335:23 36.8357 
6 *335:23 *335:25 1779.13 
7 *335:25 *335:31 39.3007 
8 *335:31 *335:33 450.846 
9 *335:33 *335:39 49.2096 
10 *335:39 *335:43 30.5164 
11 *335:43 *335:49 44.5582 
12 *335:49 *335:55 38.8107 
13 *335:55 *335:57 1581.27 
14 *335:57 gpio_dm2[33] 11.6773 
*END

*D_NET *336 1.07116
*CONN
*P gpio_dm2[34] O
*I *921:gpio_dm2[34] O *D CF_CARAVEL_SOC
*CAP
1 gpio_dm2[34] 0.00440486
2 *921:gpio_dm2[34] 0.00293797
3 *336:82 1.65103e-06
4 *336:67 0.0221755
5 *336:65 0.0177723
6 *336:63 0.0071136
7 *336:61 0.007275
8 *336:55 0.00195826
9 *336:53 0.00198705
10 *336:47 0.0276144
11 *336:45 0.0274242
12 *336:43 0.00305823
13 *336:41 0.00305823
14 *336:39 0.00286132
15 *336:31 0.00571809
16 *336:29 0.00285676
17 *336:27 0.00305183
18 *336:19 0.00547972
19 *336:17 0.00242789
20 *336:15 0.00776589
21 *336:13 0.00776589
22 *336:11 0.0109567
23 *336:9 0.0138946
24 gpio_dm2[34] gpio_holdover[34] 0.00149441
25 gpio_dm2[34] gpio_out[34] 0.00151882
26 gpio_dm2[34] *381:15 0.000389244
27 gpio_dm2[34] *548:23 0.000387076
28 *336:9 *340:11 0.000142505
29 *336:11 *338:11 0.0619655
30 *336:11 *338:15 0.00176959
31 *336:11 *350:11 0.00102374
32 *336:11 *443:19 0.00392159
33 *336:11 *443:29 5.05592e-05
34 *336:11 *452:11 0
35 *336:11 *474:11 0
36 *336:11 *571:31 0
37 *336:15 *481:15 0.0598175
38 *336:15 *838:11 0.0105738
39 *336:19 *547:11 0.00182695
40 *336:27 *386:183 0.000239109
41 *336:31 *533:54 0.00026354
42 *336:31 *569:18 0.00538163
43 *336:31 *741:160 0.00104171
44 *336:39 *338:25 0.000187363
45 *336:39 *397:103 0.000598581
46 *336:39 *408:45 9.11904e-05
47 *336:39 *535:33 0
48 *336:39 *540:16 0.00054094
49 *336:39 *562:59 6.75548e-06
50 *336:39 *562:73 0.000233851
51 *336:39 *826:71 1.24633e-05
52 *336:47 *353:31 0.0940383
53 *336:47 *542:11 0.176027
54 *336:47 *760:31 0.00772642
55 *336:47 *868:11 0.0376096
56 *336:55 *749:27 0.0022124
57 *336:63 *455:25 0.00336609
58 *336:63 *462:23 0.00388618
59 *336:63 *464:21 0.0041711
60 *336:63 *464:23 0.00388618
61 *336:63 *465:21 1.14075e-05
62 *336:63 *827:19 0.000196876
63 *336:63 *837:11 0.000687921
64 *336:63 *838:11 0.0180438
65 *336:67 *390:11 0.0247441
66 *336:67 *417:11 0.0615029
67 *336:67 *426:11 0.0030051
68 *336:67 *437:11 0.00181887
69 *336:67 *455:21 0.000236044
70 *336:67 *545:15 0.108723
71 *336:67 *547:23 0.00010982
72 *336:67 *817:11 0.00549583
73 *336:82 gpio_holdover[34] 3.08663e-05
74 gpio_analog_sel[34] gpio_dm2[34] 0
75 *118:69 *336:27 0
76 *118:73 *336:27 0.000703895
77 *118:93 *336:39 0.00699082
78 *119:15 *336:15 0.0598225
79 *119:23 *336:55 0.00142468
80 *119:23 *336:63 0.0117754
81 *125:11 *336:11 0.0644614
82 *207:39 *336:55 0.00902993
83 *289:23 *336:63 0.00337327
84 *289:33 *336:63 0.000597144
85 *322:111 *336:27 0
86 *322:129 *336:43 0
87 *325:27 *336:19 0.000476803
88 *325:35 *336:27 0.00827536
89 *325:49 *336:31 0.00205223
90 *334:6 *336:9 0.000227734
91 *335:11 *336:9 0.00106057
92 *335:13 *336:11 0.000325105
*RES
1 *921:gpio_dm2[34] *336:9 15.4816 
2 *336:9 *336:11 848.985 
3 *336:11 *336:13 15 
4 *336:13 *336:15 639.512 
5 *336:15 *336:17 15 
6 *336:17 *336:19 47.5082 
7 *336:19 *336:27 47.5164 
8 *336:27 *336:29 15 
9 *336:29 *336:31 104.006 
10 *336:31 *336:39 44.0901 
11 *336:39 *336:41 8 
12 *336:41 *336:43 45.0432 
13 *336:43 *336:45 15 
14 *336:45 *336:47 1879.66 
15 *336:47 *336:53 32.61 
16 *336:53 *336:55 96.3836 
17 *336:55 *336:61 25.4339 
18 *336:61 *336:63 46.9392 
19 *336:63 *336:65 8 
20 *336:65 *336:67 1391.11 
21 *336:67 gpio_dm2[34] 38.9907 
22 gpio_dm2[34] *336:82 0.0685714 
*END

*D_NET *337 1.0009
*CONN
*P gpio_dm2[35] O
*I *921:gpio_dm2[35] O *D CF_CARAVEL_SOC
*CAP
1 gpio_dm2[35] 0.00110329
2 *921:gpio_dm2[35] 0.00607025
3 *337:43 0.00989574
4 *337:41 0.00879245
5 *337:39 0.0570704
6 *337:37 0.0570704
7 *337:35 0.00101454
8 *337:33 0.00335784
9 *337:27 0.00482254
10 *337:25 0.00852732
11 *337:19 0.00982315
12 *337:17 0.00758414
13 *337:11 0.0193921
14 *337:9 0.0216533
15 gpio_dm2[35] gpio_holdover[35] 0
16 *337:9 *338:9 0.000784261
17 *337:11 *531:28 0
18 *337:17 *375:57 0
19 *337:19 *350:11 0.00113946
20 *337:19 *699:10 0
21 *337:19 *700:10 0.00163248
22 *337:33 gpio_inp_dis[6] 1.07218e-05
23 *337:33 *782:29 0.00280837
24 *337:33 *787:25 3.69198e-05
25 *337:39 *698:13 0.000758408
26 *337:39 *731:14 0.00198039
27 *337:39 *789:23 0.303374
28 *337:43 *782:11 0.0468555
29 *337:43 *810:11 0.0468576
30 gpio_analog_sel[35] gpio_dm2[35] 0.000503876
31 *114:11 *337:11 0.0238416
32 *114:21 *337:33 2.112e-05
33 *132:11 *337:35 0.00487482
34 *159:15 *337:39 0.295476
35 *176:11 *337:35 0.000878847
36 *178:15 *337:11 0.00155698
37 *196:11 *337:27 0.0116961
38 *199:11 *337:11 0.00406395
39 *206:19 *337:19 0.00151304
40 *206:35 *337:27 0.00585924
41 *230:11 *337:27 0.00287336
42 *242:11 *337:11 0.00956639
43 *271:15 *337:39 0.000500782
44 *288:23 *337:17 0
45 *312:19 *337:35 0.00174953
46 *314:19 *337:19 0.0134623
47 *327:61 *337:33 4.32612e-05
*RES
1 *921:gpio_dm2[35] *337:9 22.7877 
2 *337:9 *337:11 534.698 
3 *337:11 *337:17 24.2133 
4 *337:17 *337:19 171.991 
5 *337:19 *337:25 28.1632 
6 *337:25 *337:27 150.862 
7 *337:27 *337:33 21.9808 
8 *337:33 *337:35 62.1221 
9 *337:35 *337:37 8 
10 *337:37 *337:39 578.368 
11 *337:39 *337:41 8 
12 *337:41 *337:43 603.718 
13 *337:43 gpio_dm2[35] 10.6908 
*END

*D_NET *338 0.937697
*CONN
*P gpio_dm2[36] O
*I *921:gpio_dm2[36] O *D CF_CARAVEL_SOC
*CAP
1 gpio_dm2[36] 0.00490323
2 *921:gpio_dm2[36] 0.0029707
3 *338:83 0.0228776
4 *338:81 0.0179744
5 *338:79 0.00549412
6 *338:77 0.00709869
7 *338:71 0.0214637
8 *338:69 0.0209999
9 *338:63 0.0217752
10 *338:45 0.0226455
11 *338:35 0.0109346
12 *338:33 0.0114017
13 *338:25 0.00413859
14 *338:19 0.0138149
15 *338:17 0.0121545
16 *338:15 0.000882872
17 *338:11 0.0120964
18 *338:9 0.0141842
19 gpio_dm2[36] gpio_holdover[36] 0.00610341
20 *338:9 *339:9 0
21 *338:9 *340:11 0.000112317
22 *338:11 *443:11 0.0003954
23 *338:11 *443:19 0.00590162
24 *338:15 *443:19 0.000328079
25 *338:15 *443:29 4.81894e-05
26 *338:19 *484:15 0.0316541
27 *338:19 *548:11 0.020561
28 *338:25 *562:73 0.000232912
29 *338:25 *839:45 0
30 *338:33 *386:167 0
31 *338:33 *533:42 9.01265e-05
32 *338:33 *540:16 0.000521038
33 *338:33 *541:11 0
34 *338:33 *696:113 0.000905829
35 *338:35 *444:55 0.0103547
36 *338:35 *531:12 0.000343173
37 *338:35 *532:12 0.00134604
38 *338:35 *532:16 0.00107405
39 *338:35 *533:14 0.000123437
40 *338:35 *537:10 0.000401912
41 *338:35 *569:18 0.0273185
42 *338:35 *826:47 0.0070283
43 *338:45 *529:9 0.00165306
44 *338:45 *540:16 0.00200816
45 *338:45 *541:27 0.00119213
46 *338:45 *551:15 0.00144451
47 *338:45 *567:12 0.00180568
48 *338:63 gpio_out[39] 0.000280914
49 *338:63 *386:99 0.00106924
50 *338:63 *419:39 0.000975611
51 *338:63 *444:63 0.000956791
52 *338:63 *472:55 0.0036061
53 *338:63 *476:19 0.000166209
54 *338:63 *529:9 0.00296914
55 *338:63 *539:63 0.000834644
56 *338:63 *540:16 0.00104172
57 *338:63 *541:27 0.00155876
58 *338:63 *541:35 0.00075715
59 *338:63 *551:15 0
60 *338:63 *840:19 0.000697245
61 *338:71 *340:39 0.0253925
62 *338:71 *429:19 0.00121992
63 *338:71 *474:15 0.00804965
64 *338:71 *545:11 0.0114516
65 *338:71 *554:13 0.0132227
66 *338:71 *559:19 0.0212536
67 *338:71 *780:13 0.00287873
68 *338:71 *847:16 0.0987706
69 *338:71 *852:19 0.0362937
70 *338:77 *921:gpio_in[5] 0.000318064
71 *338:77 *693:109 0
72 *338:79 *539:151 5.43961e-05
73 *338:79 *541:103 0.00872661
74 *338:79 *737:97 0.000339439
75 *338:79 *815:15 0.0224206
76 *338:79 *826:21 0.00200775
77 *338:83 *387:11 0.0350159
78 *338:83 *440:19 0.0232952
79 gpio_analog_sel[36] gpio_dm2[36] 0
80 *118:93 *338:33 0.00594023
81 *118:99 *338:35 0.000391608
82 *118:143 *338:63 0
83 *118:155 *338:63 0.000975611
84 *118:201 *338:77 0
85 *118:207 *338:79 0.00641539
86 *118:211 *338:83 2.58278e-05
87 *121:15 *338:19 0.013759
88 *125:11 *338:11 0.00048906
89 *165:15 *338:19 0.0773983
90 *253:15 *338:71 0.00111669
91 *294:15 *338:71 0.0183224
92 *294:21 *338:77 0
93 *322:27 *338:11 0.00697623
94 *322:123 *338:35 0.00010722
95 *322:175 *338:63 0.000732086
96 *322:277 *338:83 0.0234795
97 *325:57 *338:33 0
98 *325:63 *338:35 0.00695368
99 *325:83 *338:63 0.00075715
100 *335:13 *338:11 0.0288422
101 *335:13 *338:15 0.00351708
102 *335:43 *338:77 0
103 *335:49 *338:79 0.000388001
104 *335:55 *338:79 2.04319e-05
105 *336:11 *338:11 0.0619655
106 *336:11 *338:15 0.00176959
107 *336:39 *338:25 0.000187363
108 *337:9 *338:9 0.000784261
*RES
1 *921:gpio_dm2[36] *338:9 15.4405 
2 *338:9 *338:11 800.731 
3 *338:11 *338:15 46.2032 
4 *338:15 *338:17 15 
5 *338:17 *338:19 828.178 
6 *338:19 *338:25 48.6754 
7 *338:25 *338:33 44.4943 
8 *338:33 *338:35 489.437 
9 *338:35 *338:45 38.4926 
10 *338:45 *338:63 42.7176 
11 *338:63 *338:69 33.0479 
12 *338:69 *338:71 186.816 
13 *338:71 *338:77 42.9079 
14 *338:77 *338:79 44.8784 
15 *338:79 *338:81 8 
16 *338:81 *338:83 912.195 
17 *338:83 gpio_dm2[36] 20.6569 
*END

*D_NET *339 1.00174
*CONN
*P gpio_dm2[37] O
*I *921:gpio_dm2[37] O *D CF_CARAVEL_SOC
*CAP
1 gpio_dm2[37] 0.00414742
2 *921:gpio_dm2[37] 0.00243608
3 *339:42 1.65103e-06
4 *339:27 0.0144515
5 *339:25 0.0103057
6 *339:23 0.0442892
7 *339:21 0.0447865
8 *339:15 0.0127488
9 *339:13 0.0122515
10 *339:11 0.0159523
11 *339:9 0.0183883
12 gpio_dm2[37] gpio_holdover[37] 0.0015192
13 gpio_dm2[37] gpio_out[37] 0.0040042
14 gpio_dm2[37] *447:17 0
15 gpio_dm2[37] *548:23 0.000441895
16 *339:9 *340:9 5.02425e-06
17 *339:11 *441:11 0.0197599
18 *339:11 *551:125 0.0091407
19 *339:15 *771:27 2.37424e-05
20 *339:15 *842:11 0.0894832
21 *339:23 *343:15 0.0256827
22 *339:23 *386:45 0.0016002
23 *339:23 *389:23 0.0422969
24 *339:23 *390:23 0.00457273
25 *339:23 *429:19 0.00022586
26 *339:23 *461:21 0.00282058
27 *339:23 *472:11 0.0108803
28 *339:23 *559:27 0.000333774
29 *339:23 *693:163 0.000720364
30 *339:23 *760:23 0.026597
31 *339:23 *827:19 0.00668567
32 *339:23 *845:19 0.198439
33 *339:23 *852:11 0.00404511
34 *339:42 gpio_holdover[37] 3.08663e-05
35 gpio_analog_sel[37] gpio_dm2[37] 0.000730221
36 *119:27 *339:27 0.0554203
37 *125:19 *339:21 0.000692441
38 *164:43 *339:23 0.0532305
39 *165:15 *339:15 0.0920868
40 *207:51 *339:27 0.0554181
41 *245:11 *339:11 0.000814503
42 *255:15 *339:23 0.000602616
43 *256:11 *339:11 0
44 *257:11 *339:11 0
45 *257:15 *339:15 0.0166378
46 *274:11 *339:11 0
47 *279:11 *339:11 0.00171569
48 *292:11 *339:11 0
49 *293:11 *339:11 0.0457432
50 *294:23 *339:23 0.0238949
51 *296:15 *339:15 0.00125464
52 *316:11 *339:11 0.00266337
53 *322:19 *339:11 0.0217641
54 *338:9 *339:9 0
*RES
1 *921:gpio_dm2[37] *339:9 13.2117 
2 *339:9 *339:11 853.915 
3 *339:11 *339:13 15 
4 *339:13 *339:15 984.923 
5 *339:15 *339:21 32.8289 
6 *339:21 *339:23 384.138 
7 *339:23 *339:25 8 
8 *339:25 *339:27 713.586 
9 *339:27 gpio_dm2[37] 41.0689 
10 gpio_dm2[37] *339:42 0.0589474 
*END

*D_NET *340 0.649588
*CONN
*P gpio_dm2[38] O
*I *921:gpio_dm2[38] O *D CF_CARAVEL_SOC
*CAP
1 gpio_dm2[38] 0.00239646
2 *921:gpio_dm2[38] 0.000293097
3 *340:39 0.0442594
4 *340:37 0.0418629
5 *340:35 0.0105648
6 *340:33 0.0105648
7 *340:31 0.000793933
8 *340:19 0.00534373
9 *340:11 0.0180714
10 *340:9 0.0138147
11 *340:11 *341:12 0.00298957
12 *340:11 *341:14 0.00188515
13 *340:11 *350:9 0.000142505
14 *340:11 *351:9 0.000112317
15 *340:11 *352:9 0.000142505
16 *340:19 *341:14 0.006891
17 *340:35 *840:7 0.000357957
18 *340:39 *429:19 0.0551363
19 *340:39 *461:23 0.0054727
20 *340:39 *845:19 0.0251385
21 gpio_analog_sel[38] gpio_dm2[38] 0
22 *164:35 *340:39 0.0109091
23 *168:15 *340:39 0.117252
24 *208:9 *340:19 0.00482804
25 *211:9 *340:11 0
26 *211:9 *340:31 0
27 *226:9 *340:31 4.96824e-05
28 *227:9 *340:19 0.000227734
29 *233:9 *340:19 0.000227734
30 *234:9 *340:19 0.000227734
31 *237:9 *340:19 0.000227734
32 *238:15 *340:39 0.0191468
33 *239:9 *340:19 0.000227734
34 *244:9 *340:19 0.000227734
35 *245:9 *340:19 0.000227734
36 *250:9 *340:19 0.000227734
37 *251:9 *340:19 0.000227734
38 *252:9 *340:19 0.000227734
39 *253:15 *340:39 0.171848
40 *256:9 *340:19 0.000227734
41 *257:9 *340:19 0.000227734
42 *258:9 *340:11 0.00010255
43 *258:9 *340:19 6.56182e-06
44 *258:11 *340:11 6.44037e-05
45 *258:15 *340:19 0.000905679
46 *258:15 *340:31 0.000909939
47 *271:9 *340:11 0.000142505
48 *274:9 *340:11 0.000142505
49 *275:9 *340:11 0.000142505
50 *279:9 *340:11 0.000112317
51 *280:9 *340:11 0.000142505
52 *282:9 *340:11 0.000142505
53 *285:9 *340:11 0.000142505
54 *286:9 *340:11 0.000142505
55 *289:9 *340:11 0.000142505
56 *290:9 *340:11 0.000142505
57 *291:9 *340:11 0.000142505
58 *293:9 *340:11 0.000142505
59 *294:9 *340:11 0.000112317
60 *295:9 *340:11 0.000142505
61 *297:10 *340:35 0.00569479
62 *299:11 *340:11 0.0182307
63 *299:11 *340:19 0.00104099
64 *300:11 *340:11 0.00023228
65 *300:11 *340:19 0.00258402
66 *301:13 *340:11 0.000123768
67 *301:13 *340:19 0.0022533
68 *302:13 *340:35 0
69 *308:9 *340:11 0.000142505
70 *309:9 *340:11 0.000142505
71 *314:9 *340:11 0.000142505
72 *316:9 *340:11 0.000112317
73 *317:9 *340:11 0.000112317
74 *318:9 *340:11 0.000142505
75 *320:13 *340:11 0.000112317
76 *322:11 *340:11 0.0103239
77 *323:9 *340:11 0.000285009
78 *325:9 *340:11 0.000285009
79 *328:11 *340:11 0.00438739
80 *334:6 *340:9 0.000227734
81 *334:6 *340:11 0.000435844
82 *336:9 *340:11 0.000142505
83 *338:9 *340:11 0.000112317
84 *338:71 *340:39 0.0253925
85 *339:9 *340:9 5.02425e-06
*RES
1 *921:gpio_dm2[38] *340:9 8.69813 
2 *340:9 *340:11 467.791 
3 *340:11 *340:19 44.5469 
4 *340:19 *340:31 47.7696 
5 *340:31 *340:33 15 
6 *340:33 *340:35 228.862 
7 *340:35 *340:37 8 
8 *340:37 *340:39 422.091 
9 *340:39 gpio_dm2[38] 41.5675 
*END

*D_NET *341 0.58951
*CONN
*P gpio_dm2[39] O
*I *921:gpio_dm2[39] O *D CF_CARAVEL_SOC
*CAP
1 gpio_dm2[39] 0.00323428
2 *921:gpio_dm2[39] 0.00030841
3 *341:20 0.00323428
4 *341:18 0.0296545
5 *341:16 0.0296545
6 *341:14 0.0155919
7 *341:12 0.024849
8 *341:8 0.00956555
9 gpio_dm2[39] gpio_holdover[39] 0.0003606
10 *341:18 *344:15 0.000766525
11 *341:18 *408:23 0.00987276
12 *341:18 *471:27 0.00467198
13 *341:18 *534:11 0.0169832
14 *341:18 *557:19 0.019657
15 *341:18 *866:17 0.168176
16 gpio_analog_sel[39] gpio_dm2[39] 0
17 *123:15 *341:18 0.145097
18 *208:9 *341:12 0.0022474
19 *208:9 *341:14 0
20 *258:15 *341:14 0.00192214
21 *297:8 *341:12 0.000945471
22 *297:10 *341:12 0.000446861
23 *297:10 *341:14 0.0461569
24 *299:9 *341:12 0.000227734
25 *299:11 *341:12 0.000295704
26 *299:11 *341:14 0.00465832
27 *300:9 *341:12 0.000227734
28 *300:11 *341:12 0.000350289
29 *300:11 *341:14 0.00464898
30 *301:13 *341:12 0.000486566
31 *301:13 *341:14 0.0051221
32 *302:13 *341:12 0.000888595
33 *302:13 *341:14 0.015567
34 *322:9 *341:12 0.000227734
35 *322:11 *341:12 0.00298034
36 *328:9 *341:12 0.000227734
37 *328:11 *341:12 0.000207907
38 *329:8 *341:12 0.00167099
39 *329:10 *341:8 0.00157414
40 *329:10 *341:12 0.000968982
41 *330:13 *341:8 0.000318539
42 *330:13 *341:12 0.000302521
43 *332:13 *341:12 0.00036308
44 *333:9 *341:12 0.000227734
45 *333:11 *341:12 0.000317218
46 *334:6 *341:8 0.000888077
47 *334:6 *341:12 0.00160041
48 *340:11 *341:12 0.00298957
49 *340:11 *341:14 0.00188515
50 *340:19 *341:14 0.006891
*RES
1 *921:gpio_dm2[39] *341:8 11.808 
2 *341:8 *341:12 45.3637 
3 *341:12 *341:14 106.247 
4 *341:14 *341:16 8 
5 *341:16 *341:18 321.069 
6 *341:18 *341:20 8 
7 *341:20 gpio_dm2[39] 48.1504 
*END

*D_NET *342 0.0871414
*CONN
*P gpio_dm2[3] O
*I *921:gpio_dm2[3] O *D CF_CARAVEL_SOC
*CAP
1 gpio_dm2[3] 0.00650086
2 *921:gpio_dm2[3] 0.00430198
3 *342:11 0.0152002
4 *342:9 0.0130013
5 gpio_dm2[3] gpio_holdover[3] 0.000333084
6 *342:9 *347:9 0
7 *342:11 *530:113 0.000208957
8 *342:11 *567:18 0.00405899
9 gpio_analog_sel[3] gpio_dm2[3] 0.00145016
10 *93:11 *342:11 0.000343692
11 *103:9 gpio_dm2[3] 0
12 *111:15 *342:11 0.00745082
13 *130:11 *342:11 0.00610065
14 *144:11 *342:11 0.000206389
15 *144:19 *342:11 0.000786888
16 *155:11 *342:11 0
17 *243:11 *342:11 0
18 *246:11 *342:11 0.00111973
19 *254:11 *342:11 0.0256261
20 *270:19 *342:11 0.000451492
21 *331:13 *342:9 0
*RES
1 *921:gpio_dm2[3] *342:9 18.108 
2 *342:9 *342:11 62.7611 
3 *342:11 gpio_dm2[3] 22.4863 
*END

*D_NET *343 0.502298
*CONN
*P gpio_dm2[40] O
*I *921:gpio_dm2[40] O *D CF_CARAVEL_SOC
*CAP
1 gpio_dm2[40] 0.00196917
2 *921:gpio_dm2[40] 0.000750651
3 *343:15 0.0366403
4 *343:13 0.0346712
5 *343:11 0.0115639
6 *343:9 0.0123145
7 gpio_dm2[40] gpio_holdover[40] 9.12185e-05
8 gpio_dm2[40] gpio_out[40] 0
9 *343:9 *344:9 0
10 *343:11 *344:11 0.0674875
11 *343:11 *345:11 0.000298899
12 *343:11 *847:6 3.2192e-05
13 *343:15 *390:23 0.0145993
14 *343:15 *845:11 0.00903882
15 *343:15 *845:19 0.00767603
16 *343:15 *847:8 0.0142417
17 *343:15 *852:11 0.0302978
18 *119:21 gpio_dm2[40] 0.000171516
19 *126:15 *343:15 0.0186535
20 *164:21 *343:9 2.04049e-05
21 *167:15 *343:11 0.0687149
22 *168:15 *343:15 8.57944e-05
23 *209:11 *343:11 0.00353471
24 *211:17 gpio_dm2[40] 0
25 *255:15 *343:15 0.143534
26 *334:6 *343:9 0.000227734
27 *339:23 *343:15 0.0256827
*RES
1 *921:gpio_dm2[40] *343:9 9.72853 
2 *343:9 *343:11 879.798 
3 *343:11 *343:13 8 
4 *343:13 *343:15 271.566 
5 *343:15 gpio_dm2[40] 37.5282 
*END

*D_NET *344 0.432812
*CONN
*P gpio_dm2[41] O
*I *921:gpio_dm2[41] O *D CF_CARAVEL_SOC
*CAP
1 gpio_dm2[41] 0.00298969
2 *921:gpio_dm2[41] 0.000604804
3 *344:17 0.00298969
4 *344:15 0.0226785
5 *344:13 0.0226785
6 *344:11 0.0133062
7 *344:9 0.013911
8 gpio_dm2[41] gpio_holdover[41] 0.00111897
9 *344:9 *345:9 0
10 *344:11 *345:11 0.0353257
11 *344:15 *346:15 2.73173e-05
12 *344:15 *430:23 0.0083719
13 *344:15 *793:27 0.0244767
14 *344:15 *815:49 0.0200763
15 *344:15 *839:31 0.0109724
16 *344:15 *839:53 0.00275447
17 *344:15 *839:69 0.00471058
18 *344:15 *839:91 0.001163
19 *344:15 *866:17 0.113996
20 gpio_analog_sel[41] gpio_dm2[41] 0
21 *123:15 *344:15 0.000158909
22 *164:15 *344:11 0.00033972
23 *167:15 *344:11 0.000288799
24 *209:11 *344:11 0.00560663
25 *258:19 *344:15 0.0560126
26 *341:18 *344:15 0.000766525
27 *343:9 *344:9 0
28 *343:11 *344:11 0.0674875
*RES
1 *921:gpio_dm2[41] *344:9 9.3888 
2 *344:9 *344:11 869.938 
3 *344:11 *344:13 8 
4 *344:13 *344:15 220.304 
5 *344:15 *344:17 8 
6 *344:17 gpio_dm2[41] 46.5968 
*END

*D_NET *345 0.333936
*CONN
*P gpio_dm2[42] O
*I *921:gpio_dm2[42] O *D CF_CARAVEL_SOC
*CAP
1 gpio_dm2[42] 0.000458203
2 *921:gpio_dm2[42] 0.000348198
3 *345:23 0.00800264
4 *345:21 0.00786349
5 *345:15 0.00946766
6 *345:13 0.0091486
7 *345:11 0.0145929
8 *345:9 0.0149411
9 gpio_dm2[42] gpio_holdover[42] 0.000516592
10 *345:9 *346:9 0.000104334
11 *345:11 *846:9 0.000896832
12 *345:11 *847:6 0.00121371
13 *345:15 *546:13 0.00321651
14 *345:15 *552:13 0.00172907
15 *345:15 *560:19 0.0337887
16 *345:23 *433:20 0.00019952
17 *345:23 *478:9 0.00637072
18 *345:23 *561:18 0.000643665
19 *345:23 *786:23 0.00491779
20 *345:23 *829:43 0.000176157
21 *345:23 *859:11 0.00504624
22 gpio_analog_pol[43] *345:21 0.00010052
23 gpio_analog_sel[42] gpio_dm2[42] 0
24 *121:11 *345:11 0.0689841
25 *164:15 *345:11 0.00089126
26 *209:11 *345:11 0.00715799
27 *252:15 *345:23 0.0117721
28 *284:15 *345:15 0.0164022
29 *300:27 *345:23 0.00115934
30 *301:17 *345:15 0.0108934
31 *302:21 *345:15 0.000439253
32 *325:23 *345:15 0.0568688
33 *343:11 *345:11 0.000298899
34 *344:9 *345:9 0
35 *344:11 *345:11 0.0353257
*RES
1 *921:gpio_dm2[42] *345:9 8.9632 
2 *345:9 *345:11 909.554 
3 *345:11 *345:13 15 
4 *345:13 *345:15 675.244 
5 *345:15 *345:21 28.6032 
6 *345:21 *345:23 47.2827 
7 *345:23 gpio_dm2[42] 16.7311 
*END

*D_NET *346 0.278344
*CONN
*P gpio_dm2[43] O
*I *921:gpio_dm2[43] O *D CF_CARAVEL_SOC
*CAP
1 gpio_dm2[43] 0.00339705
2 *921:gpio_dm2[43] 0.000863067
3 *346:17 0.00339705
4 *346:15 0.016642
5 *346:13 0.016642
6 *346:11 0.0154897
7 *346:9 0.0163527
8 gpio_dm2[43] gpio_holdover[43] 0
9 *346:15 *441:15 0.0131406
10 *346:15 *444:15 0.0108507
11 *346:15 *463:15 0.0111983
12 *346:15 *529:9 0.00245198
13 *346:15 *532:24 0.00234797
14 *346:15 *540:22 0.000875229
15 *346:15 *840:19 0.00284563
16 gpio_analog_sel[43] gpio_dm2[43] 0
17 *123:15 *346:15 0.0622167
18 *213:11 *346:11 0.024398
19 *214:11 *346:11 0.00584865
20 *227:11 *346:11 0.0506514
21 *293:15 *346:15 0.00896394
22 *294:11 *346:11 0.0094121
23 *334:6 *346:9 0.000227734
24 *344:15 *346:15 2.73173e-05
25 *345:9 *346:9 0.000104334
*RES
1 *921:gpio_dm2[43] *346:9 10.1579 
2 *346:9 *346:11 876.981 
3 *346:11 *346:13 8 
4 *346:13 *346:15 118.724 
5 *346:15 *346:17 8 
6 *346:17 gpio_dm2[43] 48.1711 
*END

*D_NET *347 0.0993336
*CONN
*P gpio_dm2[4] O
*I *921:gpio_dm2[4] O *D CF_CARAVEL_SOC
*CAP
1 gpio_dm2[4] 0.00236482
2 *921:gpio_dm2[4] 0.00779544
3 *347:11 0.0198333
4 *347:9 0.0252639
5 gpio_dm2[4] gpio_holdover[4] 0
6 *347:9 *348:9 0
7 *347:11 *571:39 0.0120329
8 *347:11 *826:131 0.0282113
9 gpio_analog_sel[4] gpio_dm2[4] 0.00125453
10 *261:11 *347:11 0.00231364
11 *270:15 *347:9 0.000263768
12 *283:11 *347:11 0
13 *342:9 *347:9 0
*RES
1 *921:gpio_dm2[4] *347:9 26.0507 
2 *347:9 *347:11 579.068 
3 *347:11 gpio_dm2[4] 13.782 
*END

*D_NET *348 0.115457
*CONN
*P gpio_dm2[5] O
*I *921:gpio_dm2[5] O *D CF_CARAVEL_SOC
*CAP
1 gpio_dm2[5] 0.00346333
2 *921:gpio_dm2[5] 0.0071386
3 *348:11 0.0292159
4 *348:9 0.0328912
5 gpio_dm2[5] gpio_holdover[5] 0
6 gpio_dm2[5] gpio_out[5] 0
7 *348:9 *349:9 0
8 gpio_analog_sel[5] gpio_dm2[5] 0
9 *168:11 *348:11 0
10 *218:11 *348:11 0.0233162
11 *306:11 *348:11 0.0194314
12 *347:9 *348:9 0
*RES
1 *921:gpio_dm2[5] *348:9 24.6768 
2 *348:9 *348:11 807.961 
3 *348:11 gpio_dm2[5] 14.8871 
*END

*D_NET *349 0.174167
*CONN
*P gpio_dm2[6] O
*I *921:gpio_dm2[6] O *D CF_CARAVEL_SOC
*CAP
1 gpio_dm2[6] 0.00637225
2 *921:gpio_dm2[6] 0.00487752
3 *349:11 0.0233365
4 *349:9 0.0218418
5 gpio_dm2[6] gpio_holdover[6] 0
6 *349:11 *484:11 0.000648203
7 *349:11 *787:35 0.00188465
8 gpio_analog_sel[6] gpio_dm2[6] 0.000184359
9 *131:11 *349:11 0.0606932
10 *175:11 *349:11 0.00329596
11 *205:47 gpio_dm2[6] 0.000137076
12 *225:19 *349:11 0.0255919
13 *274:93 *349:11 0.00618921
14 *304:11 *349:11 0.0093668
15 *310:11 *349:11 0.00974749
16 *348:9 *349:9 0
*RES
1 *921:gpio_dm2[6] *349:9 19.6107 
2 *349:9 *349:11 1031.92 
3 *349:11 gpio_dm2[6] 20.8716 
*END

*D_NET *350 0.336062
*CONN
*P gpio_dm2[7] O
*I *921:gpio_dm2[7] O *D CF_CARAVEL_SOC
*CAP
1 gpio_dm2[7] 0.00557012
2 *921:gpio_dm2[7] 0.00300805
3 *350:11 0.0486437
4 *350:9 0.0460816
5 gpio_dm2[7] gpio_holdover[7] 0.00128511
6 gpio_dm2[7] *394:29 0.00598209
7 gpio_dm2[7] *746:13 0
8 *350:9 *351:9 0
9 *350:11 *351:11 0.151444
10 *350:11 *443:19 0
11 *350:11 *463:11 0.000219712
12 *350:11 *572:28 0
13 gpio_analog_sel[7] gpio_dm2[7] 0
14 *92:11 *350:11 0
15 *95:11 *350:11 0.000122544
16 *96:11 *350:11 0.00330485
17 *105:11 *350:11 0.000122782
18 *105:27 *350:11 0.0451343
19 *108:11 *350:11 0.0175164
20 *125:11 *350:11 0.00157843
21 *314:19 *350:11 0.00374251
22 *336:11 *350:11 0.00102374
23 *337:19 *350:11 0.00113946
24 *340:11 *350:9 0.000142505
*RES
1 *921:gpio_dm2[7] *350:9 15.0093 
2 *350:9 *350:11 350.646 
3 *350:11 gpio_dm2[7] 25.0996 
*END

*D_NET *351 0.429532
*CONN
*P gpio_dm2[8] O
*I *921:gpio_dm2[8] O *D CF_CARAVEL_SOC
*CAP
1 gpio_dm2[8] 0.00535343
2 *921:gpio_dm2[8] 0.00286197
3 *351:11 0.0380555
4 *351:9 0.035564
5 gpio_dm2[8] gpio_holdover[8] 0.00876537
6 gpio_dm2[8] gpio_out[8] 6.90934e-05
7 *351:9 *352:9 0
8 *351:11 *352:11 0.16948
9 *351:11 *474:11 0.00267953
10 *351:11 *571:31 0.00443306
11 *351:11 *700:10 0.00303529
12 gpio_analog_sel[8] gpio_dm2[8] 0
13 *105:27 *351:11 0.00737786
14 *206:19 *351:11 0.000300664
15 *279:11 *351:11 0
16 *340:11 *351:9 0.000112317
17 *350:9 *351:9 0
18 *350:11 *351:11 0.151444
*RES
1 *921:gpio_dm2[8] *351:9 14.7107 
2 *351:9 *351:11 392.407 
3 *351:11 gpio_dm2[8] 42.8305 
*END

*D_NET *352 0.472174
*CONN
*P gpio_dm2[9] O
*I *921:gpio_dm2[9] O *D CF_CARAVEL_SOC
*CAP
1 gpio_dm2[9] 0.00691821
2 *921:gpio_dm2[9] 0.00254496
3 *352:11 0.0504963
4 *352:9 0.046123
5 gpio_dm2[9] gpio_holdover[9] 0
6 *352:11 *479:11 0.00432954
7 *352:11 *480:11 0.00725057
8 *352:11 *534:15 0.00298355
9 *352:11 *699:10 0.00474956
10 *352:11 *744:15 0.00385086
11 gpio_analog_sel[9] gpio_dm2[9] 0.00137181
12 *91:11 *352:11 0.166887
13 *105:27 *352:11 0.002125
14 *279:11 *352:11 0
15 *310:9 *352:9 0.000708102
16 *314:13 *352:11 0.00221272
17 *340:11 *352:9 0.000142505
18 *351:9 *352:9 0
19 *351:11 *352:11 0.16948
*RES
1 *921:gpio_dm2[9] *352:9 14.6659 
2 *352:9 *352:11 432.264 
3 *352:11 gpio_dm2[9] 26.0927 
*END

*D_NET *353 0.782642
*CONN
*P gpio_holdover[0] O
*I *921:gpio_holdover[0] O *D CF_CARAVEL_SOC
*CAP
1 gpio_holdover[0] 0.00158103
2 *921:gpio_holdover[0] 0.00340155
3 *353:35 0.00584355
4 *353:33 0.00426252
5 *353:31 0.0522872
6 *353:29 0.0535922
7 *353:19 0.00492701
8 *353:17 0.00368202
9 *353:11 0.0324276
10 *353:9 0.0357691
11 gpio_holdover[0] gpio_out[0] 0
12 *353:9 *364:17 0
13 *353:9 *786:9 0
14 *353:11 *416:11 0.00599062
15 *353:11 *421:11 0.0185483
16 *353:11 *438:11 0.00545853
17 *353:11 *451:21 0.00579558
18 *353:11 *815:11 0.0392888
19 *353:17 *386:17 4.02281e-06
20 *353:19 *385:11 0.0184585
21 *353:19 *386:21 0.00301831
22 *353:19 *458:11 0.0163818
23 *353:19 *555:17 0
24 *353:19 *857:15 0
25 *353:29 *388:21 0.00029752
26 *353:29 *435:21 0.000944831
27 *353:29 *465:21 0.000339312
28 *353:29 *553:21 0.002023
29 *353:29 *851:15 8.30305e-06
30 *353:29 *853:17 2.56706e-05
31 *353:29 *861:21 3.501e-06
32 *353:31 *388:23 0
33 *353:31 *542:11 0.00968348
34 *353:31 *544:13 0.000194504
35 *353:31 *760:31 0.096827
36 *353:31 *830:15 0.122736
37 *353:31 *849:11 0.0191002
38 *353:31 *856:11 4.5857e-05
39 *353:35 *364:43 0.000631983
40 *353:35 *397:177 0.0235287
41 *353:35 *529:13 0.000318311
42 *353:35 *749:31 0.000781978
43 *353:35 *815:53 0.0246879
44 gpio_analog_pol[35] *353:11 0.000363588
45 gpio_dm2[0] gpio_holdover[0] 0.00208187
46 *207:23 *353:31 0.0688913
47 *248:45 *353:11 0.00437071
48 *292:27 *353:11 0
49 *336:47 *353:31 0.0940383
*RES
1 *921:gpio_holdover[0] *353:9 15.8755 
2 *353:9 *353:11 199.722 
3 *353:11 *353:17 16.0989 
4 *353:17 *353:19 236.785 
5 *353:19 *353:29 37.6714 
6 *353:29 *353:31 3142.19 
7 *353:31 *353:33 15 
8 *353:33 *353:35 338.73 
9 *353:35 gpio_holdover[0] 12.4865 
*END

*D_NET *354 0.658116
*CONN
*P gpio_holdover[10] O
*I *921:gpio_holdover[10] O *D CF_CARAVEL_SOC
*CAP
1 gpio_holdover[10] 0.00193795
2 *921:gpio_holdover[10] 0.00193633
3 *354:15 0.160467
4 *354:13 0.158529
5 *354:11 0.0309815
6 *354:9 0.0329179
7 gpio_holdover[10] *706:11 0
8 *354:9 *396:9 0
9 *354:11 *356:11 0.151129
10 *354:11 *359:11 0
11 *354:11 *393:11 0.00236979
12 *354:11 *449:29 0.000598254
13 *354:11 *751:11 0.00028502
14 *354:11 *791:23 0.112356
15 gpio_analog_pol[34] *354:9 0
16 gpio_analog_sel[10] *354:15 0
17 gpio_dm2[10] gpio_holdover[10] 0.000384918
18 gpio_dm2[10] *354:15 0.00422368
19 *268:11 gpio_holdover[10] 0
20 *311:11 gpio_holdover[10] 0
*RES
1 *921:gpio_holdover[10] *354:9 12.4837 
2 *354:9 *354:11 1937.64 
3 *354:11 *354:13 8 
4 *354:13 *354:15 568.579 
5 *354:15 gpio_holdover[10] 23.9663 
*END

*D_NET *355 0.845978
*CONN
*P gpio_holdover[11] O
*I *921:gpio_holdover[11] O *D CF_CARAVEL_SOC
*CAP
1 gpio_holdover[11] 0.00177072
2 *921:gpio_holdover[11] 0.00181332
3 *355:15 0.109742
4 *355:13 0.107971
5 *355:11 0.0437047
6 *355:9 0.045518
7 gpio_holdover[11] gpio_out[11] 0.000244656
8 *355:9 *356:9 0
9 *355:11 *359:11 0.168066
10 *355:11 *371:11 0.0267471
11 *355:11 *382:11 0.000449755
12 *355:11 *388:11 0.0162431
13 *355:11 *437:29 2.11066e-05
14 *355:11 *790:11 0.0346271
15 *355:11 *808:11 0
16 *355:15 gpio_out[11] 0
17 *355:15 *707:11 0.273612
18 gpio_analog_en[34] *355:9 0
19 gpio_analog_pol[34] *355:9 0.00230865
20 gpio_analog_sel[11] *355:15 0
21 gpio_dm2[11] gpio_holdover[11] 0.000241219
22 gpio_dm2[11] *355:15 6.39677e-05
23 *115:35 *355:11 0.0107562
24 *159:21 *355:11 0.00179503
25 *162:25 *355:11 0.000281259
*RES
1 *921:gpio_holdover[11] *355:9 13.4693 
2 *355:9 *355:11 2165.82 
3 *355:11 *355:13 8 
4 *355:13 *355:15 569.395 
5 *355:15 gpio_holdover[11] 4.5108 
*END

*D_NET *356 0.901833
*CONN
*P gpio_holdover[12] O
*I *921:gpio_holdover[12] O *D CF_CARAVEL_SOC
*CAP
1 gpio_holdover[12] 0.108708
2 *921:gpio_holdover[12] 0.00169939
3 *356:18 0
4 *356:13 0.108708
5 *356:11 0.0361937
6 *356:9 0.0378931
7 gpio_holdover[12] gpio_out[12] 0.0018537
8 gpio_holdover[12] *708:11 0.272447
9 gpio_holdover[12] *796:15 0
10 *356:9 *357:15 0
11 *356:11 *359:11 0
12 *356:11 *751:11 0.166318
13 *356:11 *797:19 0.0115734
14 *356:11 *819:11 0.00217383
15 gpio_analog_en[34] *356:9 0.0012109
16 gpio_analog_sel[12] gpio_holdover[12] 0
17 gpio_dm2[12] gpio_holdover[12] 0
18 *161:19 *356:11 0.00192611
19 *274:259 gpio_holdover[12] 0
20 *354:11 *356:11 0.151129
21 *355:9 *356:9 0
*RES
1 *921:gpio_holdover[12] *356:9 12.5248 
2 *356:9 *356:11 2394.72 
3 *356:11 *356:13 8 
4 *356:13 gpio_holdover[12] 572.285 
5 gpio_holdover[12] *356:18 0.0746667 
*END

*D_NET *357 0.628862
*CONN
*P gpio_holdover[13] O
*I *921:gpio_holdover[13] O *D CF_CARAVEL_SOC
*CAP
1 gpio_holdover[13] 0.00171983
2 *921:gpio_holdover[13] 0.0057923
3 *357:23 0.155925
4 *357:21 0.154205
5 *357:19 0.116394
6 *357:17 0.116394
7 *357:15 0.0057923
8 gpio_holdover[13] gpio_out[13] 0
9 *357:15 *358:17 0.00118405
10 *357:15 *361:11 0.00661391
11 *357:15 *374:9 3.19485e-05
12 *357:15 *416:11 0.00884379
13 *357:15 *423:11 0.000586493
14 *357:15 *555:17 0.00168822
15 *357:15 *755:11 0.000746181
16 *357:19 *361:11 0.00154215
17 *357:19 *370:11 0
18 *357:19 *375:19 0
19 *357:19 *389:11 0.00671256
20 *357:19 *413:19 0.0326331
21 *357:19 *423:11 0.000659084
22 *357:19 *438:19 0.00825231
23 *357:19 *543:31 0
24 *357:19 *687:19 0
25 *357:19 *809:11 0
26 *357:23 gpio_out[13] 0
27 gpio_dm2[13] gpio_holdover[13] 0.000925298
28 gpio_dm2[13] *357:23 0.00222149
29 *356:9 *357:15 0
*RES
1 *921:gpio_holdover[13] *357:15 44.3323 
2 *357:15 *357:17 8 
3 *357:17 *357:19 2730.66 
4 *357:19 *357:21 8 
5 *357:21 *357:23 570.726 
6 *357:23 gpio_holdover[13] 22.5129 
*END

*D_NET *358 0.966551
*CONN
*P gpio_holdover[14] O
*I *921:gpio_holdover[14] O *D CF_CARAVEL_SOC
*CAP
1 gpio_holdover[14] 0.000102389
2 *921:gpio_holdover[14] 0.00301604
3 *358:23 0.109468
4 *358:21 0.109366
5 *358:19 0.0921236
6 *358:17 0.0951397
7 *358:17 *359:9 0
8 *358:17 *389:11 0.000198873
9 *358:17 *423:11 0.00117879
10 *358:17 *438:19 0.000219712
11 *358:17 *468:9 0.000524591
12 *358:17 *831:25 0.00184649
13 *358:19 *363:11 0
14 *358:19 *376:11 0.0143501
15 *358:19 *416:11 0.0116946
16 *358:19 *458:11 0
17 *358:19 *809:11 0.255042
18 *358:23 gpio_out[14] 0.000782549
19 *358:23 *710:11 0.270072
20 gpio_analog_sel[14] *358:23 0
21 gpio_dm2[14] *358:23 0.000242342
22 *105:31 *358:23 0
23 *357:15 *358:17 0.00118405
*RES
1 *921:gpio_holdover[14] *358:17 34.136 
2 *358:17 *358:19 3287.75 
3 *358:19 *358:21 8 
4 *358:21 *358:23 575.118 
5 *358:23 gpio_holdover[14] 0.392933 
*END

*D_NET *359 1.0117
*CONN
*P gpio_holdover[15] O
*I *921:gpio_holdover[15] O *D CF_CARAVEL_SOC
*CAP
1 gpio_holdover[15] 4.08588e-05
2 *921:gpio_holdover[15] 0.00233617
3 *359:23 0.0769481
4 *359:21 0.0795486
5 *359:15 0.0323973
6 *359:13 0.0297559
7 *359:11 0.118028
8 *359:9 0.120365
9 gpio_holdover[15] gpio_out[15] 0
10 *359:9 *360:9 0
11 *359:9 *831:25 0
12 *359:11 *371:11 0.0149255
13 *359:11 *375:11 0.000982861
14 *359:11 *382:11 0.000112617
15 *359:11 *791:23 0
16 *359:11 *808:11 0
17 *359:15 *363:19 0.112559
18 *359:15 *448:9 0.0181865
19 *359:15 *449:9 0.0208264
20 *359:15 *450:9 0.0139255
21 *359:15 *451:9 0.0237421
22 *359:15 *763:15 0.0407423
23 *359:21 gpio_holdover[19] 2.98064e-05
24 *359:21 *363:19 0.00105723
25 *359:21 *448:9 0.00012692
26 *359:21 *449:9 0.000155534
27 *359:21 *450:9 0.000442748
28 *359:21 *451:9 0.00100099
29 *359:23 *448:9 0.0222902
30 *359:23 *449:9 0.0286556
31 *359:23 *450:9 0.0214742
32 *359:23 *451:9 0.000867449
33 *359:23 *536:245 0.00274428
34 *359:23 *537:250 0.00836334
35 gpio_dm2[15] gpio_holdover[15] 0
36 *96:15 *359:23 0.0494629
37 *159:21 *359:11 0.00154215
38 *354:11 *359:11 0
39 *355:11 *359:11 0.168066
40 *356:11 *359:11 0
41 *358:17 *359:9 0
*RES
1 *921:gpio_holdover[15] *359:9 13.3835 
2 *359:9 *359:11 3464.53 
3 *359:11 *359:13 8 
4 *359:13 *359:15 204.891 
5 *359:15 *359:21 9.69173 
6 *359:21 *359:23 317.419 
7 *359:23 gpio_holdover[15] 8.77679 
*END

*D_NET *360 1.04308
*CONN
*P gpio_holdover[16] O
*I *921:gpio_holdover[16] O *D CF_CARAVEL_SOC
*CAP
1 gpio_holdover[16] 0.00100824
2 *921:gpio_holdover[16] 0.00183326
3 *360:15 0.0541181
4 *360:13 0.0531099
5 *360:11 0.0494585
6 *360:9 0.0512917
7 gpio_holdover[16] gpio_out[16] 0
8 *360:9 *361:9 0
9 *360:11 *448:13 0.00538713
10 *360:11 *797:19 0.223259
11 *360:11 *798:19 0.2599
12 *360:15 *362:15 0.0286115
13 *360:15 *404:23 0
14 *360:15 *447:13 0.226019
15 *360:15 *453:13 0.0867644
16 gpio_dm2[16] gpio_holdover[16] 0
17 *161:19 *360:11 0.00231937
18 *359:9 *360:9 0
*RES
1 *921:gpio_holdover[16] *360:9 12.2672 
2 *360:9 *360:11 3434.77 
3 *360:11 *360:13 15 
4 *360:13 *360:15 2414.21 
5 *360:15 gpio_holdover[16] 38.49 
*END

*D_NET *361 0.932092
*CONN
*P gpio_holdover[17] O
*I *921:gpio_holdover[17] O *D CF_CARAVEL_SOC
*CAP
1 gpio_holdover[17] 0.000616712
2 *921:gpio_holdover[17] 0.00310988
3 *361:35 0.150296
4 *361:33 0.272012
5 *361:11 0.135672
6 *361:9 0.0164497
7 gpio_holdover[17] gpio_out[17] 0
8 *361:9 *362:9 0
9 *361:11 *389:11 0.000534421
10 *361:11 *413:19 0.00198791
11 *361:11 *416:11 0.0123836
12 *361:11 *423:11 0.0105458
13 *361:11 *438:19 0.00434338
14 *361:11 *555:17 0.000252083
15 *361:11 *755:11 0.00307603
16 *361:11 *766:11 0
17 *361:33 *394:15 0.0454957
18 *361:33 *395:23 0.0457334
19 *361:33 *438:23 0.0339875
20 *361:33 *440:23 0.0044944
21 *361:33 *725:13 0.000430816
22 *361:33 *730:19 0.0166996
23 *361:33 *759:15 0.0174401
24 *361:33 *761:15 0.0115165
25 *361:33 *873:61 0.00935863
26 gpio_dm2[17] gpio_holdover[17] 0
27 gpio_dm2[17] *361:35 0.0463185
28 *148:13 *361:33 0.0162183
29 *202:27 *361:33 0.00912494
30 *230:25 *361:33 0.00446091
31 *286:31 *361:33 0
32 *290:15 *361:33 0.0162183
33 *322:309 *361:11 0.00179503
34 *334:36 *361:33 0.0298422
35 *334:44 *361:33 0.00352204
36 *357:15 *361:11 0.00661391
37 *357:19 *361:11 0.00154215
38 *360:9 *361:9 0
*RES
1 *921:gpio_holdover[17] *361:9 14.972 
2 *361:9 *361:11 67.7115 
3 *361:11 *361:33 49.1365 
4 *361:33 *361:35 552.089 
5 *361:35 gpio_holdover[17] 28.8486 
*END

*D_NET *362 0.864549
*CONN
*P gpio_holdover[18] O
*I *921:gpio_holdover[18] O *D CF_CARAVEL_SOC
*CAP
1 gpio_holdover[18] 0.00107997
2 *921:gpio_holdover[18] 0.00405493
3 *362:15 0.0658083
4 *362:13 0.0647283
5 *362:11 0.0948319
6 *362:9 0.0988868
7 gpio_holdover[18] gpio_out[18] 0
8 *362:9 *363:9 0
9 *362:11 *368:11 0.26646
10 *362:11 *373:11 0.00187282
11 *362:11 *384:11 0.00145665
12 *362:11 *415:11 0
13 *362:11 *420:11 0.000309589
14 *362:11 *737:39 0.000441584
15 *362:11 *754:21 0.000519816
16 *362:11 *757:11 0
17 *362:11 *765:11 0
18 *362:11 *765:19 0.0458762
19 *362:15 *365:15 0.000738457
20 *362:15 *409:15 0.086104
21 *362:15 *411:15 0.0354502
22 *362:15 *447:13 0.0668357
23 *362:15 *453:13 0.000482513
24 *362:15 *539:435 0
25 gpio_dm2[18] gpio_holdover[18] 0
26 *360:15 *362:15 0.0286115
27 *361:9 *362:9 0
*RES
1 *921:gpio_holdover[18] *362:9 17.1205 
2 *362:9 *362:11 3420.86 
3 *362:11 *362:13 8 
4 *362:13 *362:15 309.09 
5 *362:15 gpio_holdover[18] 32.0182 
*END

*D_NET *363 0.629672
*CONN
*P gpio_holdover[19] O
*I *921:gpio_holdover[19] O *D CF_CARAVEL_SOC
*CAP
1 gpio_holdover[19] 0.000139667
2 *921:gpio_holdover[19] 0.00349349
3 *363:19 0.0361282
4 *363:17 0.0360556
5 *363:11 0.107308
6 *363:9 0.110734
7 gpio_holdover[19] gpio_out[19] 0
8 *363:9 *365:9 0
9 *363:11 *374:11 0.00937845
10 *363:11 *380:11 0.000415839
11 *363:11 *385:11 0.0110335
12 *363:11 *415:11 0
13 *363:11 *436:19 0.000199617
14 *363:11 *453:25 0.000863037
15 *363:11 *458:11 0.190147
16 *363:11 *552:25 0
17 *363:17 *763:15 5.10636e-05
18 *363:19 *448:9 0.000397334
19 *363:19 *449:9 0.000341329
20 *363:19 *451:9 0.00014228
21 *363:19 *763:15 0.000745571
22 gpio_analog_en[26] *363:11 0.000241414
23 *203:21 *363:11 0.00154215
24 *247:19 *363:11 0.00666787
25 *358:19 *363:11 0
26 *359:15 *363:19 0.112559
27 *359:21 gpio_holdover[19] 2.98064e-05
28 *359:21 *363:19 0.00105723
29 *362:9 *363:9 0
*RES
1 *921:gpio_holdover[19] *363:9 15.8325 
2 *363:9 *363:11 3437.06 
3 *363:11 *363:17 8.28187 
4 *363:17 *363:19 212.748 
5 *363:19 gpio_holdover[19] 9.05865 
*END

*D_NET *364 0.899476
*CONN
*P gpio_holdover[1] O
*I *921:gpio_holdover[1] O *D CF_CARAVEL_SOC
*CAP
1 gpio_holdover[1] 0.00172706
2 *921:gpio_holdover[1] 0.00389498
3 *364:43 0.0117231
4 *364:41 0.00999604
5 *364:39 0.0509004
6 *364:37 0.0513854
7 *364:27 0.0311119
8 *364:25 0.0307747
9 *364:19 0.00394728
10 *364:17 0.0076945
11 gpio_holdover[1] gpio_out[1] 0
12 *364:17 *382:11 0.00445394
13 *364:17 *756:6 0.000364411
14 *364:17 *778:9 3.28301e-05
15 *364:17 *779:9 0
16 *364:17 *831:11 0.00170017
17 *364:19 *413:11 0.00306208
18 *364:19 *418:11 0.00424843
19 *364:19 *468:11 0.0236084
20 *364:19 *787:11 0.0177408
21 *364:25 gpio_slow_sel[36] 1.30372e-05
22 *364:27 *408:11 0.00362074
23 *364:27 *418:11 0.0287346
24 *364:27 *423:11 0.00317615
25 *364:27 *468:11 0.0102859
26 *364:27 *543:23 0.026102
27 *364:27 *543:31 0.000416277
28 *364:27 *793:11 0
29 *364:27 *859:23 0.00245168
30 *364:27 *862:23 0.00256033
31 *364:37 *469:15 9.0213e-05
32 *364:37 *558:25 0.00103547
33 *364:37 *824:19 1.69857e-05
34 *364:37 *859:23 0.00107872
35 *364:39 *390:23 0.0186992
36 *364:39 *472:11 0.000734201
37 *364:39 *482:15 0.268463
38 *364:39 *555:13 0.000229239
39 *364:39 *558:13 0.0145802
40 *364:39 *693:163 0.000247067
41 *364:39 *827:19 0.022296
42 *364:39 *852:11 0.127674
43 *364:43 *815:53 0.0430684
44 gpio_analog_sel[1] gpio_holdover[1] 0.000399354
45 gpio_dm2[1] gpio_holdover[1] 0.00106108
46 *238:15 *364:39 0
47 *249:15 *364:39 0
48 *255:15 *364:39 0.0306849
49 *264:11 *364:43 0.0275252
50 *293:25 *364:37 8.66462e-05
51 *322:145 *364:39 0.00183044
52 *322:257 *364:39 0.0033165
53 *353:9 *364:17 0
54 *353:35 *364:43 0.000631983
*RES
1 *921:gpio_holdover[1] *364:17 40.8 
2 *364:17 *364:19 300.875 
3 *364:19 *364:25 16.2707 
4 *364:25 *364:27 174.462 
5 *364:27 *364:37 45.9437 
6 *364:37 *364:39 3159.34 
7 *364:39 *364:41 15 
8 *364:41 *364:43 563.398 
9 *364:43 gpio_holdover[1] 30.9849 
*END

*D_NET *365 0.52179
*CONN
*P gpio_holdover[20] O
*I *921:gpio_holdover[20] O *D CF_CARAVEL_SOC
*CAP
1 gpio_holdover[20] 0.00105437
2 *921:gpio_holdover[20] 0.00473228
3 *365:15 0.0199384
4 *365:13 0.018884
5 *365:11 0.140554
6 *365:9 0.145287
7 gpio_holdover[20] gpio_out[20] 0
8 gpio_holdover[20] *717:15 0
9 *365:9 *366:9 0
10 *365:11 *387:11 0.0109147
11 *365:11 *395:19 0.00811607
12 *365:11 *404:21 0.000152569
13 *365:11 *688:15 0
14 *365:11 *733:10 0
15 *365:11 *736:31 0
16 *365:11 *753:11 0
17 *365:11 *762:11 0
18 *365:11 *770:11 0.0152988
19 *365:11 *832:19 0
20 *365:15 *404:23 0.00192557
21 *365:15 *409:15 0.0868044
22 *365:15 *453:13 0.000173494
23 *365:15 *539:435 0
24 *365:15 *762:15 0.0672159
25 gpio_dm2[20] gpio_holdover[20] 0
26 *321:71 gpio_holdover[20] 0
27 *362:15 *365:15 0.000738457
28 *363:9 *365:9 0
*RES
1 *921:gpio_holdover[20] *365:9 18.4944 
2 *365:9 *365:11 3408.18 
3 *365:11 *365:13 8 
4 *365:13 *365:15 167.238 
5 *365:15 gpio_holdover[20] 31.1379 
*END

*D_NET *366 0.604628
*CONN
*P gpio_holdover[21] O
*I *921:gpio_holdover[21] O *D CF_CARAVEL_SOC
*CAP
1 gpio_holdover[21] 0.000979157
2 *921:gpio_holdover[21] 0.00596064
3 *366:15 0.0228805
4 *366:13 0.0219014
5 *366:11 0.0899107
6 *366:9 0.0958713
7 gpio_holdover[21] gpio_out[21] 0
8 gpio_holdover[21] *718:15 0
9 *366:9 *367:9 0
10 *366:9 *737:55 1.41966e-05
11 *366:9 *832:25 0.000381289
12 *366:11 *369:11 0
13 *366:11 *383:11 0.00136134
14 *366:11 *455:21 0.0127516
15 *366:11 *457:11 0
16 *366:11 *539:183 0.00535253
17 *366:11 *545:15 0
18 *366:11 *724:17 0
19 *366:11 *763:11 0.267872
20 *366:15 *404:23 0.0125697
21 *366:15 *410:15 0.062749
22 *366:15 *539:435 0.00333417
23 *366:15 *762:15 0.000738457
24 gpio_dm2[21] gpio_holdover[21] 0
25 *365:9 *366:9 0
*RES
1 *921:gpio_holdover[21] *366:9 21.0704 
2 *366:9 *366:11 3403.25 
3 *366:11 *366:13 8 
4 *366:13 *366:15 121.815 
5 *366:15 gpio_holdover[21] 29.025 
*END

*D_NET *367 0.557708
*CONN
*P gpio_holdover[22] O
*I *921:gpio_holdover[22] O *D CF_CARAVEL_SOC
*CAP
1 gpio_holdover[22] 0.000169082
2 *921:gpio_holdover[22] 0.00543626
3 *367:15 0.00971644
4 *367:13 0.00954735
5 *367:11 0.0967885
6 *367:9 0.102225
7 *367:9 *368:9 0
8 *367:9 *832:25 0
9 *367:11 *372:11 0
10 *367:11 *411:11 0.263521
11 *367:11 *544:17 0.010392
12 *367:11 *759:11 0.000745486
13 *367:11 *762:11 0
14 *367:11 *774:11 0
15 *367:11 *788:11 0.00670445
16 *367:15 gpio_holdover[23] 0.000761069
17 *367:15 gpio_ib_mode_sel[23] 0.0117828
18 *367:15 *763:15 0.0399191
19 *366:9 *367:9 0
*RES
1 *921:gpio_holdover[22] *367:9 19.7824 
2 *367:9 *367:11 3414.52 
3 *367:11 *367:13 8 
4 *367:13 *367:15 72.6133 
5 *367:15 gpio_holdover[22] 10.1854 
*END

*D_NET *368 0.567976
*CONN
*P gpio_holdover[23] O
*I *921:gpio_holdover[23] O *D CF_CARAVEL_SOC
*CAP
1 gpio_holdover[23] 0.00421416
2 *921:gpio_holdover[23] 0.00416822
3 *368:11 0.0831884
4 *368:9 0.0831425
5 gpio_holdover[23] gpio_ib_mode_sel[23] 0.00998179
6 gpio_holdover[23] gpio_out[23] 0
7 *368:9 *369:9 0
8 *368:11 *373:11 0.00216588
9 *368:11 *384:11 0.00829068
10 *368:11 *420:11 0.000187045
11 *368:11 *456:27 4.45392e-05
12 *368:11 *736:23 0.0140819
13 *368:11 *765:19 0.0652661
14 *368:11 *768:11 0.0260237
15 gpio_dm2[23] gpio_holdover[23] 0
16 *362:11 *368:11 0.26646
17 *367:9 *368:9 0
18 *367:15 gpio_holdover[23] 0.000761069
*RES
1 *921:gpio_holdover[23] *368:9 17.2064 
2 *368:9 *368:11 3406.07 
3 *368:11 gpio_holdover[23] 42.9485 
*END

*D_NET *369 0.515135
*CONN
*P gpio_holdover[24] O
*I *921:gpio_holdover[24] O *D CF_CARAVEL_SOC
*CAP
1 gpio_holdover[24] 0.00416463
2 *921:gpio_holdover[24] 0.00635274
3 *369:23 0.0775638
4 *369:21 0.0734818
5 *369:19 0.0212345
6 *369:17 0.0214102
7 *369:11 0.00523866
8 *369:9 0.011333
9 *369:11 *390:11 0.00182165
10 *369:11 *417:11 0.0070263
11 *369:11 *455:21 1.36268e-05
12 *369:11 *539:183 1.22948e-05
13 *369:11 *545:15 0.0253278
14 *369:11 *693:31 0.0106503
15 *369:11 *817:11 0.0033681
16 *369:17 *754:21 0.000435629
17 *369:19 gpio_vtrip_sel[30] 0.00771224
18 *369:19 *398:19 0.01575
19 *369:19 *412:11 0.0185863
20 *369:19 *417:19 0.103544
21 *369:19 *769:11 0.000217903
22 *369:19 *813:19 0.0196705
23 *369:19 *816:25 0.00228672
24 *369:19 *816:27 0.0332411
25 *369:23 *398:19 0.00195942
26 *369:23 *412:11 0.0267971
27 *369:23 *457:11 0.0107523
28 *369:23 *769:11 0.00229114
29 gpio_dm2[24] gpio_holdover[24] 0.000170295
30 *284:67 *369:19 0.000182382
31 *284:67 *369:23 0.00247539
32 *290:15 *369:17 6.26907e-05
33 *366:11 *369:11 0
34 *368:9 *369:9 0
*RES
1 *921:gpio_holdover[24] *369:9 21.4139 
2 *369:9 *369:11 323.412 
3 *369:11 *369:17 16.8717 
4 *369:17 *369:19 239.717 
5 *369:19 *369:21 0.227733 
6 *369:21 *369:23 280.948 
7 *369:23 gpio_holdover[24] 17.4145 
*END

*D_NET *370 0.368862
*CONN
*P gpio_holdover[25] O
*I *921:gpio_holdover[25] O *D CF_CARAVEL_SOC
*CAP
1 gpio_holdover[25] 0.0064969
2 *921:gpio_holdover[25] 0.0033172
3 *370:11 0.0661956
4 *370:9 0.0630159
5 gpio_holdover[25] gpio_out[25] 0.00120615
6 *370:9 *371:9 0
7 *370:9 *375:17 0
8 *370:9 *756:6 0.000287215
9 *370:11 *416:11 0.0229823
10 *370:11 *438:19 1.89516e-05
11 *370:11 *555:17 0.00896442
12 *370:11 *755:11 0.00256014
13 *370:11 *809:11 0.182428
14 gpio_dm2[25] gpio_holdover[25] 0.000643486
15 *322:309 *370:11 0.0107332
16 *326:35 gpio_holdover[25] 1.21272e-05
17 *357:19 *370:11 0
*RES
1 *921:gpio_holdover[25] *370:9 15.4405 
2 *370:9 *370:11 2319.36 
3 *370:11 gpio_holdover[25] 25.2191 
*END

*D_NET *371 0.382002
*CONN
*P gpio_holdover[26] O
*I *921:gpio_holdover[26] O *D CF_CARAVEL_SOC
*CAP
1 gpio_holdover[26] 0.00635388
2 *921:gpio_holdover[26] 0.00258184
3 *371:11 0.0729909
4 *371:9 0.0692188
5 gpio_holdover[26] *402:11 0.000120707
6 gpio_holdover[26] *723:21 0.00581563
7 *371:9 *372:9 0
8 *371:9 *375:17 0.000182431
9 *371:9 *756:6 0.000210019
10 *371:11 *382:11 0.00492981
11 *371:11 *391:11 0
12 *371:11 *393:11 0
13 *371:11 *413:11 0.00342292
14 *371:11 *418:11 0.109299
15 *371:11 *766:11 0.0302434
16 *371:11 *790:11 0.0234059
17 *159:21 *371:11 0.0109248
18 *327:67 gpio_holdover[26] 0.000629204
19 *355:11 *371:11 0.0267471
20 *359:11 *371:11 0.0149255
21 *370:9 *371:9 0
*RES
1 *921:gpio_holdover[26] *371:9 13.8968 
2 *371:9 *371:11 376.54 
3 *371:11 gpio_holdover[26] 26.6807 
*END

*D_NET *372 0.213105
*CONN
*P gpio_holdover[27] O
*I *921:gpio_holdover[27] O *D CF_CARAVEL_SOC
*CAP
1 gpio_holdover[27] 0.00380684
2 *921:gpio_holdover[27] 0.00582285
3 *372:11 0.0794167
4 *372:9 0.0814327
5 gpio_holdover[27] gpio_out[27] 0.00408891
6 gpio_holdover[27] *548:23 0.000169974
7 gpio_holdover[27] *811:11 0.000167799
8 *372:9 *373:9 0
9 *372:11 *763:11 0
10 *372:11 *774:11 0.0272931
11 *372:11 *775:11 0.00937046
12 *240:15 gpio_holdover[27] 0.001536
13 *328:65 gpio_holdover[27] 0
14 *367:11 *372:11 0
15 *371:9 *372:9 0
*RES
1 *921:gpio_holdover[27] *372:9 20.2976 
2 *372:9 *372:11 1860.87 
3 *372:11 gpio_holdover[27] 37.638 
*END

*D_NET *373 0.284151
*CONN
*P gpio_holdover[28] O
*I *921:gpio_holdover[28] O *D CF_CARAVEL_SOC
*CAP
1 gpio_holdover[28] 0.00500229
2 *921:gpio_holdover[28] 0.00460502
3 *373:11 0.0365131
4 *373:9 0.0361159
5 *373:9 *374:9 0
6 *373:11 gpio_ib_mode_sel[30] 0.00193647
7 *373:11 *384:11 0.000605027
8 *373:11 *414:11 0
9 *373:11 *420:11 0.0876945
10 *373:11 *456:27 0.00115007
11 *373:11 *736:23 0.00200528
12 *373:11 *765:19 0.0606728
13 *373:11 *768:11 0.00137579
14 *373:11 *768:19 0.0363593
15 gpio_dm2[28] gpio_holdover[28] 0.000767766
16 *329:70 gpio_holdover[28] 0.00530853
17 *362:11 *373:11 0.00187282
18 *368:11 *373:11 0.00216588
19 *372:9 *373:9 0
*RES
1 *921:gpio_holdover[28] *373:9 17.4211 
2 *373:9 *373:11 294.414 
3 *373:11 gpio_holdover[28] 21.9916 
*END

*D_NET *374 0.245599
*CONN
*P gpio_holdover[29] O
*I *921:gpio_holdover[29] O *D CF_CARAVEL_SOC
*CAP
1 gpio_holdover[29] 0.00632965
2 *921:gpio_holdover[29] 0.00370415
3 *374:11 0.0492087
4 *374:9 0.0465832
5 gpio_holdover[29] *726:21 0
6 *374:9 *542:45 5.66092e-05
7 *374:11 *376:11 0
8 *374:11 *380:11 0.00274237
9 *374:11 *414:11 0.0203717
10 *374:11 *416:11 0
11 *374:11 *421:11 0.0733262
12 *374:11 *436:19 0.00240004
13 *374:11 *453:25 0.000103953
14 *374:11 *458:11 0.00937845
15 *374:11 *552:25 0.00330764
16 *374:11 *735:23 0.00327263
17 *198:31 gpio_holdover[29] 0.00175199
18 *203:21 *374:11 0.0133587
19 *330:33 gpio_holdover[29] 0.000292587
20 *357:15 *374:9 3.19485e-05
21 *363:11 *374:11 0.00937845
22 *373:9 *374:9 0
*RES
1 *921:gpio_holdover[29] *374:9 16.2189 
2 *374:9 *374:11 252.653 
3 *374:11 gpio_holdover[29] 23.3655 
*END

*D_NET *375 1.03072
*CONN
*P gpio_holdover[2] O
*I *921:gpio_holdover[2] O *D CF_CARAVEL_SOC
*CAP
1 gpio_holdover[2] 0.00158399
2 *921:gpio_holdover[2] 0.0064937
3 *375:59 0.0179509
4 *375:57 0.0191783
5 *375:51 0.0039686
6 *375:49 0.00149559
7 *375:43 0.00302977
8 *375:41 0.00664444
9 *375:35 0.00693525
10 *375:33 0.00298217
11 *375:31 0.04395
12 *375:29 0.04395
13 *375:27 0.00279031
14 *375:25 0.00446978
15 *375:19 0.00464846
16 *375:17 0.00337949
17 *375:11 0.0069042
18 gpio_holdover[2] gpio_out[2] 0.00203523
19 *375:11 *382:11 0.0135027
20 *375:11 *386:9 0
21 *375:11 *393:11 0.00135317
22 *375:11 *831:11 0.000932421
23 *375:19 *389:11 0
24 *375:19 *449:21 0
25 *375:19 *543:31 0.00780442
26 *375:19 *766:11 0.00122567
27 *375:25 *388:9 0.00258101
28 *375:25 *737:39 0.000866284
29 *375:27 *456:19 0.0123041
30 *375:27 *472:27 0.000143762
31 *375:27 *544:25 0.0123565
32 *375:27 *831:27 0.000875309
33 *375:27 *836:11 0.00220882
34 *375:31 *782:15 0.000555752
35 *375:31 *787:15 0.306066
36 *375:35 *782:19 0
37 *375:43 *568:15 0.00160433
38 *375:51 *391:43 0.000674953
39 *375:51 *481:11 0.00398951
40 gpio_analog_en[4] *375:59 9.66679e-05
41 gpio_analog_pol[3] *375:59 0.000113015
42 gpio_analog_pol[5] *375:49 8.24476e-05
43 gpio_dm0[3] *375:59 6.39976e-05
44 gpio_dm2[2] gpio_holdover[2] 0
45 *132:11 *375:43 0.00198485
46 *173:9 *375:49 0.000177103
47 *176:11 *375:43 0.00193611
48 *181:11 *375:51 0.000333621
49 *184:11 *375:35 0.000675506
50 *198:11 *375:35 0.0132368
51 *206:47 *375:31 0.307222
52 *206:51 *375:27 0.000421
53 *219:11 *375:35 0
54 *224:19 *375:51 0
55 *228:25 *375:31 0.0141704
56 *229:11 *375:35 0.0149774
57 *247:15 *375:31 5.78193e-05
58 *281:11 *375:35 1.35764e-05
59 *281:11 *375:59 0
60 *286:31 *375:31 0.0599072
61 *305:11 *375:59 0.0458677
62 *312:19 *375:43 0.0139389
63 *327:31 *375:43 0.00284151
64 *337:17 *375:57 0
65 *357:19 *375:19 0
66 *359:11 *375:11 0.000982861
67 *370:9 *375:17 0
68 *371:9 *375:17 0.000182431
*RES
1 *921:gpio_holdover[2] *375:11 44.3272 
2 *375:11 *375:17 16.7859 
3 *375:17 *375:19 100.154 
4 *375:19 *375:25 21.7232 
5 *375:25 *375:27 181.851 
6 *375:27 *375:29 8 
7 *375:29 *375:31 564.887 
8 *375:31 *375:33 8 
9 *375:33 *375:35 193.119 
10 *375:35 *375:41 23.0971 
11 *375:41 *375:43 177.625 
12 *375:43 *375:49 17.0864 
13 *375:49 *375:51 50.8536 
14 *375:51 *375:57 21.3797 
15 *375:57 *375:59 583.294 
16 *375:59 gpio_holdover[2] 12.4697 
*END

*D_NET *376 0.204484
*CONN
*P gpio_holdover[30] O
*I *921:gpio_holdover[30] O *D CF_CARAVEL_SOC
*CAP
1 gpio_holdover[30] 0.00645508
2 *921:gpio_holdover[30] 0.00350896
3 *376:11 0.0422748
4 *376:9 0.0393287
5 gpio_holdover[30] *728:21 0.00539582
6 *376:9 *377:9 0
7 *376:9 *542:45 0
8 *376:9 *756:6 0.000364411
9 *376:11 *380:11 0.000242175
10 *376:11 *416:11 0.0910038
11 *203:21 *376:11 0.00156004
12 *332:25 gpio_holdover[30] 0
13 *358:19 *376:11 0.0143501
14 *374:11 *376:11 0
*RES
1 *921:gpio_holdover[30] *376:9 15.868 
2 *376:9 *376:11 210.131 
3 *376:11 gpio_holdover[30] 24.7617 
*END

*D_NET *377 0.144331
*CONN
*P gpio_holdover[31] O
*I *921:gpio_holdover[31] O *D CF_CARAVEL_SOC
*CAP
1 gpio_holdover[31] 0.00565382
2 *921:gpio_holdover[31] 0.00539282
3 *377:11 0.0662725
4 *377:9 0.0660115
5 gpio_holdover[31] *729:21 0
6 gpio_holdover[31] *770:17 2.79505e-05
7 *377:9 *378:9 0
8 *377:9 *395:17 0
9 gpio_dm2[31] gpio_holdover[31] 0.000959096
10 *201:15 gpio_holdover[31] 0
11 *245:15 gpio_holdover[31] 1.33921e-05
12 *376:9 *377:9 0
*RES
1 *921:gpio_holdover[31] *377:9 19.4819 
2 *377:9 *377:11 169.258 
3 *377:11 gpio_holdover[31] 20.4311 
*END

*D_NET *378 0.0611938
*CONN
*P gpio_holdover[32] O
*I *921:gpio_holdover[32] O *D CF_CARAVEL_SOC
*CAP
1 gpio_holdover[32] 0.000991024
2 *921:gpio_holdover[32] 0.010637
3 *378:11 0.00920896
4 *378:9 0.0188549
5 gpio_holdover[32] *730:19 0.000248582
6 *378:9 gpio_holdover[33] 0
7 *378:11 *466:11 0
8 *378:11 *547:25 0.0210637
9 *378:11 *731:18 0
10 *205:63 *378:9 0.000189654
11 *325:167 *378:11 0
12 *334:44 gpio_holdover[32] 0
13 *377:9 *378:9 0
*RES
1 *921:gpio_holdover[32] *378:9 29.3995 
2 *378:9 *378:11 271.999 
3 *378:11 gpio_holdover[32] 10.2447 
*END

*D_NET *379 0.0312928
*CONN
*P gpio_holdover[33] O
*I *921:gpio_holdover[33] O *D CF_CARAVEL_SOC
*CAP
1 gpio_holdover[33] 0.0124728
2 *921:gpio_holdover[33] 0.0124711
3 *379:18 1.65103e-06
4 gpio_holdover[33] gpio_out[33] 0.000541301
5 gpio_holdover[33] *380:11 0
6 gpio_holdover[33] *398:19 0.000636006
7 gpio_holdover[33] *412:11 0.000561886
8 gpio_holdover[33] *417:19 0.000776621
9 gpio_holdover[33] *422:11 0.0019244
10 gpio_holdover[33] *737:39 0.000237025
11 gpio_holdover[33] *769:11 0.000243747
12 gpio_holdover[33] *813:11 0.000644339
13 gpio_holdover[33] *814:11 0.000561871
14 *379:18 gpio_out[33] 3.08663e-05
15 gpio_dm2[33] gpio_holdover[33] 0.000189198
16 *378:9 gpio_holdover[33] 0
*RES
1 *921:gpio_holdover[33] gpio_holdover[33] 47.0725 
2 gpio_holdover[33] *379:18 0.0908108 
*END

*D_NET *380 0.0584315
*CONN
*P gpio_holdover[34] O
*I *921:gpio_holdover[34] O *D CF_CARAVEL_SOC
*CAP
1 gpio_holdover[34] 0.0070067
2 *921:gpio_holdover[34] 0.011549
3 *380:11 0.0185557
4 gpio_holdover[34] gpio_out[34] 0
5 gpio_holdover[34] *394:9 0
6 gpio_holdover[34] *737:63 0.00249291
7 *380:11 *381:9 0
8 *380:11 *385:11 0.000484028
9 *380:11 *416:11 0
10 *380:11 *421:11 0.00648986
11 *380:11 *436:19 0.00204674
12 *380:11 *451:21 0.00194268
13 *380:11 *453:25 0.000635972
14 *380:11 *458:11 0.0003777
15 *380:11 *735:23 0.00114956
16 gpio_dm2[34] gpio_holdover[34] 0.00149441
17 gpio_holdover[33] *380:11 0
18 *248:45 *380:11 0.0007749
19 *336:82 gpio_holdover[34] 3.08663e-05
20 *363:11 *380:11 0.000415839
21 *374:11 *380:11 0.00274237
22 *376:11 *380:11 0.000242175
*RES
1 *921:gpio_holdover[34] *380:11 49.4867 
2 *380:11 gpio_holdover[34] 23.7108 
*END

*D_NET *381 0.0698834
*CONN
*P gpio_holdover[35] O
*I *921:gpio_holdover[35] O *D CF_CARAVEL_SOC
*CAP
1 gpio_holdover[35] 0.00134626
2 *921:gpio_holdover[35] 0.00972065
3 *381:15 0.0126564
4 *381:13 0.0113377
5 *381:11 0.00220774
6 *381:9 0.0119009
7 gpio_holdover[35] gpio_out[35] 0.000701197
8 *381:9 *382:9 0.000383624
9 *381:9 *873:55 0
10 *381:11 *447:17 0
11 *381:11 *548:23 0.00586473
12 *381:11 *693:39 0.000159777
13 *381:15 *447:17 0
14 *381:15 *548:23 0.0129485
15 gpio_dm2[34] *381:15 0.000389244
16 gpio_dm2[35] gpio_holdover[35] 0
17 *284:57 *381:9 0.000266663
18 *380:11 *381:9 0
*RES
1 *921:gpio_holdover[35] *381:9 28.1115 
2 *381:9 *381:11 75.4207 
3 *381:11 *381:13 0.621429 
4 *381:13 *381:15 343.215 
5 *381:15 gpio_holdover[35] 11.0763 
*END

*D_NET *382 0.147838
*CONN
*P gpio_holdover[36] O
*I *921:gpio_holdover[36] O *D CF_CARAVEL_SOC
*CAP
1 gpio_holdover[36] 0.00598311
2 *921:gpio_holdover[36] 0.00238404
3 *382:11 0.0218656
4 *382:9 0.0182666
5 gpio_holdover[36] gpio_out[36] 0.000929359
6 gpio_holdover[36] *818:9 0.00394605
7 *382:9 gpio_vtrip_sel[33] 0
8 *382:9 *756:6 0.000364411
9 *382:11 *388:11 0.00345744
10 *382:11 *393:11 0
11 *382:11 *413:11 0.00338214
12 *382:11 *418:11 0.0124845
13 *382:11 *425:11 0.0156881
14 *382:11 *771:11 0.000924914
15 *382:11 *778:11 0.0229076
16 *382:11 *790:11 0.00343442
17 *382:11 *824:11 0.000520342
18 *382:11 *831:11 0.00136344
19 gpio_dm2[36] gpio_holdover[36] 0.00610341
20 *355:11 *382:11 0.000449755
21 *359:11 *382:11 0.000112617
22 *364:17 *382:11 0.00445394
23 *371:11 *382:11 0.00492981
24 *375:11 *382:11 0.0135027
25 *381:9 *382:9 0.000383624
*RES
1 *921:gpio_holdover[36] *382:9 13.9789 
2 *382:9 *382:11 116.073 
3 *382:11 gpio_holdover[36] 26.1972 
*END

*D_NET *383 0.183772
*CONN
*P gpio_holdover[37] O
*I *921:gpio_holdover[37] O *D CF_CARAVEL_SOC
*CAP
1 gpio_holdover[37] 0.00433915
2 *921:gpio_holdover[37] 0.00588354
3 *383:11 0.0433752
4 *383:9 0.0449196
5 gpio_holdover[37] gpio_out[37] 0
6 *383:9 gpio_ib_mode_sel[33] 0.000624261
7 *383:9 gpio_vtrip_sel[33] 0.000169569
8 *383:9 *384:9 0
9 *383:11 *390:11 0.00331887
10 *383:11 *417:11 0.00225887
11 *383:11 *426:11 0.00887276
12 *383:11 *437:11 0.00011786
13 *383:11 *455:21 0.008606
14 *383:11 *470:11 0.00264204
15 *383:11 *545:15 0.000868717
16 *383:11 *693:79 0.00157253
17 *383:11 *737:57 0.00105882
18 *383:11 *817:11 0.000307582
19 *383:11 *818:11 0.0509633
20 gpio_analog_sel[37] gpio_holdover[37] 0.000961892
21 gpio_dm2[37] gpio_holdover[37] 0.0015192
22 *339:42 gpio_holdover[37] 3.08663e-05
23 *366:11 *383:11 0.00136134
*RES
1 *921:gpio_holdover[37] *383:9 21.1992 
2 *383:9 *383:11 158.215 
3 *383:11 gpio_holdover[37] 18.5513 
*END

*D_NET *384 0.439891
*CONN
*P gpio_holdover[38] O
*I *921:gpio_holdover[38] O *D CF_CARAVEL_SOC
*CAP
1 gpio_holdover[38] 5.08505e-05
2 *921:gpio_holdover[38] 0.0040947
3 *384:15 0.0219511
4 *384:13 0.0219003
5 *384:11 0.025702
6 *384:9 0.0297967
7 gpio_holdover[38] gpio_out[38] 1.83879e-05
8 *384:9 *385:9 0
9 *384:11 *420:11 0.00332947
10 *384:11 *456:27 0.125285
11 *384:11 *757:11 0
12 *384:11 *760:11 0.0808717
13 *384:11 *765:11 0
14 *384:11 *821:13 0.000792659
15 *384:11 *832:15 0.00302652
16 *384:15 *736:43 0.0697253
17 *384:15 *855:11 0.0251591
18 gpio_analog_en[38] *384:15 0.00278463
19 *251:27 *384:11 0.000690819
20 *284:49 *384:11 2.26158e-05
21 *293:27 *384:11 0.00482985
22 *295:27 *384:11 0.00950668
23 *362:11 *384:11 0.00145665
24 *368:11 *384:11 0.00829068
25 *373:11 *384:11 0.000605027
26 *383:9 *384:9 0
*RES
1 *921:gpio_holdover[38] *384:9 17.2923 
2 *384:9 *384:11 1631.97 
3 *384:11 *384:13 8 
4 *384:13 *384:15 131.428 
5 *384:15 gpio_holdover[38] 8.98393 
*END

*D_NET *385 0.584186
*CONN
*P gpio_holdover[39] O
*I *921:gpio_holdover[39] O *D CF_CARAVEL_SOC
*CAP
1 gpio_holdover[39] 0.000397208
2 *921:gpio_holdover[39] 0.00347581
3 *385:15 0.0271005
4 *385:13 0.0267033
5 *385:11 0.0230448
6 *385:9 0.0265206
7 *385:9 *387:9 0
8 *385:11 *414:11 0.000245087
9 *385:11 *421:11 0.00423941
10 *385:11 *436:19 2.22077e-05
11 *385:11 *451:21 0.119092
12 *385:11 *453:25 0.00610873
13 *385:11 *458:11 0.051313
14 *385:11 *815:11 0.002632
15 *385:11 *848:23 1.70419e-05
16 *385:11 *857:15 0
17 *385:11 *863:23 0.00141723
18 *385:11 *871:15 0.000185252
19 *385:15 *387:15 0.000338863
20 *385:15 *428:23 0.000230415
21 *385:15 *549:13 0.00117119
22 *385:15 *692:35 0.00151494
23 *385:15 *693:193 0.0463501
24 *385:15 *824:23 0.0686411
25 *385:15 *829:35 0.0102989
26 *385:15 *848:11 0.00334965
27 *385:15 *853:11 0.0105307
28 *385:15 *857:11 0.000128629
29 *385:15 *860:11 0.0220358
30 *385:15 *863:11 0.00142384
31 *385:15 *863:21 0.00219594
32 *385:15 *865:11 0.0255573
33 *385:15 *867:11 0.00135389
34 *385:15 *873:13 0.00339455
35 *385:15 *873:29 0.0057731
36 gpio_dm2[39] gpio_holdover[39] 0.0003606
37 *248:45 *385:11 0.00127978
38 *252:15 *385:15 0.055767
39 *353:19 *385:11 0.0184585
40 *363:11 *385:11 0.0110335
41 *380:11 *385:11 0.000484028
42 *384:9 *385:9 0
*RES
1 *921:gpio_holdover[39] *385:9 15.9184 
2 *385:9 *385:11 1634.79 
3 *385:11 *385:13 8 
4 *385:13 *385:15 231.123 
5 *385:15 gpio_holdover[39] 14.9704 
*END

*D_NET *386 0.99632
*CONN
*P gpio_holdover[3] O
*I *921:gpio_holdover[3] O *D CF_CARAVEL_SOC
*CAP
1 gpio_holdover[3] 0.00274638
2 *921:gpio_holdover[3] 0.00209303
3 *386:211 0.0257776
4 *386:209 0.0230312
5 *386:207 0.013349
6 *386:205 0.013349
7 *386:203 0.0019316
8 *386:201 0.00519776
9 *386:197 0.00372715
10 *386:191 0.00322751
11 *386:189 0.0028743
12 *386:183 0.00245447
13 *386:175 0.00535486
14 *386:173 0.00334233
15 *386:167 0.003644
16 *386:159 0.00578536
17 *386:157 0.00255456
18 *386:155 0.0022356
19 *386:153 0.00280371
20 *386:149 0.00338828
21 *386:139 0.00752999
22 *386:137 0.00485592
23 *386:131 0.0015647
24 *386:123 0.00248438
25 *386:119 0.00539102
26 *386:113 0.00444074
27 *386:107 0.00236288
28 *386:105 0.00239455
29 *386:99 0.00665784
30 *386:97 0.00666787
31 *386:91 0.00760088
32 *386:89 0.0113308
33 *386:81 0.00467437
34 *386:73 0.00430536
35 *386:65 0.00482091
36 *386:53 0.00449119
37 *386:45 0.00883264
38 *386:25 0.0119147
39 *386:21 0.0126528
40 *386:17 0.00784684
41 *386:11 0.0281526
42 *386:9 0.0288601
43 gpio_holdover[3] gpio_out[3] 0
44 *386:9 *756:6 0.000364411
45 *386:11 *425:11 0.000107009
46 *386:11 *429:11 0.00072883
47 *386:11 *435:11 0.00911404
48 *386:11 *449:29 0.00294174
49 *386:11 *471:11 0.00779408
50 *386:11 *797:11 0.000593619
51 *386:11 *798:15 0.00987109
52 *386:11 *819:11 0.0313876
53 *386:11 *825:11 0.00166408
54 *386:11 *826:11 0.0399289
55 *386:11 *829:11 0.00166408
56 *386:11 *831:11 0.0470972
57 *386:11 *834:11 0
58 *386:11 *852:27 0.00169135
59 *386:21 *419:11 0.000194599
60 *386:21 *815:11 0.0150147
61 *386:25 *397:31 0.000178325
62 *386:25 *454:47 0
63 *386:25 *471:25 0
64 *386:25 *550:21 0
65 *386:25 *556:41 0.0222684
66 *386:25 *826:21 0.00515517
67 *386:25 *867:21 0.0102465
68 *386:45 *472:11 0.0024056
69 *386:45 *539:133 5.69491e-05
70 *386:45 *539:151 2.93059e-05
71 *386:45 *815:25 0.000178818
72 *386:53 *397:39 6.83758e-05
73 *386:53 *539:133 0.0159143
74 *386:53 *737:135 0.000627666
75 *386:53 *739:74 4.34621e-05
76 *386:53 *826:21 0.0023002
77 *386:65 *469:15 0.00194411
78 *386:65 *815:39 0.00191922
79 *386:65 *839:205 2.5065e-05
80 *386:65 *846:13 0.000326704
81 *386:65 *858:11 0.000370034
82 *386:73 *921:gpio_in[16] 0
83 *386:73 *397:49 0
84 *386:73 *397:57 0.0129147
85 *386:73 *444:79 0
86 *386:73 *693:163 0.000577768
87 *386:73 *815:47 0.0163894
88 *386:73 *826:21 0.00232446
89 *386:81 *397:69 0.00156261
90 *386:81 *450:41 0.00037825
91 *386:81 *539:97 0.000418804
92 *386:81 *739:112 0.000390242
93 *386:81 *826:21 0.000152538
94 *386:81 *826:27 0.000592356
95 *386:81 *840:19 0.00212307
96 *386:89 *539:87 0.0011598
97 *386:89 *539:93 0
98 *386:89 *693:183 0
99 *386:89 *737:173 0.00545828
100 *386:89 *737:191 0.00108064
101 *386:89 *739:116 0
102 *386:97 *419:37 0.000109976
103 *386:97 *541:41 7.2909e-05
104 *386:99 gpio_out[39] 0.00279091
105 *386:99 *419:39 4.42584e-05
106 *386:99 *541:35 0.00538391
107 *386:107 *419:47 0.0176468
108 *386:119 *419:59 0.014885
109 *386:119 *540:16 0.00120968
110 *386:123 *419:63 0.00305474
111 *386:131 *419:71 5.84708e-05
112 *386:131 *540:16 0.00143379
113 *386:131 *562:23 4.79458e-06
114 *386:131 *562:31 0.013035
115 *386:137 *419:77 8.51243e-05
116 *386:137 *562:31 5.79413e-06
117 *386:139 *419:79 2.63049e-05
118 *386:139 *419:87 0.00182184
119 *386:139 *539:35 1.32939e-05
120 *386:139 *551:35 0.00175308
121 *386:139 *696:147 0.0111168
122 *386:149 *533:14 0
123 *386:149 *539:33 0.000237378
124 *386:149 *696:145 0.000183518
125 *386:155 *419:103 0.000308028
126 *386:155 *530:35 0.000441137
127 *386:155 *535:27 0.00103692
128 *386:155 *539:11 0
129 *386:155 *551:69 0.000889602
130 *386:155 *562:51 0.000550542
131 *386:155 *569:18 0
132 *386:155 *696:119 0
133 *386:155 *696:135 0
134 *386:159 *535:33 0.00107704
135 *386:159 *539:11 0
136 *386:159 *696:119 0.00150515
137 *386:167 *408:35 0
138 *386:173 *408:45 4.35434e-05
139 *386:175 *419:131 0.00127528
140 *386:175 *530:43 7.43025e-06
141 *386:175 *740:133 0.00264344
142 *386:175 *740:135 0.00156573
143 *386:175 *826:79 0.00200615
144 *386:183 *533:62 4.35362e-05
145 *386:183 *535:57 0.000174588
146 *386:183 *741:140 0
147 *386:183 *741:154 0.00280789
148 *386:183 *826:91 0.00019162
149 *386:189 *826:101 1.01436e-05
150 *386:191 *408:63 0.00196788
151 *386:191 *419:155 0.00100635
152 *386:191 *740:115 0.00195633
153 *386:191 *740:121 6.79928e-05
154 *386:191 *740:123 0
155 *386:197 *536:41 0
156 *386:197 *537:34 0
157 *386:201 *535:93 0.000153782
158 *386:201 *536:47 0
159 *386:203 *408:85 0
160 *386:203 *536:47 0
161 *386:203 *740:91 0
162 *386:207 *474:15 1.08507e-05
163 *386:207 *480:15 0.00053091
164 *386:207 *554:13 0.00125849
165 *386:207 *559:19 0.00415726
166 *386:211 *826:131 0.00650145
167 gpio_dm2[3] gpio_holdover[3] 0.000333084
168 *118:51 *386:197 0
169 *118:51 *386:201 0.00859035
170 *118:69 *386:183 0.00899529
171 *118:69 *386:189 0.000120587
172 *118:123 *386:131 0.0131297
173 *118:143 *386:113 3.47781e-05
174 *118:143 *386:119 4.83511e-05
175 *118:147 *386:107 0.0175607
176 *118:155 *386:99 0.035755
177 *118:161 *386:97 9.18156e-06
178 *118:163 *386:91 0.0234367
179 *118:171 *386:89 4.51403e-05
180 *118:179 *386:81 0.00027364
181 *164:35 *386:207 0.0138192
182 *168:11 *386:211 0
183 *168:15 *386:207 0.000610198
184 *238:15 *386:207 0.000347199
185 *253:15 *386:207 0.00824298
186 *261:11 *386:211 0.064719
187 *269:11 *386:211 0.0424161
188 *292:15 *386:65 0.000427208
189 *292:27 *386:21 0
190 *294:15 *386:207 0.010935
191 *295:27 *386:21 0
192 *322:79 *386:203 0.00224791
193 *322:85 *386:201 0
194 *322:131 *386:155 0.000312262
195 *322:131 *386:159 0
196 *322:245 *386:45 3.03428e-06
197 *322:255 *386:45 0.000273695
198 *325:57 *386:167 0.00724475
199 *325:57 *386:173 0.000852199
200 *325:83 *386:99 0.00593621
201 *325:87 *386:99 0.00651837
202 *325:97 *386:89 0.00262539
203 *325:117 *386:73 0.000361081
204 *325:125 *386:65 0.000462929
205 *325:139 *386:53 0.0158712
206 *325:155 *386:25 0.000228616
207 *336:27 *386:183 0.000239109
208 *338:33 *386:167 0
209 *338:63 *386:99 0.00106924
210 *339:23 *386:45 0.0016002
211 *353:17 *386:17 4.02281e-06
212 *353:19 *386:21 0.00301831
213 *375:11 *386:9 0
*RES
1 *921:gpio_holdover[3] *386:9 13.1203 
2 *386:9 *386:11 203.657 
3 *386:11 *386:17 19.3189 
4 *386:17 *386:21 43.9781 
5 *386:21 *386:25 49.9589 
6 *386:25 *386:45 39.6987 
7 *386:45 *386:53 48.0992 
8 *386:53 *386:65 22.9216 
9 *386:65 *386:73 47.3899 
10 *386:73 *386:81 31.4624 
11 *386:81 *386:89 45.3763 
12 *386:89 *386:91 256.94 
13 *386:91 *386:97 24.7296 
14 *386:97 *386:99 65.3147 
15 *386:99 *386:105 24.0254 
16 *386:105 *386:107 195.957 
17 *386:107 *386:113 23.6732 
18 *386:113 *386:119 35.5109 
19 *386:119 *386:123 48.495 
20 *386:123 *386:131 47.5143 
21 *386:131 *386:137 24.3775 
22 *386:137 *386:139 157.366 
23 *386:139 *386:149 49.4629 
24 *386:149 *386:153 27.2939 
25 *386:153 *386:155 64.2246 
26 *386:155 *386:157 1.55357 
27 *386:157 *386:159 60.8896 
28 *386:159 *386:167 49.4494 
29 *386:167 *386:173 34.5896 
30 *386:173 *386:175 94.0014 
31 *386:175 *386:183 42.8523 
32 *386:183 *386:189 26.1382 
33 *386:189 *386:191 81.6143 
34 *386:191 *386:197 32.4768 
35 *386:197 *386:201 26.3456 
36 *386:201 *386:203 38.7046 
37 *386:203 *386:205 15 
38 *386:205 *386:207 507.541 
39 *386:207 *386:209 15 
40 *386:209 *386:211 1025.41 
41 *386:211 gpio_holdover[3] 14.0209 
*END

*D_NET *387 0.520719
*CONN
*P gpio_holdover[40] O
*I *921:gpio_holdover[40] O *D CF_CARAVEL_SOC
*CAP
1 gpio_holdover[40] 0.000199723
2 *921:gpio_holdover[40] 0.00396894
3 *387:23 0.0196603
4 *387:21 0.0195056
5 *387:15 0.00460834
6 *387:13 0.00456333
7 *387:11 0.0389888
8 *387:9 0.0429578
9 gpio_holdover[40] gpio_out[40] 0
10 *387:9 *472:25 0.00522942
11 *387:9 *737:39 1.02995e-05
12 *387:11 *395:19 0.00523505
13 *387:11 *440:19 0.00659291
14 *387:11 *469:11 0
15 *387:11 *539:159 0.0378379
16 *387:11 *539:165 0.000483242
17 *387:11 *539:167 0
18 *387:11 *554:23 3.83492e-05
19 *387:11 *736:39 0
20 *387:11 *737:89 0.0129956
21 *387:11 *770:11 0.0122199
22 *387:15 *428:23 0.0192578
23 *387:15 *549:13 0.00165925
24 *387:15 *549:23 1.0267e-05
25 *387:15 *736:43 0.00485774
26 *387:15 *824:23 0.000587916
27 *387:15 *848:19 0.0132404
28 *387:15 *857:11 0.00425331
29 *387:15 *863:11 0.00162083
30 *387:15 *863:21 2.05341e-05
31 *387:23 *428:23 0.000123131
32 *387:23 *692:35 0.0143146
33 *387:23 *736:43 0.00120384
34 *387:23 *857:11 0.0209875
35 gpio_dm2[40] gpio_holdover[40] 9.12185e-05
36 *118:211 *387:11 0
37 *251:15 *387:23 0.0465472
38 *251:25 *387:15 5.56039e-05
39 *284:23 *387:23 0.0880216
40 *284:49 *387:15 0.000235197
41 *335:33 *387:23 0.0422657
42 *338:83 *387:11 0.0350159
43 *365:11 *387:11 0.0109147
44 *385:9 *387:9 0
45 *385:15 *387:15 0.000338863
*RES
1 *921:gpio_holdover[40] *387:9 18.5803 
2 *387:9 *387:11 1643.95 
3 *387:11 *387:13 8 
4 *387:13 *387:15 43.4187 
5 *387:15 *387:21 23.6732 
6 *387:21 *387:23 1340.34 
7 *387:23 gpio_holdover[40] 19.1636 
*END

*D_NET *388 0.606045
*CONN
*P gpio_holdover[41] O
*I *921:gpio_holdover[41] O *D CF_CARAVEL_SOC
*CAP
1 gpio_holdover[41] 0.00093998
2 *921:gpio_holdover[41] 0.00194659
3 *388:23 0.0461361
4 *388:21 0.045739
5 *388:11 0.0258559
6 *388:9 0.0272596
7 *388:9 *389:9 0
8 *388:9 *737:39 1.75711e-05
9 *388:9 *756:6 0.000287215
10 *388:11 *413:11 0.00401475
11 *388:11 *418:11 0.00148348
12 *388:11 *425:11 0.00280342
13 *388:11 *460:21 4.60157e-05
14 *388:11 *543:21 7.23298e-05
15 *388:11 *543:23 0.0059172
16 *388:11 *737:73 0.00299207
17 *388:11 *749:23 0.00272815
18 *388:11 *771:11 0.0790053
19 *388:11 *771:23 1.26108e-05
20 *388:11 *790:11 0.0426093
21 *388:11 *808:11 0
22 *388:11 *824:11 0.0745832
23 *388:11 *861:25 0.00124769
24 *388:11 *861:27 0.000826599
25 *388:11 *864:15 0
26 *388:21 *435:21 0.000935863
27 *388:21 *465:21 7.62058e-06
28 *388:21 *851:15 0.000203806
29 *388:21 *861:21 0.000167644
30 *388:21 *864:11 0.00117958
31 *388:23 *843:11 0.0364879
32 *388:23 *850:11 0.151056
33 *388:23 *851:11 0.010758
34 *388:23 *856:11 0.0150154
35 *388:23 *861:11 1.09834e-05
36 gpio_dm2[41] gpio_holdover[41] 0.00111897
37 *353:29 *388:21 0.00029752
38 *353:31 *388:23 0
39 *355:11 *388:11 0.0162431
40 *375:25 *388:9 0.00258101
41 *382:11 *388:11 0.00345744
*RES
1 *921:gpio_holdover[41] *388:9 13.8091 
2 *388:9 *388:11 1632.68 
3 *388:11 *388:21 36.8474 
4 *388:21 *388:23 1819.15 
5 *388:23 gpio_holdover[41] 32.8557 
*END

*D_NET *389 0.701117
*CONN
*P gpio_holdover[42] O
*I *921:gpio_holdover[42] O *D CF_CARAVEL_SOC
*CAP
1 gpio_holdover[42] 0.00206813
2 *921:gpio_holdover[42] 0.00318888
3 *389:23 0.0382224
4 *389:21 0.0368807
5 *389:11 0.0210385
6 *389:9 0.023501
7 gpio_holdover[42] *560:25 0
8 *389:9 *756:6 0.000287215
9 *389:11 *423:11 0.00970206
10 *389:11 *438:19 0.077923
11 *389:11 *449:21 0.00143472
12 *389:11 *453:41 0.117365
13 *389:11 *793:11 0.00821864
14 *389:11 *827:11 0.0107628
15 *389:11 *857:23 0.0289697
16 *389:21 *390:21 0.00175897
17 *389:21 *760:21 0.00145868
18 *389:21 *865:15 0
19 *389:23 *390:23 0.000175583
20 *389:23 *760:23 0.196361
21 *389:23 *847:8 0.000412504
22 gpio_analog_pol[33] *389:9 0
23 gpio_analog_sel[42] gpio_holdover[42] 0
24 gpio_dm2[42] gpio_holdover[42] 0.000516592
25 *249:15 *389:23 0.0711164
26 *295:25 *389:21 1.12325e-05
27 *339:23 *389:23 0.0422969
28 *357:19 *389:11 0.00671256
29 *358:17 *389:11 0.000198873
30 *361:11 *389:11 0.000534421
31 *375:19 *389:11 0
32 *388:9 *389:9 0
*RES
1 *921:gpio_holdover[42] *389:9 15.0971 
2 *389:9 *389:11 1623.52 
3 *389:11 *389:21 38.7885 
4 *389:21 *389:23 2111.2 
5 *389:23 gpio_holdover[42] 46.7757 
*END

*D_NET *390 0.761104
*CONN
*P gpio_holdover[43] O
*I *921:gpio_holdover[43] O *D CF_CARAVEL_SOC
*CAP
1 gpio_holdover[43] 0.00202424
2 *921:gpio_holdover[43] 0.00472307
3 *390:23 0.0398078
4 *390:21 0.040338
5 *390:11 0.0230875
6 *390:9 0.0252561
7 gpio_holdover[43] gpio_out[43] 0
8 *390:11 gpio_ib_mode_sel[37] 0.000543522
9 *390:11 *417:11 0.0778566
10 *390:11 *426:11 0.000133765
11 *390:11 *455:21 0.128346
12 *390:11 *818:11 0.00825883
13 *390:21 *429:17 1.64154e-05
14 *390:21 *470:15 0.000498938
15 *390:21 *554:23 0.00146971
16 *390:21 *760:21 0.000621352
17 *390:21 *825:21 0.000359359
18 *390:21 *829:27 7.23298e-05
19 *390:23 *472:11 0.00574082
20 *390:23 *760:23 0.109671
21 *390:23 *847:8 0.0274794
22 *390:23 *852:11 0.169048
23 gpio_analog_pol[33] *390:9 0.000501294
24 gpio_dm2[43] gpio_holdover[43] 0
25 *164:43 *390:23 0.0115984
26 *206:57 *390:9 0.00652478
27 *249:15 *390:23 0
28 *249:25 *390:21 0.000107851
29 *255:15 *390:23 0.000263068
30 *294:23 *390:23 0.00388443
31 *295:25 *390:21 0.00133655
32 *322:257 *390:23 0.00184515
33 *336:67 *390:11 0.0247441
34 *339:23 *390:23 0.00457273
35 *343:15 *390:23 0.0145993
36 *364:39 *390:23 0.0186992
37 *369:11 *390:11 0.00182165
38 *383:11 *390:11 0.00331887
39 *389:21 *390:21 0.00175897
40 *389:23 *390:23 0.000175583
*RES
1 *921:gpio_holdover[43] *390:9 21.2421 
2 *390:9 *390:11 1632.68 
3 *390:11 *390:21 46.9892 
4 *390:21 *390:23 2397.06 
5 *390:23 gpio_holdover[43] 43.9793 
*END

*D_NET *391 0.535722
*CONN
*P gpio_holdover[4] O
*I *921:gpio_holdover[4] O *D CF_CARAVEL_SOC
*CAP
1 gpio_holdover[4] 0.00261229
2 *921:gpio_holdover[4] 0.00169535
3 *391:51 0.00630114
4 *391:49 0.00580726
5 *391:43 0.00731216
6 *391:41 0.00596763
7 *391:35 0.00145062
8 *391:33 0.00388927
9 *391:29 0.00730997
10 *391:15 0.0868313
11 *391:13 0.0827339
12 *391:11 0.0181671
13 *391:9 0.0198624
14 gpio_holdover[4] gpio_out[4] 0
15 *391:9 *392:9 0
16 *391:11 *393:11 0.000224842
17 *391:11 *448:13 0.0024202
18 *391:11 *453:33 0.000103953
19 *391:11 *798:19 0.00537704
20 *391:11 *834:11 0
21 *391:15 *536:151 0.000702792
22 *391:15 *831:31 0.0850124
23 *391:29 *694:10 0.00167396
24 *391:29 *738:15 0.00191965
25 *391:33 *832:57 3.48285e-05
26 *391:43 *481:11 0
27 *391:51 *571:39 0.00333274
28 gpio_analog_pol[5] *391:43 0.000439423
29 gpio_dm2[4] gpio_holdover[4] 0
30 *90:11 *391:29 0.0125927
31 *104:19 *391:43 0.0016336
32 *104:19 *391:49 0
33 *141:25 *391:15 0.00801109
34 *159:13 *391:29 0.00581813
35 *161:19 *391:11 0.032068
36 *169:9 *391:33 0
37 *170:9 *391:33 0.000107013
38 *222:19 *391:35 0.00332642
39 *224:19 *391:43 0.0151019
40 *228:25 *391:15 0.000529705
41 *230:21 *391:15 0.00938698
42 *230:21 *391:29 0.00049533
43 *241:11 *391:35 0.00332642
44 *242:25 *391:15 0.00014294
45 *244:15 *391:15 0.0842001
46 *247:15 *391:15 0.000934776
47 *247:15 *391:29 0.000116663
48 *277:15 *391:15 0.00161599
49 *283:11 *391:51 0.00333098
50 *286:29 *391:15 7.23382e-05
51 *288:67 *391:29 0.00105061
52 *327:39 *391:43 2.75733e-06
53 *371:11 *391:11 0
54 *375:51 *391:43 0.000674953
*RES
1 *921:gpio_holdover[4] *391:9 12.0973 
2 *391:9 *391:11 80.024 
3 *391:11 *391:13 8 
4 *391:13 *391:15 556.472 
5 *391:15 *391:29 47.3115 
6 *391:29 *391:33 14.7965 
7 *391:33 *391:35 43.1064 
8 *391:35 *391:41 17.6016 
9 *391:41 *391:43 192.415 
10 *391:43 *391:49 20.0059 
11 *391:49 *391:51 144.524 
12 *391:51 gpio_holdover[4] 13.3023 
*END

*D_NET *392 0.884995
*CONN
*P gpio_holdover[5] O
*I *921:gpio_holdover[5] O *D CF_CARAVEL_SOC
*CAP
1 gpio_holdover[5] 0.00101875
2 *921:gpio_holdover[5] 0.00516651
3 *392:59 0.00466833
4 *392:57 0.00458747
5 *392:53 0.00135705
6 *392:47 0.00750271
7 *392:45 0.00766775
8 *392:35 0.00520312
9 *392:33 0.00461892
10 *392:31 0.0165827
11 *392:29 0.016791
12 *392:23 0.0241125
13 *392:21 0.0239042
14 *392:19 0.00470807
15 *392:17 0.00706841
16 *392:11 0.0067679
17 *392:9 0.00957407
18 gpio_holdover[5] gpio_out[5] 0.00141476
19 *392:9 gpio_ib_mode_sel[34] 0.000491856
20 *392:9 gpio_oeb[34] 0.00134885
21 *392:9 *393:9 0
22 *392:9 *831:17 0
23 *392:11 *763:11 0
24 *392:11 *775:11 0.0113525
25 *392:19 *402:11 0.00665407
26 *392:19 *541:111 0.00777151
27 *392:19 *690:23 0.0205907
28 *392:19 *772:11 0.00034107
29 *392:23 *705:23 0.0391064
30 *392:31 *683:11 0.0292966
31 *392:35 *831:41 0.000203065
32 *392:53 *436:27 0.000563367
33 gpio_dm2[5] gpio_holdover[5] 0
34 *116:45 *392:45 5.18859e-05
35 *116:53 *392:35 0
36 *116:55 *392:31 0.132672
37 *117:33 *392:45 0
38 *117:35 *392:35 0.00570889
39 *117:39 *392:23 0.165889
40 *140:39 *392:47 9.33613e-05
41 *157:29 *392:45 0.000234426
42 *160:15 *392:31 0.132894
43 *193:57 *392:23 0.00017401
44 *196:25 *392:35 0.000138242
45 *198:25 *392:35 0
46 *205:29 *392:35 0.000228601
47 *205:53 *392:23 0.165889
48 *206:43 *392:53 0.000267239
49 *217:11 *392:59 0.0096017
50 *283:11 *392:53 0.000413105
51 *328:51 *392:45 1.86635e-05
52 *328:53 *392:45 0.000146008
53 *329:58 *392:45 0.000141387
54 *330:13 *392:45 0
55 *391:9 *392:9 0
*RES
1 *921:gpio_holdover[5] *392:9 20.4693 
2 *392:9 *392:11 146.636 
3 *392:11 *392:17 20.6069 
4 *392:17 *392:19 274.816 
5 *392:19 *392:21 8 
6 *392:21 *392:23 304.282 
7 *392:23 *392:29 26.4904 
8 *392:29 *392:31 1418.47 
9 *392:31 *392:33 15 
10 *392:33 *392:35 141.178 
11 *392:35 *392:45 40.773 
12 *392:45 *392:47 104.959 
13 *392:47 *392:53 48.1043 
14 *392:53 *392:57 28.485 
15 *392:57 *392:59 123.571 
16 *392:59 gpio_holdover[5] 11.0399 
*END

*D_NET *393 0.788756
*CONN
*P gpio_holdover[6] O
*I *921:gpio_holdover[6] O *D CF_CARAVEL_SOC
*CAP
1 gpio_holdover[6] 0.00195713
2 *921:gpio_holdover[6] 0.00191777
3 *393:27 0.00308512
4 *393:25 0.00112799
5 *393:23 0.0388564
6 *393:21 0.0390571
7 *393:15 0.0044102
8 *393:11 0.0199962
9 *393:9 0.0177045
10 gpio_holdover[6] gpio_out[6] 0.000400566
11 *393:9 *831:17 0.000247641
12 *393:11 *791:23 0.00492151
13 *393:11 *808:11 0.00523832
14 *393:11 *819:11 0.0166646
15 *393:11 *831:11 7.51663e-05
16 *393:15 *687:17 0.000335951
17 *393:23 *437:31 0.000243396
18 *393:23 *688:11 0.0453455
19 *393:23 *693:19 0.240448
20 *393:23 *716:11 0.270039
21 *393:23 *744:11 0.00367247
22 *393:27 *782:19 0
23 *393:27 *833:35 0.00212557
24 gpio_dm2[6] gpio_holdover[6] 0
25 *115:15 *393:23 0.000219548
26 *116:63 *393:15 0.0187088
27 *117:39 *393:15 0.0199826
28 *159:21 *393:11 0
29 *160:15 *393:23 0.0155323
30 *161:19 *393:11 0.00813513
31 *219:11 *393:27 0.00435938
32 *354:11 *393:11 0.00236979
33 *371:11 *393:11 0
34 *375:11 *393:11 0.00135317
35 *382:11 *393:11 0
36 *391:11 *393:11 0.000224842
37 *392:9 *393:9 0
*RES
1 *921:gpio_holdover[6] *393:9 12.6125 
2 *393:9 *393:11 74.5659 
3 *393:11 *393:15 46.1379 
4 *393:15 *393:21 26.1382 
5 *393:21 *393:23 2942.09 
6 *393:23 *393:25 15 
7 *393:25 *393:27 55.6075 
8 *393:27 gpio_holdover[6] 12.4959 
*END

*D_NET *394 0.917759
*CONN
*P gpio_holdover[7] O
*I *921:gpio_holdover[7] O *D CF_CARAVEL_SOC
*CAP
1 gpio_holdover[7] 0.00217973
2 *921:gpio_holdover[7] 0.00467945
3 *394:29 0.00937134
4 *394:19 0.031702
5 *394:17 0.0245104
6 *394:15 0.0788824
7 *394:13 0.0788824
8 *394:11 0.00676451
9 *394:9 0.011444
10 gpio_holdover[7] *746:13 0
11 *394:9 gpio_out[34] 0.00319378
12 *394:9 *395:11 0
13 *394:9 *737:63 0
14 *394:11 *759:11 0.0345592
15 *394:11 *774:11 0.0345636
16 *394:15 *395:23 0.301353
17 *394:15 *438:23 5.17394e-05
18 *394:15 *730:19 0.1032
19 *394:15 *755:15 0.105789
20 *394:15 *759:15 0.000131346
21 *394:15 *761:15 3.4915e-06
22 *394:19 *438:27 0.0336193
23 *394:19 *754:27 0
24 *394:29 *571:39 8.06801e-05
25 *394:29 *746:13 0
26 gpio_dm2[7] gpio_holdover[7] 0.00128511
27 gpio_dm2[7] *394:29 0.00598209
28 gpio_holdover[34] *394:9 0
29 *148:13 *394:15 0
30 *264:11 *394:29 0
31 *334:36 *394:15 3.52728e-05
32 *361:33 *394:15 0.0454957
*RES
1 *921:gpio_holdover[7] *394:9 20.1259 
2 *394:9 *394:11 446.662 
3 *394:11 *394:13 8 
4 *394:13 *394:15 552.866 
5 *394:15 *394:17 8 
6 *394:17 *394:19 812.186 
7 *394:19 *394:29 48.2099 
8 *394:29 gpio_holdover[7] 5.81187 
*END

*D_NET *395 0.991337
*CONN
*P gpio_holdover[8] O
*I *921:gpio_holdover[8] O *D CF_CARAVEL_SOC
*CAP
1 gpio_holdover[8] 0.00612956
2 *921:gpio_holdover[8] 0.0151411
3 *395:27 0.0237244
4 *395:25 0.0175949
5 *395:23 0.0404469
6 *395:21 0.0404469
7 *395:19 0.0051606
8 *395:17 0.00564076
9 *395:11 0.0156213
10 gpio_holdover[8] gpio_out[8] 0.000238266
11 gpio_holdover[8] *747:11 0.0123099
12 *395:11 *396:9 0
13 *395:11 *737:63 0.00134852
14 *395:19 *770:11 0.0218065
15 *395:23 *438:23 0.299404
16 *395:23 *759:15 0.000597659
17 *395:27 *438:27 0.0342264
18 *395:27 *440:35 0.0822965
19 gpio_dm2[8] gpio_holdover[8] 0.00876537
20 *361:33 *395:23 0.0457334
21 *365:11 *395:19 0.00811607
22 *377:9 *395:17 0
23 *387:11 *395:19 0.00523505
24 *394:9 *395:11 0
25 *394:15 *395:23 0.301353
*RES
1 *921:gpio_holdover[8] *395:11 47.9709 
2 *395:11 *395:17 16.8717 
3 *395:17 *395:19 282.564 
4 *395:19 *395:21 8 
5 *395:21 *395:23 551.062 
6 *395:23 *395:25 8 
7 *395:25 *395:27 1048.12 
8 *395:27 gpio_holdover[8] 35.9692 
*END

*D_NET *396 0.772537
*CONN
*P gpio_holdover[9] O
*I *921:gpio_holdover[9] O *D CF_CARAVEL_SOC
*CAP
1 gpio_holdover[9] 0.113496
2 *921:gpio_holdover[9] 0.00619878
3 *396:13 0.113496
4 *396:11 0.0450792
5 *396:9 0.051278
6 gpio_holdover[9] *748:11 0.279735
7 gpio_holdover[9] *836:15 0
8 *396:9 gpio_inp_dis[34] 0.00425626
9 *396:11 *409:11 0.133258
10 *396:11 *465:11 0
11 *396:11 *472:15 0.0166577
12 *396:11 *472:25 0.000111122
13 *396:11 *754:11 0.000221072
14 *396:11 *773:11 0
15 *396:11 *802:11 0.00684361
16 gpio_dm2[9] gpio_holdover[9] 0
17 *322:301 *396:11 0.0019067
18 *322:367 gpio_holdover[9] 0
19 *354:9 *396:9 0
20 *395:11 *396:9 0
*RES
1 *921:gpio_holdover[9] *396:9 23.6464 
2 *396:9 *396:11 1716.49 
3 *396:11 *396:13 8 
4 *396:13 gpio_holdover[9] 583.533 
*END

*D_NET *397 0.749851
*CONN
*P gpio_ib_mode_sel[0] O
*I *921:gpio_ib_mode_sel[0] O *D CF_CARAVEL_SOC
*CAP
1 gpio_ib_mode_sel[0] 0.0020863
2 *921:gpio_ib_mode_sel[0] 0.00138783
3 *397:177 0.00666103
4 *397:175 0.00457474
5 *397:173 0.0121877
6 *397:171 0.0123123
7 *397:159 0.000567469
8 *397:151 0.00318352
9 *397:149 0.00274065
10 *397:147 0.00113031
11 *397:135 0.00379443
12 *397:133 0.00375908
13 *397:125 0.0014093
14 *397:117 0.00039831
15 *397:111 0.000900398
16 *397:109 0.000871806
17 *397:103 0.00309543
18 *397:95 0.00392433
19 *397:93 0.000884284
20 *397:91 0.000960542
21 *397:79 0.0221759
22 *397:77 0.0212153
23 *397:75 0.00553976
24 *397:69 0.00718206
25 *397:57 0.00550336
26 *397:49 0.00431528
27 *397:39 0.00530692
28 *397:31 0.00703624
29 *397:15 0.00519095
30 *397:11 0.0101081
31 *397:9 0.00848848
32 gpio_ib_mode_sel[0] gpio_oeb[0] 0
33 gpio_ib_mode_sel[0] gpio_vtrip_sel[0] 0
34 *397:9 *921:mask_rev[31] 0
35 *397:9 *408:9 0
36 *397:9 *433:6 0.000364411
37 *397:11 *430:11 0.0292067
38 *397:11 *542:23 0.00221851
39 *397:11 *785:11 0.000881313
40 *397:11 *804:11 0.0163848
41 *397:11 *853:19 0.00032137
42 *397:11 *853:23 0.00443522
43 *397:15 *419:15 0.019594
44 *397:15 *826:21 0.00336866
45 *397:31 *419:15 0
46 *397:31 *419:23 0.000273896
47 *397:31 *539:133 0.000967958
48 *397:31 *539:151 0.000875583
49 *397:31 *556:29 0.00219656
50 *397:31 *556:37 0.000245746
51 *397:31 *556:41 5.92604e-05
52 *397:31 *693:111 0.000226155
53 *397:31 *693:117 0
54 *397:31 *737:117 0.000439789
55 *397:31 *739:58 0.000437157
56 *397:31 *826:21 0.000373162
57 *397:31 *840:19 0.00113133
58 *397:39 *539:133 0.0144854
59 *397:39 *556:21 3.45862e-05
60 *397:39 *556:29 0
61 *397:39 *739:74 0
62 *397:39 *826:21 0.00280592
63 *397:49 *443:45 1.66113e-05
64 *397:49 *539:115 0.000400622
65 *397:49 *737:147 0.00205772
66 *397:49 *739:78 0.000347006
67 *397:49 *739:84 0.000457334
68 *397:49 *826:21 0.000224933
69 *397:57 *921:gpio_in[15] 9.06238e-05
70 *397:57 *921:gpio_in[16] 0
71 *397:57 *444:79 0.00186195
72 *397:57 *737:147 0
73 *397:57 *826:21 0.00215783
74 *397:69 *921:gpio_in[16] 0.00345396
75 *397:69 *419:23 0.000216121
76 *397:69 *444:71 0.000279487
77 *397:69 *826:21 0.000567912
78 *397:69 *826:27 0.000412834
79 *397:69 *840:19 0.00158562
80 *397:75 gpio_out[39] 0.000467226
81 *397:75 *450:41 0.00176874
82 *397:75 *472:55 0
83 *397:75 *539:75 0.00133295
84 *397:75 *541:53 0.00504313
85 *397:75 *693:187 0.00365981
86 *397:75 *739:118 0
87 *397:75 *826:27 0.000414937
88 *397:79 *444:71 0.0195108
89 *397:79 *472:55 0.0116483
90 *397:79 *476:19 0.00158552
91 *397:79 *529:9 0.00975556
92 *397:79 *539:55 1.41077e-05
93 *397:79 *556:11 0.113498
94 *397:79 *570:14 0.00645908
95 *397:79 *826:43 0.00170274
96 *397:79 *840:19 0.000686325
97 *397:91 *532:12 0.000363181
98 *397:91 *540:16 0.000305601
99 *397:91 *551:43 2.77015e-05
100 *397:91 *551:49 7.23207e-05
101 *397:91 *826:59 0.000806895
102 *397:95 *419:95 0.00555895
103 *397:95 *530:27 0.00581889
104 *397:95 *533:30 0.000292906
105 *397:95 *826:63 0.000175708
106 *397:103 *533:42 0
107 *397:103 *535:33 2.80036e-05
108 *397:103 *540:16 0.000847825
109 *397:103 *696:113 0
110 *397:103 *696:129 0.000172204
111 *397:103 *740:163 0.00113296
112 *397:103 *740:167 0
113 *397:103 *826:71 0.0101107
114 *397:109 *562:65 2.66291e-05
115 *397:109 *696:113 4.53306e-05
116 *397:109 *826:77 2.33476e-05
117 *397:111 *419:119 0.00546678
118 *397:111 *530:43 0.00559692
119 *397:111 *535:33 0.000750604
120 *397:111 *826:79 4.34876e-05
121 *397:117 *408:45 1.01436e-05
122 *397:117 *535:33 4.97925e-05
123 *397:125 *535:37 0.00188263
124 *397:125 *551:79 0.00106614
125 *397:125 *740:141 7.57281e-06
126 *397:133 *535:57 0.00196302
127 *397:133 *551:91 0.00864716
128 *397:133 *562:89 0.00866693
129 *397:135 *535:75 0.00182795
130 *397:135 *536:35 0
131 *397:135 *537:24 1.76557e-05
132 *397:135 *569:18 0
133 *397:135 *740:121 8.06804e-06
134 *397:135 *740:123 0.00907092
135 *397:135 *826:109 0.000111943
136 *397:147 *419:155 0.00734171
137 *397:147 *535:93 0.00123065
138 *397:147 *551:107 0.00734519
139 *397:147 *562:105 2.17671e-05
140 *397:147 *740:115 0.0013702
141 *397:151 *408:79 0.00774048
142 *397:151 *530:77 0.000101302
143 *397:159 *530:77 0.00170534
144 *397:159 *537:46 0.00166356
145 *397:159 *562:117 0
146 *397:171 *408:95 0.000206265
147 *397:171 *419:173 3.28227e-05
148 *397:171 *535:95 0.000116409
149 *397:171 *562:117 6.84987e-06
150 *397:173 *408:97 0.0465317
151 *397:173 *419:173 0.00649698
152 *397:173 *419:189 0.0022988
153 *397:173 *530:105 3.52728e-05
154 *397:173 *551:121 0.00511221
155 *397:177 *529:13 0.021802
156 *397:177 *815:53 0.00060711
157 gpio_analog_sel[43] *397:173 0.00367207
158 *118:93 *397:103 0.000293329
159 *118:113 *397:91 0.000441902
160 *118:171 *397:75 0.00362306
161 *118:177 *397:69 0.00044406
162 *118:179 *397:69 0.000560857
163 *118:207 *397:15 0.0179136
164 *120:11 *397:177 0
165 *293:15 *397:79 0
166 *322:47 *397:173 0.00601766
167 *322:105 *397:135 0.0012998
168 *322:163 *397:79 0.00113923
169 *322:167 *397:79 0.0279886
170 *322:199 *397:75 4.44263e-05
171 *322:209 *397:69 0.000446699
172 *322:225 *397:49 0.000445144
173 *322:235 *397:39 0
174 *322:235 *397:49 0.00199359
175 *325:57 *397:117 1.48498e-05
176 *336:39 *397:103 0.000598581
177 *353:35 *397:177 0.0235287
178 *386:25 *397:31 0.000178325
179 *386:53 *397:39 6.83758e-05
180 *386:73 *397:49 0
181 *386:73 *397:57 0.0129147
182 *386:81 *397:69 0.00156261
*RES
1 *921:gpio_ib_mode_sel[0] *397:9 11.5747 
2 *397:9 *397:11 67.7115 
3 *397:11 *397:15 43.9053 
4 *397:15 *397:31 45.5738 
5 *397:31 *397:39 49.2441 
6 *397:39 *397:49 34.2318 
7 *397:49 *397:57 46.2388 
8 *397:57 *397:69 31.863 
9 *397:69 *397:75 43.1973 
10 *397:75 *397:77 15 
11 *397:77 *397:79 1244.1 
12 *397:79 *397:91 44.6407 
13 *397:91 *397:93 15 
14 *397:93 *397:95 64.9393 
15 *397:95 *397:103 43.2383 
16 *397:103 *397:109 24.3775 
17 *397:109 *397:111 61.6043 
18 *397:111 *397:117 31.5536 
19 *397:117 *397:125 43.9525 
20 *397:125 *397:133 39.4428 
21 *397:133 *397:135 100.195 
22 *397:135 *397:147 47.8246 
23 *397:147 *397:149 15 
24 *397:149 *397:151 89.2371 
25 *397:151 *397:159 37.185 
26 *397:159 *397:171 42.4225 
27 *397:171 *397:173 88.5845 
28 *397:173 *397:175 8 
29 *397:175 *397:177 313.552 
30 *397:177 gpio_ib_mode_sel[0] 12.5687 
*END

*D_NET *398 1.01619
*CONN
*P gpio_ib_mode_sel[10] O
*I *921:gpio_ib_mode_sel[10] O *D CF_CARAVEL_SOC
*CAP
1 gpio_ib_mode_sel[10] 1.82404e-05
2 *921:gpio_ib_mode_sel[10] 0.00585528
3 *398:23 0.114058
4 *398:21 0.11404
5 *398:19 0.0417975
6 *398:17 0.0417975
7 *398:15 0.00685139
8 *398:9 0.0127067
9 *398:9 *440:9 0
10 *398:15 gpio_ib_mode_sel[37] 4.81059e-05
11 *398:15 *422:11 0.0031116
12 *398:15 *437:11 0.00693754
13 *398:15 *546:25 0.00133515
14 *398:15 *873:49 0.00133515
15 *398:19 gpio_vtrip_sel[30] 0.00151834
16 *398:19 *412:11 0.20963
17 *398:19 *422:11 0.00145769
18 *398:19 *546:25 0
19 *398:19 *693:91 0.0165465
20 *398:19 *813:11 0.140557
21 *398:19 *816:21 0.000721621
22 *398:19 *816:25 0.00152887
23 *398:19 *823:11 0.00222653
24 *398:19 *873:49 0
25 *398:23 gpio_oeb[27] 0.0114252
26 *398:23 *662:11 0.258379
27 *398:23 *794:15 0
28 gpio_holdover[33] *398:19 0.000636006
29 *205:65 *398:19 0.00396307
30 *369:19 *398:19 0.01575
31 *369:23 *398:19 0.00195942
*RES
1 *921:gpio_ib_mode_sel[10] *398:9 22.4013 
2 *398:9 *398:15 48.3928 
3 *398:15 *398:17 8 
4 *398:17 *398:19 2665.87 
5 *398:19 *398:21 8 
6 *398:21 *398:23 582.245 
7 *398:23 gpio_ib_mode_sel[10] 0.07 
*END

*D_NET *399 1.06273
*CONN
*P gpio_ib_mode_sel[11] O
*I *921:gpio_ib_mode_sel[11] O *D CF_CARAVEL_SOC
*CAP
1 gpio_ib_mode_sel[11] 0.00315623
2 *921:gpio_ib_mode_sel[11] 0.000951655
3 *399:23 0.0996581
4 *399:21 0.0965019
5 *399:19 0.0510314
6 *399:17 0.0513733
7 *399:11 0.0144301
8 *399:9 0.01504
9 gpio_ib_mode_sel[11] *663:11 0
10 gpio_ib_mode_sel[11] *795:23 0.00184574
11 *399:9 *400:9 0
12 *399:9 *433:6 0.000210019
13 *399:11 *434:11 0.00165167
14 *399:11 *454:41 0.0487106
15 *399:11 *542:31 0.00109851
16 *399:11 *794:11 0.00990815
17 *399:11 *804:11 0.00721417
18 *399:11 *834:11 0
19 *399:11 *835:11 8.7823e-05
20 *399:17 *753:9 2.87638e-05
21 *399:19 *400:19 0.194892
22 *399:19 *405:11 0.0903767
23 *399:19 *750:11 0.048026
24 *399:19 *752:11 0.00679676
25 *399:23 gpio_oeb[26] 0.011811
26 *399:23 *663:11 0
27 *399:23 *795:23 0.307191
28 *274:239 *399:23 0.000737315
*RES
1 *921:gpio_ib_mode_sel[11] *399:9 10.4621 
2 *399:9 *399:11 113.407 
3 *399:11 *399:17 16.6141 
4 *399:17 *399:19 2481.34 
5 *399:19 *399:21 8 
6 *399:21 *399:23 561.925 
7 *399:23 gpio_ib_mode_sel[11] 8.33 
*END

*D_NET *400 1.10695
*CONN
*P gpio_ib_mode_sel[12] O
*I *921:gpio_ib_mode_sel[12] O *D CF_CARAVEL_SOC
*CAP
1 gpio_ib_mode_sel[12] 8.7797e-05
2 *921:gpio_ib_mode_sel[12] 0.000718977
3 *400:23 0.110319
4 *400:21 0.110232
5 *400:19 0.0361584
6 *400:17 0.0362138
7 *400:11 0.0250026
8 *400:9 0.0256661
9 *400:9 *401:9 0
10 *400:9 *433:6 0.000210019
11 *400:11 *401:11 0.00149003
12 *400:11 *784:9 0
13 *400:11 *786:11 0.0464826
14 *400:11 *828:11 0.00650997
15 *400:11 *830:11 0.00215784
16 *400:17 *750:9 0
17 *400:17 *792:9 9.46664e-05
18 *400:19 *401:11 0.214996
19 *400:19 *405:11 0.000876534
20 *400:19 *750:11 0.0235871
21 *400:19 *752:11 0.00931435
22 *400:23 gpio_oeb[12] 0.000779826
23 *400:23 gpio_out[25] 0.00896536
24 *400:23 *664:11 0.252194
25 *400:23 *796:15 0
26 *322:391 *400:23 0
27 *399:9 *400:9 0
28 *399:19 *400:19 0.194892
*RES
1 *921:gpio_ib_mode_sel[12] *400:9 9.94693 
2 *400:9 *400:11 108.33 
3 *400:11 *400:17 16.1848 
4 *400:17 *400:19 2737 
5 *400:19 *400:21 8 
6 *400:21 *400:23 569.451 
7 *400:23 gpio_ib_mode_sel[12] 0.336933 
*END

*D_NET *401 1.21361
*CONN
*P gpio_ib_mode_sel[13] O
*I *921:gpio_ib_mode_sel[13] O *D CF_CARAVEL_SOC
*CAP
1 gpio_ib_mode_sel[13] 0.00341453
2 *921:gpio_ib_mode_sel[13] 0.000628726
3 *401:15 0.101446
4 *401:13 0.0980314
5 *401:11 0.0526049
6 *401:9 0.0532336
7 gpio_ib_mode_sel[13] *665:11 0.000493844
8 gpio_ib_mode_sel[13] *797:23 0.000490406
9 *401:9 *402:9 0
10 *401:9 *433:6 0.000210019
11 *401:11 *405:11 0.00209855
12 *401:11 *450:13 0.297616
13 *401:11 *752:11 0.0390984
14 *401:11 *830:11 0.0404387
15 *401:15 *665:11 0
16 *401:15 *797:23 0.30732
17 *400:9 *401:9 0
18 *400:11 *401:11 0.00149003
19 *400:19 *401:11 0.214996
*RES
1 *921:gpio_ib_mode_sel[13] *401:9 9.73227 
2 *401:9 *401:11 3789.2 
3 *401:11 *401:13 8 
4 *401:13 *401:15 561.753 
5 *401:15 gpio_ib_mode_sel[13] 8.68093 
*END

*D_NET *402 0.97741
*CONN
*P gpio_ib_mode_sel[14] O
*I *921:gpio_ib_mode_sel[14] O *D CF_CARAVEL_SOC
*CAP
1 gpio_ib_mode_sel[14] 0.00202536
2 *921:gpio_ib_mode_sel[14] 0.00707555
3 *402:15 0.104278
4 *402:13 0.102252
5 *402:11 0.170676
6 *402:9 0.177752
7 gpio_ib_mode_sel[14] gpio_oeb[14] 0.000368873
8 gpio_ib_mode_sel[14] *798:23 0.00297243
9 *402:11 gpio_oeb[27] 0.000120707
10 *402:11 gpio_oeb[30] 0.000181083
11 *402:11 *464:11 0
12 *402:11 *465:11 0
13 *402:11 *541:111 0.086387
14 *402:11 *549:25 0
15 *402:11 *737:41 0
16 *402:11 *772:11 0
17 *402:11 *822:13 0.00321106
18 *402:15 *538:381 0
19 *402:15 *798:23 0.309697
20 gpio_holdover[26] *402:11 0.000120707
21 *105:31 *402:15 0
22 *140:353 *402:15 0.000138212
23 *238:27 *402:11 0
24 *281:31 *402:15 0.0034998
25 *392:19 *402:11 0.00665407
26 *401:9 *402:9 0
*RES
1 *921:gpio_ib_mode_sel[14] *402:9 24.8485 
2 *402:9 *402:11 4246.99 
3 *402:11 *402:13 8 
4 *402:13 *402:15 578.883 
5 *402:15 gpio_ib_mode_sel[14] 23.8956 
*END

*D_NET *403 1.01767
*CONN
*P gpio_ib_mode_sel[15] O
*I *921:gpio_ib_mode_sel[15] O *D CF_CARAVEL_SOC
*CAP
1 gpio_ib_mode_sel[15] 9.62404e-05
2 *921:gpio_ib_mode_sel[15] 0.000816497
3 *403:19 0.135677
4 *403:17 0.135581
5 *403:15 0.0567091
6 *403:13 0.0567091
7 *403:11 0.0169909
8 *403:9 0.0178074
9 gpio_ib_mode_sel[15] gpio_oeb[15] 0
10 gpio_ib_mode_sel[15] gpio_vtrip_sel[15] 0
11 *403:9 *404:9 0
12 *403:9 *433:6 0.000210019
13 *403:11 *405:11 0.100913
14 *403:11 *406:11 0.0986908
15 *403:11 *406:17 0
16 *403:11 *434:11 0.00058857
17 *403:11 *750:11 0.00269245
18 *403:11 *786:11 0.0105294
19 *403:11 *828:11 0.000579499
20 *403:15 *686:11 0.07472
21 *403:15 *802:15 0.00255455
22 *403:15 *803:15 0.112067
23 *403:19 *537:134 0.000623816
24 *403:19 *667:15 0
25 *403:19 *799:19 0
26 *140:127 *403:19 0
27 *230:25 *403:15 0.0164314
28 *274:153 *403:19 0.00056905
29 *275:15 *403:15 0.1709
30 *277:23 *403:15 0.00521913
*RES
1 *921:gpio_ib_mode_sel[15] *403:9 10.0757 
2 *403:9 *403:11 1304.48 
3 *403:11 *403:13 8 
4 *403:13 *403:15 525.045 
5 *403:15 *403:17 8 
6 *403:17 *403:19 3088.44 
7 *403:19 gpio_ib_mode_sel[15] 1.86429 
*END

*D_NET *404 0.665842
*CONN
*P gpio_ib_mode_sel[16] O
*I *921:gpio_ib_mode_sel[16] O *D CF_CARAVEL_SOC
*CAP
1 gpio_ib_mode_sel[16] 0.000877125
2 *921:gpio_ib_mode_sel[16] 0.00776261
3 *404:23 0.109861
4 *404:21 0.112467
5 *404:11 0.186051
6 *404:9 0.19033
7 gpio_ib_mode_sel[16] gpio_oeb[16] 0
8 gpio_ib_mode_sel[16] gpio_vtrip_sel[16] 0
9 *404:11 gpio_oeb[25] 0
10 *404:11 *460:11 0
11 *404:11 *539:175 0
12 *404:11 *691:15 0.0118552
13 *404:11 *693:63 0
14 *404:11 *789:19 0.0132081
15 *404:11 *812:11 0
16 *404:21 *409:15 0.000248446
17 *404:21 *411:15 0.000199141
18 *404:23 *447:13 0
19 *404:23 *453:13 0
20 *404:23 *762:15 0.000107674
21 *205:57 *404:11 0.0182273
22 *238:27 *404:11 0
23 *289:35 *404:11 0
24 *360:15 *404:23 0
25 *365:11 *404:21 0.000152569
26 *365:15 *404:23 0.00192557
27 *366:15 *404:23 0.0125697
28 *403:9 *404:9 0
*RES
1 *921:gpio_ib_mode_sel[16] *404:9 26.1365 
2 *404:9 *404:11 4361.79 
3 *404:11 *404:21 45.5295 
4 *404:21 *404:23 2432.79 
5 *404:23 gpio_ib_mode_sel[16] 35.3207 
*END

*D_NET *405 0.758326
*CONN
*P gpio_ib_mode_sel[17] O
*I *921:gpio_ib_mode_sel[17] O *D CF_CARAVEL_SOC
*CAP
1 gpio_ib_mode_sel[17] 0.116328
2 *921:gpio_ib_mode_sel[17] 0.000768492
3 *405:17 0.116328
4 *405:15 0.10511
5 *405:13 0.10511
6 *405:11 0.0293424
7 *405:9 0.0301109
8 gpio_ib_mode_sel[17] gpio_oeb[17] 0
9 gpio_ib_mode_sel[17] gpio_vtrip_sel[17] 0
10 *405:9 *433:6 0.000210019
11 *405:11 *406:17 0
12 *405:11 *454:41 0.000322604
13 *405:11 *750:11 0.0197402
14 *405:11 *786:11 0.00298472
15 *405:11 *828:11 0.0371207
16 *405:11 *830:11 0.000583924
17 *405:15 *806:15 0
18 *324:15 *405:15 0
19 *399:19 *405:11 0.0903767
20 *400:19 *405:11 0.000876534
21 *401:11 *405:11 0.00209855
22 *403:11 *405:11 0.100913
*RES
1 *921:gpio_ib_mode_sel[17] *405:9 9.98987 
2 *405:9 *405:11 1740.44 
3 *405:11 *405:13 8 
4 *405:13 *405:15 381.905 
5 *405:15 *405:17 8 
6 *405:17 gpio_ib_mode_sel[17] 2639.74 
*END

*D_NET *406 0.834441
*CONN
*P gpio_ib_mode_sel[18] O
*I *921:gpio_ib_mode_sel[18] O *D CF_CARAVEL_SOC
*CAP
1 gpio_ib_mode_sel[18] 0.136203
2 *921:gpio_ib_mode_sel[18] 0.000933322
3 *406:21 0.136203
4 *406:19 0.035325
5 *406:17 0.0365218
6 *406:11 0.0171252
7 *406:9 0.0168617
8 gpio_ib_mode_sel[18] gpio_oeb[18] 0
9 gpio_ib_mode_sel[18] gpio_vtrip_sel[18] 0
10 *406:9 *407:9 0
11 *406:9 *433:6 0.000287215
12 *406:11 *407:11 0.098084
13 *406:11 *434:11 0.000279653
14 *406:11 *454:41 0.00340821
15 *406:11 *750:11 0.000233898
16 *406:11 *786:11 0.00192785
17 *406:17 *764:17 0.000115424
18 *406:17 *796:11 0
19 *406:19 *802:15 0.164019
20 *406:19 *805:15 0.0859024
21 *116:67 *406:11 0.00231937
22 *290:15 *406:19 0
23 *403:11 *406:11 0.0986908
24 *403:11 *406:17 0
25 *405:11 *406:17 0
*RES
1 *921:gpio_ib_mode_sel[18] *406:9 10.2885 
2 *406:9 *406:11 1261.52 
3 *406:11 *406:17 32.9607 
4 *406:17 *406:19 299.301 
5 *406:19 *406:21 8 
6 *406:21 gpio_ib_mode_sel[18] 3087.66 
*END

*D_NET *407 0.654266
*CONN
*P gpio_ib_mode_sel[19] O
*I *921:gpio_ib_mode_sel[19] O *D CF_CARAVEL_SOC
*CAP
1 gpio_ib_mode_sel[19] 0.137306
2 *921:gpio_ib_mode_sel[19] 0.000981601
3 *407:29 0.137306
4 *407:27 0.039603
5 *407:25 0.0397831
6 *407:19 0.00439784
7 *407:17 0.00494264
8 *407:11 0.0181709
9 *407:9 0.0184276
10 gpio_ib_mode_sel[19] gpio_oeb[19] 0
11 gpio_ib_mode_sel[19] gpio_vtrip_sel[19] 0
12 *407:9 *409:9 0
13 *407:9 *433:6 0.000287215
14 *407:11 *434:11 0.0129742
15 *407:11 *454:41 0.00838324
16 *407:11 *542:31 0.0192521
17 *407:11 *750:11 0.000212446
18 *407:11 *764:11 0.0443765
19 *407:11 *764:17 0.00088679
20 *407:11 *786:11 0.000675619
21 *407:17 *689:11 0.0008372
22 *407:17 *691:11 0.00168516
23 *407:19 *689:11 0.0275567
24 *407:19 *691:11 0.0116499
25 *407:19 *705:23 0.00355916
26 *407:19 *745:11 0.00598657
27 *101:15 *407:27 0
28 *104:31 *407:27 0
29 *114:23 *407:27 0.0117041
30 *116:67 *407:11 0.00474109
31 *193:57 *407:17 0.000101554
32 *193:57 *407:19 0.000393226
33 *406:9 *407:9 0
34 *406:11 *407:11 0.098084
*RES
1 *921:gpio_ib_mode_sel[19] *407:9 10.3744 
2 *407:9 *407:11 1253.77 
3 *407:11 *407:17 11.4589 
4 *407:17 *407:19 50.3309 
5 *407:19 *407:25 26.4904 
6 *407:25 *407:27 835.324 
7 *407:27 *407:29 15 
8 *407:29 gpio_ib_mode_sel[19] 3107.56 
*END

*D_NET *408 0.945738
*CONN
*P gpio_ib_mode_sel[1] O
*I *921:gpio_ib_mode_sel[1] O *D CF_CARAVEL_SOC
*CAP
1 gpio_ib_mode_sel[1] 0.00339117
2 *921:gpio_ib_mode_sel[1] 0.00277362
3 *408:101 0.0123419
4 *408:99 0.00895077
5 *408:97 0.00854727
6 *408:95 0.00919807
7 *408:85 0.000820439
8 *408:79 0.00114211
9 *408:77 0.000972473
10 *408:75 0.00162175
11 *408:63 0.00283929
12 *408:61 0.0024249
13 *408:53 0.00146472
14 *408:45 0.000880458
15 *408:35 0.00810753
16 *408:23 0.0436597
17 *408:21 0.0375004
18 *408:11 0.0121312
19 *408:9 0.0135796
20 gpio_ib_mode_sel[1] gpio_oeb[1] 0
21 gpio_ib_mode_sel[1] gpio_vtrip_sel[1] 0
22 *408:9 *433:6 0.000364411
23 *408:11 *453:41 0.00604822
24 *408:11 *793:11 0.0305946
25 *408:21 *430:21 6.04706e-05
26 *408:21 *467:15 0.0028247
27 *408:21 *557:27 0.0020615
28 *408:21 *793:25 0.000728177
29 *408:21 *842:15 0.000151216
30 *408:23 *441:15 0.0385441
31 *408:23 *442:15 0.00430681
32 *408:23 *463:15 0.0359882
33 *408:23 *467:15 0.000504634
34 *408:23 *471:25 9.0547e-05
35 *408:23 *471:27 0.119479
36 *408:23 *739:62 0.000400622
37 *408:23 *840:19 0.205243
38 *408:23 *858:21 0.00250978
39 *408:35 *740:163 0
40 *408:45 *535:33 0.000196651
41 *408:53 *419:119 0.00183746
42 *408:53 *530:43 0.00188263
43 *408:53 *740:141 2.05503e-05
44 *408:53 *826:79 2.18409e-05
45 *408:61 *419:131 0.00870601
46 *408:61 *530:55 0.00103236
47 *408:61 *535:57 0.00145203
48 *408:61 *551:91 0.00860752
49 *408:61 *562:89 1.76364e-05
50 *408:61 *740:135 0.000869853
51 *408:63 *419:139 1.21972e-05
52 *408:63 *530:55 0.00890127
53 *408:63 *535:65 0.000209378
54 *408:63 *562:91 2.02872e-05
55 *408:63 *741:140 0.000865517
56 *408:63 *826:95 0.00699099
57 *408:75 *419:155 0.00774284
58 *408:75 *533:92 0.00212152
59 *408:75 *535:93 0.000919695
60 *408:75 *537:34 2.45284e-05
61 *408:75 *551:107 1.36509e-05
62 *408:79 *530:77 0.00774218
63 *408:85 *536:47 0.000265981
64 *408:95 *533:94 0.000218012
65 *408:95 *535:95 0.000116058
66 *408:95 *562:117 3.89477e-05
67 *408:95 *696:89 0.000313255
68 *408:95 *826:119 0.000693437
69 *408:97 *529:9 0
70 *408:97 *562:119 0.0425162
71 *408:101 *760:35 0.0378685
72 *408:101 *804:27 0.0422707
73 gpio_analog_sel[43] *408:97 0.00368688
74 *118:93 *408:45 0.000228735
75 *123:15 *408:23 0.062485
76 *168:11 *408:101 0
77 *248:35 *408:11 0.00230532
78 *306:11 *408:101 0.000190051
79 *325:57 *408:35 0
80 *325:57 *408:45 0
81 *336:39 *408:45 9.11904e-05
82 *341:18 *408:23 0.00987276
83 *364:27 *408:11 0.00362074
84 *386:167 *408:35 0
85 *386:173 *408:45 4.35434e-05
86 *386:191 *408:63 0.00196788
87 *386:203 *408:85 0
88 *397:9 *408:9 0
89 *397:117 *408:45 1.01436e-05
90 *397:151 *408:79 0.00774048
91 *397:171 *408:95 0.000206265
92 *397:173 *408:97 0.0465317
*RES
1 *921:gpio_ib_mode_sel[1] *408:9 15.1811 
2 *408:9 *408:11 70.8848 
3 *408:11 *408:21 31.9381 
4 *408:21 *408:23 388.731 
5 *408:23 *408:35 47.3147 
6 *408:35 *408:45 35.9458 
7 *408:45 *408:53 43.9525 
8 *408:53 *408:61 39.795 
9 *408:61 *408:63 98.7657 
10 *408:63 *408:75 46.5704 
11 *408:75 *408:77 15 
12 *408:77 *408:79 84.9493 
13 *408:79 *408:85 33.6664 
14 *408:85 *408:95 46.4796 
15 *408:95 *408:97 85.9227 
16 *408:97 *408:99 8 
17 *408:99 *408:101 549.488 
18 *408:101 gpio_ib_mode_sel[1] 15.0215 
*END

*D_NET *409 0.792796
*CONN
*P gpio_ib_mode_sel[20] O
*I *921:gpio_ib_mode_sel[20] O *D CF_CARAVEL_SOC
*CAP
1 gpio_ib_mode_sel[20] 0.00110803
2 *921:gpio_ib_mode_sel[20] 0.00650201
3 *409:15 0.0179949
4 *409:13 0.0168869
5 *409:11 0.136899
6 *409:9 0.143401
7 gpio_ib_mode_sel[20] gpio_oeb[20] 0
8 gpio_ib_mode_sel[20] gpio_vtrip_sel[20] 0
9 gpio_ib_mode_sel[20] *673:15 0
10 gpio_ib_mode_sel[20] *805:19 0
11 *409:9 *410:9 0
12 *409:11 *472:15 0.0251972
13 *409:11 *546:25 0
14 *409:11 *693:71 0.0150978
15 *409:11 *832:27 0
16 *409:15 *410:15 0.00063228
17 *409:15 *411:15 0.000622985
18 *409:15 *447:13 0.000451057
19 *409:15 *453:13 0.0167865
20 *409:15 *762:15 0.000183222
21 *284:59 *409:11 0.104617
22 *362:15 *409:15 0.086104
23 *365:15 *409:15 0.0868044
24 *396:11 *409:11 0.133258
25 *404:21 *409:15 0.000248446
26 *407:9 *409:9 0
*RES
1 *921:gpio_ib_mode_sel[20] *409:9 23.5605 
2 *409:9 *409:11 4337.14 
3 *409:11 *409:13 8 
4 *409:13 *409:15 169.471 
5 *409:15 gpio_ib_mode_sel[20] 31.8421 
*END

*D_NET *410 0.584985
*CONN
*P gpio_ib_mode_sel[21] O
*I *921:gpio_ib_mode_sel[21] O *D CF_CARAVEL_SOC
*CAP
1 gpio_ib_mode_sel[21] 0.00102137
2 *921:gpio_ib_mode_sel[21] 0.00843193
3 *410:15 0.014127
4 *410:13 0.0131056
5 *410:11 0.177668
6 *410:9 0.1861
7 gpio_ib_mode_sel[21] gpio_oeb[21] 0
8 gpio_ib_mode_sel[21] gpio_vtrip_sel[21] 0
9 gpio_ib_mode_sel[21] *674:15 0
10 gpio_ib_mode_sel[21] *806:19 0
11 *410:9 *411:9 0
12 *410:11 gpio_oeb[25] 0
13 *410:11 *460:11 0
14 *410:11 *554:25 0
15 *410:11 *767:17 0
16 *410:11 *811:11 0
17 *410:11 *873:57 0.0200148
18 *410:15 *762:15 0.061846
19 gpio_analog_sel[27] *410:11 2.95428e-05
20 *284:51 *410:11 0
21 *335:57 *410:11 0.0392605
22 *366:15 *410:15 0.062749
23 *409:9 *410:9 0
24 *409:15 *410:15 0.00063228
*RES
1 *921:gpio_ib_mode_sel[21] *410:9 27.4245 
2 *410:9 *410:11 4332.21 
3 *410:11 *410:13 8 
4 *410:13 *410:15 125.335 
5 *410:15 gpio_ib_mode_sel[21] 29.7293 
*END

*D_NET *411 0.649232
*CONN
*P gpio_ib_mode_sel[22] O
*I *921:gpio_ib_mode_sel[22] O *D CF_CARAVEL_SOC
*CAP
1 gpio_ib_mode_sel[22] 0.00124574
2 *921:gpio_ib_mode_sel[22] 0.00480117
3 *411:15 0.014014
4 *411:13 0.0127683
5 *411:11 0.129587
6 *411:9 0.134388
7 gpio_ib_mode_sel[22] gpio_oeb[22] 0
8 gpio_ib_mode_sel[22] gpio_vtrip_sel[22] 0
9 *411:9 *412:9 0
10 *411:11 *544:17 0.0189471
11 *411:11 *736:39 0
12 *411:11 *762:11 0
13 *322:285 *411:11 0.0336883
14 *362:15 *411:15 0.0354502
15 *367:11 *411:11 0.263521
16 *404:21 *411:15 0.000199141
17 *409:15 *411:15 0.000622985
18 *410:9 *411:9 0
*RES
1 *921:gpio_ib_mode_sel[22] *411:9 19.6965 
2 *411:9 *411:11 4321.64 
3 *411:11 *411:13 8 
4 *411:13 *411:15 69.6939 
5 *411:15 gpio_ib_mode_sel[22] 32.7225 
*END

*D_NET *412 0.604194
*CONN
*P gpio_ib_mode_sel[23] O
*I *921:gpio_ib_mode_sel[23] O *D CF_CARAVEL_SOC
*CAP
1 gpio_ib_mode_sel[23] 0.00280319
2 *921:gpio_ib_mode_sel[23] 0.00595201
3 *412:11 0.148581
4 *412:9 0.15173
5 gpio_ib_mode_sel[23] *763:15 0.000358083
6 *412:9 *737:79 0
7 *412:11 gpio_vtrip_sel[30] 0.00133068
8 *412:11 *422:11 0.00426597
9 *412:11 *437:11 0.000574055
10 *412:11 *437:19 0
11 *412:11 *457:11 0
12 *412:11 *546:25 0
13 *412:11 *693:91 0.00551252
14 *412:11 *737:55 0.000838301
15 *412:11 *816:21 0.000657185
16 *412:11 *816:25 0.00134609
17 gpio_holdover[23] gpio_ib_mode_sel[23] 0.00998179
18 gpio_holdover[33] *412:11 0.000561886
19 *205:65 *412:11 0.00290461
20 *367:15 gpio_ib_mode_sel[23] 0.0117828
21 *369:19 *412:11 0.0185863
22 *369:23 *412:11 0.0267971
23 *398:19 *412:11 0.20963
24 *411:9 *412:9 0
*RES
1 *921:gpio_ib_mode_sel[23] *412:9 22.2725 
2 *412:9 *412:11 4336.43 
3 *412:11 gpio_ib_mode_sel[23] 44.8673 
*END

*D_NET *413 0.558117
*CONN
*P gpio_ib_mode_sel[24] O
*I *921:gpio_ib_mode_sel[24] O *D CF_CARAVEL_SOC
*CAP
1 gpio_ib_mode_sel[24] 0.00696084
2 *921:gpio_ib_mode_sel[24] 0.00242823
3 *413:26 7.29615e-06
4 *413:19 0.11213
5 *413:17 0.105441
6 *413:11 0.0162073
7 *413:9 0.0183707
8 gpio_ib_mode_sel[24] gpio_oeb[24] 0
9 gpio_ib_mode_sel[24] gpio_vtrip_sel[24] 4.88183e-05
10 gpio_ib_mode_sel[24] *721:13 0
11 *413:9 *414:9 0
12 *413:9 *433:6 0.000364411
13 *413:9 *737:79 0
14 *413:11 *468:11 0.0006447
15 *413:11 *543:23 0.00512279
16 *413:11 *558:25 0.015667
17 *413:11 *778:11 0.00281686
18 *413:11 *787:11 0.0566533
19 *413:11 *790:11 0.0548857
20 *413:11 *824:11 0.0315934
21 *413:17 *734:11 0.000474827
22 *413:17 *833:21 0.000129008
23 *413:19 *416:11 0.0144738
24 *413:19 *766:11 0.0651945
25 *413:26 gpio_oeb[24] 0
26 *357:19 *413:19 0.0326331
27 *361:11 *413:19 0.00198791
28 *364:19 *413:11 0.00306208
29 *371:11 *413:11 0.00342292
30 *382:11 *413:11 0.00338214
31 *388:11 *413:11 0.00401475
*RES
1 *921:gpio_ib_mode_sel[24] *413:9 14.1077 
2 *413:9 *413:11 1200.25 
3 *413:11 *413:17 16.9576 
4 *413:17 *413:19 526.956 
5 *413:19 gpio_ib_mode_sel[24] 24.772 
6 gpio_ib_mode_sel[24] *413:26 0.101818 
*END

*D_NET *414 0.491098
*CONN
*P gpio_ib_mode_sel[25] O
*I *921:gpio_ib_mode_sel[25] O *D CF_CARAVEL_SOC
*CAP
1 gpio_ib_mode_sel[25] 0.00630605
2 *921:gpio_ib_mode_sel[25] 0.00344664
3 *414:11 0.0990734
4 *414:9 0.096214
5 gpio_ib_mode_sel[25] gpio_oeb[25] 0.000469351
6 gpio_ib_mode_sel[25] gpio_vtrip_sel[25] 0.000133508
7 *414:9 *415:9 0
8 *414:11 gpio_vtrip_sel[35] 0.000419529
9 *414:11 *415:11 0.0355169
10 *414:11 *416:11 0
11 *414:11 *420:11 0
12 *414:11 *421:11 0.144628
13 *414:11 *436:11 0.00189974
14 *414:11 *757:11 0.00908917
15 *414:11 *765:11 0.00830287
16 *414:11 *765:19 0.0630318
17 *414:11 *821:13 0
18 *414:11 *832:15 0.00195009
19 gpio_dm1[35] *414:11 0
20 *295:27 *414:11 0
21 *373:11 *414:11 0
22 *374:11 *414:11 0.0203717
23 *385:11 *414:11 0.000245087
24 *413:9 *414:9 0
*RES
1 *921:gpio_ib_mode_sel[25] *414:9 16.5624 
2 *414:9 *414:11 583.569 
3 *414:11 gpio_ib_mode_sel[25] 23.1825 
*END

*D_NET *415 0.452633
*CONN
*P gpio_ib_mode_sel[26] O
*I *921:gpio_ib_mode_sel[26] O *D CF_CARAVEL_SOC
*CAP
1 gpio_ib_mode_sel[26] 0.00684152
2 *921:gpio_ib_mode_sel[26] 0.00338903
3 *415:11 0.0934098
4 *415:9 0.0899573
5 gpio_ib_mode_sel[26] gpio_oeb[26] 5.61421e-05
6 gpio_ib_mode_sel[26] gpio_vtrip_sel[26] 5.10742e-05
7 gpio_ib_mode_sel[26] *459:13 0.000653272
8 *415:11 *552:25 0.168811
9 *415:11 *757:11 0.053947
10 *293:27 *415:11 0
11 *362:11 *415:11 0
12 *363:11 *415:11 0
13 *414:9 *415:9 0
14 *414:11 *415:11 0.0355169
*RES
1 *921:gpio_ib_mode_sel[26] *415:9 16.4336 
2 *415:9 *415:11 3001.11 
3 *415:11 gpio_ib_mode_sel[26] 47.3557 
*END

*D_NET *416 0.475005
*CONN
*P gpio_ib_mode_sel[27] O
*I *921:gpio_ib_mode_sel[27] O *D CF_CARAVEL_SOC
*CAP
1 gpio_ib_mode_sel[27] 0.00682015
2 *921:gpio_ib_mode_sel[27] 0.00311614
3 *416:11 0.092076
4 *416:9 0.088372
5 gpio_ib_mode_sel[27] gpio_oeb[27] 0.000618331
6 gpio_ib_mode_sel[27] gpio_vtrip_sel[27] 0.000288508
7 *416:9 *417:9 0
8 *416:9 *433:6 0.000364411
9 *416:11 *423:11 0.000193105
10 *416:11 *438:11 0.00289225
11 *416:11 *555:17 0.00151434
12 *416:11 *556:43 0.00782527
13 *416:11 *809:11 0.0354745
14 *248:45 *416:11 0.00393371
15 *292:27 *416:11 0.0641444
16 *353:11 *416:11 0.00599062
17 *357:15 *416:11 0.00884379
18 *358:19 *416:11 0.0116946
19 *361:11 *416:11 0.0123836
20 *370:11 *416:11 0.0229823
21 *374:11 *416:11 0
22 *376:11 *416:11 0.0910038
23 *380:11 *416:11 0
24 *413:19 *416:11 0.0144738
25 *414:11 *416:11 0
*RES
1 *921:gpio_ib_mode_sel[27] *416:9 15.6963 
2 *416:9 *416:11 499.919 
3 *416:11 gpio_ib_mode_sel[27] 24.5191 
*END

*D_NET *417 0.442086
*CONN
*P gpio_ib_mode_sel[28] O
*I *921:gpio_ib_mode_sel[28] O *D CF_CARAVEL_SOC
*CAP
1 gpio_ib_mode_sel[28] 0.00385333
2 *921:gpio_ib_mode_sel[28] 0.00573181
3 *417:19 0.0295776
4 *417:17 0.0260182
5 *417:11 0.0122543
6 *417:9 0.0176922
7 gpio_ib_mode_sel[28] gpio_oeb[28] 0
8 gpio_ib_mode_sel[28] gpio_vtrip_sel[28] 0.00203972
9 gpio_ib_mode_sel[28] *681:21 0
10 *417:11 gpio_ib_mode_sel[37] 0.000481225
11 *417:11 *426:11 0.000147273
12 *417:11 *545:15 0.00490877
13 *417:11 *818:11 0.0094016
14 *417:17 gpio_ib_mode_sel[33] 0.000389433
15 *417:19 *422:11 2.15719e-05
16 *417:19 *769:11 0.0686359
17 *417:19 *816:21 0.00294189
18 *417:19 *816:25 0.00502626
19 gpio_holdover[33] *417:19 0.000776621
20 *336:67 *417:11 0.0615029
21 *369:11 *417:11 0.0070263
22 *369:19 *417:19 0.103544
23 *383:11 *417:11 0.00225887
24 *390:11 *417:11 0.0778566
25 *416:9 *417:9 0
*RES
1 *921:gpio_ib_mode_sel[28] *417:9 21.328 
2 *417:9 *417:11 991.075 
3 *417:11 *417:17 16.7859 
4 *417:17 *417:19 280.579 
5 *417:19 gpio_ib_mode_sel[28] 17.3137 
*END

*D_NET *418 0.465192
*CONN
*P gpio_ib_mode_sel[29] O
*I *921:gpio_ib_mode_sel[29] O *D CF_CARAVEL_SOC
*CAP
1 gpio_ib_mode_sel[29] 0.00818971
2 *921:gpio_ib_mode_sel[29] 0.00255473
3 *418:11 0.0493431
4 *418:9 0.0437081
5 gpio_ib_mode_sel[29] gpio_oeb[29] 0.000225106
6 gpio_ib_mode_sel[29] gpio_vtrip_sel[29] 0
7 gpio_ib_mode_sel[29] *682:11 0
8 *418:9 *420:9 0
9 *418:9 *433:6 0.000364411
10 *418:11 *423:11 0
11 *418:11 *425:11 0.000184231
12 *418:11 *468:11 0.00356163
13 *418:11 *543:23 0.0252087
14 *418:11 *543:31 0.00247056
15 *418:11 *558:25 0.00492623
16 *418:11 *732:10 0.0053424
17 *418:11 *737:65 0.000407162
18 *418:11 *766:11 0.133869
19 *418:11 *778:11 0.0229197
20 *418:11 *787:11 0.00566725
21 *364:19 *418:11 0.00424843
22 *364:27 *418:11 0.0287346
23 *371:11 *418:11 0.109299
24 *382:11 *418:11 0.0124845
25 *388:11 *418:11 0.00148348
*RES
1 *921:gpio_ib_mode_sel[29] *418:9 14.3224 
2 *418:9 *418:11 416.397 
3 *418:11 gpio_ib_mode_sel[29] 26.3484 
*END

*D_NET *419 0.858889
*CONN
*P gpio_ib_mode_sel[2] O
*I *921:gpio_ib_mode_sel[2] O *D CF_CARAVEL_SOC
*CAP
1 gpio_ib_mode_sel[2] 0.00550786
2 *921:gpio_ib_mode_sel[2] 0.00303828
3 *419:197 0.0155794
4 *419:195 0.0100715
5 *419:193 0.0035935
6 *419:191 0.0035935
7 *419:189 0.000988157
8 *419:177 0.00238789
9 *419:175 0.00139974
10 *419:173 0.00149831
11 *419:159 0.00275638
12 *419:157 0.00125807
13 *419:155 0.00118785
14 *419:139 0.00191592
15 *419:135 0.00153009
16 *419:133 0.000802019
17 *419:131 0.00121342
18 *419:119 0.00222097
19 *419:117 0.00117019
20 *419:111 0.00399388
21 *419:103 0.00405759
22 *419:95 0.000982278
23 *419:93 0.000775103
24 *419:87 0.00202799
25 *419:79 0.00279124
26 *419:77 0.000837237
27 *419:71 0.00157863
28 *419:63 0.00206965
29 *419:59 0.00217485
30 *419:53 0.00164995
31 *419:47 0.00569261
32 *419:45 0.00573458
33 *419:39 0.0112099
34 *419:37 0.0113027
35 *419:31 0.00671094
36 *419:29 0.00692238
37 *419:23 0.0114826
38 *419:21 0.0112821
39 *419:15 0.00485198
40 *419:13 0.00468529
41 *419:11 0.0110478
42 *419:9 0.014086
43 gpio_ib_mode_sel[2] gpio_vtrip_sel[2] 0.000598118
44 *419:9 *430:9 0.000264614
45 *419:11 *467:11 0.00626802
46 *419:11 *552:25 0.00546297
47 *419:11 *737:81 0.00212264
48 *419:11 *815:11 0.030393
49 *419:11 *848:23 0.00245168
50 *419:11 *863:23 0.00243033
51 *419:11 *871:15 0.00366792
52 *419:15 *541:103 6.48346e-06
53 *419:15 *556:41 0.00296642
54 *419:15 *826:21 0.00439142
55 *419:21 *541:95 6.36827e-05
56 *419:21 *556:37 0.000242225
57 *419:23 *921:gpio_in[16] 0.00314494
58 *419:23 *444:71 0.0162319
59 *419:23 *472:55 0.00232362
60 *419:23 *539:115 6.3562e-05
61 *419:23 *556:11 0.0331857
62 *419:23 *556:37 0.00148856
63 *419:23 *693:111 0.00313049
64 *419:23 *739:78 0.00209098
65 *419:23 *826:27 0.00049019
66 *419:23 *840:19 0.00128063
67 *419:29 *921:gpio_in[21] 0
68 *419:29 *739:118 0
69 *419:31 *539:73 0.00112808
70 *419:37 *541:41 9.34501e-05
71 *419:39 gpio_out[39] 0.000534392
72 *419:59 *540:16 0.00120447
73 *419:63 *551:19 0.00119282
74 *419:71 *540:16 0.00143379
75 *419:71 *551:27 0.0130607
76 *419:71 *562:23 4.94435e-05
77 *419:71 *562:31 0.0130781
78 *419:77 *551:33 1.98354e-05
79 *419:77 *562:31 4.82774e-05
80 *419:79 *539:35 0.000402806
81 *419:79 *551:35 0.0048346
82 *419:79 *562:35 0.00254075
83 *419:87 *530:19 0.0119439
84 *419:87 *533:30 1.41966e-05
85 *419:87 *540:16 0.0011425
86 *419:87 *551:43 1.38134e-05
87 *419:87 *562:43 0.0120669
88 *419:87 *696:145 3.41333e-06
89 *419:87 *696:147 0.00210333
90 *419:93 *530:25 2.26406e-05
91 *419:95 *533:30 0.000358942
92 *419:95 *826:63 0.00555895
93 *419:103 *551:69 0.000306332
94 *419:111 *529:9 0
95 *419:111 *530:35 0.0101557
96 *419:111 *535:27 5.62433e-06
97 *419:111 *535:33 3.52728e-05
98 *419:111 *537:10 0
99 *419:111 *539:11 0.00123318
100 *419:111 *540:16 0.00122161
101 *419:111 *551:69 2.24608e-05
102 *419:111 *551:77 4.55635e-05
103 *419:111 *696:129 1.43225e-05
104 *419:111 *740:167 0
105 *419:117 *533:48 0.000186804
106 *419:117 *551:77 2.805e-05
107 *419:117 *562:65 4.51887e-05
108 *419:119 *530:43 1.56762e-05
109 *419:119 *535:33 0.000663997
110 *419:119 *826:79 0.00733358
111 *419:131 *533:62 3.87221e-06
112 *419:131 *533:68 0
113 *419:131 *535:57 0.00125479
114 *419:131 *535:65 3.13462e-06
115 *419:131 *551:91 2.24903e-05
116 *419:131 *562:89 7.14539e-05
117 *419:131 *740:133 0.000719177
118 *419:131 *741:154 2.03288e-05
119 *419:131 *826:91 0.00861297
120 *419:135 *530:55 1.21972e-05
121 *419:135 *535:65 0.00111026
122 *419:135 *551:95 0.00507082
123 *419:135 *562:91 0.00284727
124 *419:139 *535:65 0.000330956
125 *419:139 *551:95 0.00217688
126 *419:139 *562:91 0.0038434
127 *419:155 *533:92 2.10832e-05
128 *419:155 *535:93 0.0011271
129 *419:155 *551:107 0.000235771
130 *419:155 *562:105 2.24608e-05
131 *419:159 *530:77 0.00973249
132 *419:159 *551:111 2.02872e-05
133 *419:159 *562:109 0.00969071
134 *419:173 *530:89 0.00642343
135 *419:173 *535:109 6.35951e-05
136 *419:173 *551:119 6.25829e-05
137 *419:173 *551:121 1.4344e-05
138 *419:173 *562:117 0.000100176
139 *419:177 *535:113 0.0114883
140 *419:177 *537:58 0.0114883
141 *419:177 *551:121 0.00227299
142 *419:189 *530:105 0.00430867
143 *419:189 *535:113 0.000601598
144 *419:193 *530:109 0.0184975
145 *419:193 *535:117 0.0199165
146 *419:193 *551:121 0.00304487
147 *419:197 *532:36 0.0179455
148 *419:197 *568:15 0.0608915
149 gpio_analog_sel[43] *419:173 0.000253966
150 gpio_analog_sel[43] *419:189 0.000466321
151 *118:135 *419:63 0.000400635
152 *118:143 *419:53 1.02561e-05
153 *118:143 *419:59 0.014892
154 *118:153 *419:45 4.51887e-05
155 *118:155 *419:39 0.0360313
156 *118:179 *419:23 0.00396227
157 *118:183 *419:23 0.00501482
158 *118:187 *419:23 0.00551917
159 *118:207 *419:15 0.000596432
160 *177:11 *419:197 0.00651057
161 *232:11 *419:197 0.000183191
162 *259:11 *419:197 0.00116713
163 *266:11 *419:197 0.0268316
164 *295:27 *419:11 0
165 *322:123 *419:111 0.000246914
166 *322:131 *419:111 0.00139674
167 *322:191 *419:31 0.0172666
168 *322:235 *419:23 0.000400622
169 *325:87 *419:31 0
170 *325:155 *419:15 0.017766
171 *335:49 *419:15 0.000202883
172 *338:63 *419:39 0.000975611
173 *386:21 *419:11 0.000194599
174 *386:97 *419:37 0.000109976
175 *386:99 *419:39 4.42584e-05
176 *386:107 *419:47 0.0176468
177 *386:119 *419:59 0.014885
178 *386:123 *419:63 0.00305474
179 *386:131 *419:71 5.84708e-05
180 *386:137 *419:77 8.51243e-05
181 *386:139 *419:79 2.63049e-05
182 *386:139 *419:87 0.00182184
183 *386:155 *419:103 0.000308028
184 *386:175 *419:131 0.00127528
185 *386:191 *419:155 0.00100635
186 *397:15 *419:15 0.019594
187 *397:31 *419:15 0
188 *397:31 *419:23 0.000273896
189 *397:69 *419:23 0.000216121
190 *397:95 *419:95 0.00555895
191 *397:111 *419:119 0.00546678
192 *397:147 *419:155 0.00734171
193 *397:171 *419:173 3.28227e-05
194 *397:173 *419:173 0.00649698
195 *397:173 *419:189 0.0022988
196 *408:53 *419:119 0.00183746
197 *408:61 *419:131 0.00870601
198 *408:63 *419:139 1.21972e-05
199 *408:75 *419:155 0.00774284
*RES
1 *921:gpio_ib_mode_sel[2] *419:9 16.2189 
2 *419:9 *419:11 71.0117 
3 *419:11 *419:13 8 
4 *419:13 *419:15 43.1181 
5 *419:15 *419:21 27.8989 
6 *419:21 *419:23 549.944 
7 *419:23 *419:29 36.8357 
8 *419:29 *419:31 219.779 
9 *419:31 *419:37 26.8425 
10 *419:37 *419:39 65.9157 
11 *419:39 *419:45 24.0254 
12 *419:45 *419:47 193.575 
13 *419:47 *419:53 23.3211 
14 *419:53 *419:59 35.3392 
15 *419:59 *419:63 49.4479 
16 *419:63 *419:71 48.2186 
17 *419:71 *419:77 24.3775 
18 *419:77 *419:79 53.9814 
19 *419:79 *419:87 45.9687 
20 *419:87 *419:93 23.3211 
21 *419:93 *419:95 61.1279 
22 *419:95 *419:103 35.3857 
23 *419:103 *419:111 43.6763 
24 *419:111 *419:117 26.4904 
25 *419:117 *419:119 80.6614 
26 *419:119 *419:131 48.6399 
27 *419:131 *419:133 15 
28 *419:133 *419:135 55.6489 
29 *419:135 *419:139 43.2825 
30 *419:139 *419:155 46.3714 
31 *419:155 *419:157 15 
32 *419:157 *419:159 106.865 
33 *419:159 *419:173 48.1109 
34 *419:173 *419:175 15 
35 *419:175 *419:177 125.922 
36 *419:177 *419:189 41.4531 
37 *419:189 *419:191 15 
38 *419:191 *419:193 219.779 
39 *419:193 *419:195 15 
40 *419:195 *419:197 774.683 
41 *419:197 gpio_ib_mode_sel[2] 19.83 
*END

*D_NET *420 0.410466
*CONN
*P gpio_ib_mode_sel[30] O
*I *921:gpio_ib_mode_sel[30] O *D CF_CARAVEL_SOC
*CAP
1 gpio_ib_mode_sel[30] 0.00834037
2 *921:gpio_ib_mode_sel[30] 0.00394632
3 *420:11 0.0962677
4 *420:9 0.0918737
5 gpio_ib_mode_sel[30] gpio_oeb[30] 0.000594136
6 gpio_ib_mode_sel[30] gpio_vtrip_sel[30] 0.000516087
7 gpio_ib_mode_sel[30] *768:19 7.51663e-05
8 gpio_ib_mode_sel[30] *813:17 8.91337e-05
9 *420:9 *421:9 0
10 *420:11 gpio_vtrip_sel[35] 0.00191938
11 *420:11 *456:27 0.00251242
12 *420:11 *469:11 0.00648527
13 *420:11 *688:15 0.00435632
14 *420:11 *733:10 0.00498153
15 *420:11 *753:11 0.00959801
16 *420:11 *768:11 0.0289122
17 *420:11 *803:11 0.013583
18 *420:11 *821:13 0.0112293
19 *420:11 *832:15 0.00923988
20 gpio_dm1[35] *420:11 0.00371479
21 *250:35 *420:11 0.00514971
22 *251:27 *420:11 0.00194276
23 *293:27 *420:11 0.00121905
24 *295:27 *420:11 0.0104624
25 *362:11 *420:11 0.000309589
26 *368:11 *420:11 0.000187045
27 *373:11 gpio_ib_mode_sel[30] 0.00193647
28 *373:11 *420:11 0.0876945
29 *384:11 *420:11 0.00332947
30 *414:11 *420:11 0
31 *418:9 *420:9 0
*RES
1 *921:gpio_ib_mode_sel[30] *420:9 17.5928 
2 *420:9 *420:11 367.756 
3 *420:11 gpio_ib_mode_sel[30] 30.1303 
*END

*D_NET *421 0.39412
*CONN
*P gpio_ib_mode_sel[31] O
*I *921:gpio_ib_mode_sel[31] O *D CF_CARAVEL_SOC
*CAP
1 gpio_ib_mode_sel[31] 0.00627662
2 *921:gpio_ib_mode_sel[31] 0.00345864
3 *421:11 0.0420928
4 *421:9 0.0392748
5 gpio_ib_mode_sel[31] gpio_oeb[31] 0
6 gpio_ib_mode_sel[31] gpio_vtrip_sel[31] 0.00224384
7 gpio_ib_mode_sel[31] *729:21 0
8 *421:9 *422:9 0
9 *421:9 *436:17 1.07565e-05
10 *421:11 *436:11 0.000298413
11 *421:11 *436:19 0.00490237
12 *421:11 *467:11 0.00996307
13 *421:11 *552:25 0.0273262
14 *421:11 *735:23 0.00539981
15 *421:11 *815:11 0.00460226
16 *248:45 *421:11 0.000525971
17 *333:27 gpio_ib_mode_sel[31] 0.000512598
18 *353:11 *421:11 0.0185483
19 *374:11 *421:11 0.0733262
20 *380:11 *421:11 0.00648986
21 *385:11 *421:11 0.00423941
22 *414:11 *421:11 0.144628
23 *420:9 *421:9 0
*RES
1 *921:gpio_ib_mode_sel[31] *421:9 16.3907 
2 *421:9 *421:11 334.398 
3 *421:11 gpio_ib_mode_sel[31] 22.9884 
*END

*D_NET *422 0.258848
*CONN
*P gpio_ib_mode_sel[32] O
*I *921:gpio_ib_mode_sel[32] O *D CF_CARAVEL_SOC
*CAP
1 gpio_ib_mode_sel[32] 0.0040125
2 *921:gpio_ib_mode_sel[32] 0.00636682
3 *422:27 0.00524829
4 *422:11 0.0561165
5 *422:9 0.0612475
6 gpio_ib_mode_sel[32] gpio_vtrip_sel[32] 0
7 gpio_ib_mode_sel[32] *686:11 0.00108825
8 gpio_ib_mode_sel[32] *802:15 0.000122588
9 *422:9 *436:17 9.2749e-06
10 *422:11 *437:11 0
11 *422:11 *546:25 0.0115637
12 *422:11 *693:91 0.000758571
13 *422:11 *761:11 0.00873095
14 *422:11 *769:11 0
15 *422:11 *813:11 0.00177839
16 *422:11 *814:11 0.00195796
17 *422:11 *816:11 0.00833953
18 *422:11 *816:21 0.00733611
19 *422:11 *816:25 0.00362
20 *422:11 *823:11 0.0210767
21 *422:11 *832:27 0.00281566
22 *422:11 *873:49 0.0136495
23 *422:27 *546:25 0.000823326
24 *422:27 *691:11 4.8098e-05
25 *422:27 *761:11 0.000820687
26 *422:27 *816:25 0.000369074
27 *422:27 *832:37 4.8098e-05
28 gpio_holdover[33] *422:11 0.0019244
29 *205:65 *422:11 0.0300703
30 *244:15 *422:27 0
31 *286:39 *422:27 4.81862e-05
32 *398:15 *422:11 0.0031116
33 *398:19 *422:11 0.00145769
34 *412:11 *422:11 0.00426597
35 *417:19 *422:11 2.15719e-05
36 *421:9 *422:9 0
*RES
1 *921:gpio_ib_mode_sel[32] *422:9 22.7448 
2 *422:9 *422:11 209.623 
3 *422:11 *422:27 45.2069 
4 *422:27 gpio_ib_mode_sel[32] 16.8135 
*END

*D_NET *423 0.186753
*CONN
*P gpio_ib_mode_sel[33] O
*I *921:gpio_ib_mode_sel[33] O *D CF_CARAVEL_SOC
*CAP
1 gpio_ib_mode_sel[33] 0.00648467
2 *921:gpio_ib_mode_sel[33] 0.00289196
3 *423:11 0.0391758
4 *423:9 0.035583
5 gpio_ib_mode_sel[33] gpio_oeb[33] 0.000668436
6 gpio_ib_mode_sel[33] gpio_vtrip_sel[33] 0.00679423
7 *423:9 *424:9 0
8 *423:9 *433:6 0.000364411
9 *423:11 *438:19 0.00673614
10 *423:11 *449:21 0.000504182
11 *423:11 *453:41 0.0124525
12 *423:11 *766:11 0.00353288
13 *423:11 *777:15 0.00453208
14 *423:11 *793:11 0.0057458
15 *248:35 *423:11 0.00580235
16 *292:27 *423:11 0.0284297
17 *357:15 *423:11 0.000586493
18 *357:19 *423:11 0.000659084
19 *358:17 *423:11 0.00117879
20 *361:11 *423:11 0.0105458
21 *364:27 *423:11 0.00317615
22 *383:9 gpio_ib_mode_sel[33] 0.000624261
23 *389:11 *423:11 0.00970206
24 *416:11 *423:11 0.000193105
25 *417:17 gpio_ib_mode_sel[33] 0.000389433
26 *418:11 *423:11 0
*RES
1 *921:gpio_ib_mode_sel[33] *423:9 15.1811 
2 *423:9 *423:11 171.67 
3 *423:11 gpio_ib_mode_sel[33] 24.9745 
*END

*D_NET *424 0.119209
*CONN
*P gpio_ib_mode_sel[34] O
*I *921:gpio_ib_mode_sel[34] O *D CF_CARAVEL_SOC
*CAP
1 gpio_ib_mode_sel[34] 0.00450994
2 *921:gpio_ib_mode_sel[34] 0.0049431
3 *424:18 2.46682e-06
4 *424:11 0.0516819
5 *424:9 0.0521176
6 gpio_ib_mode_sel[34] gpio_oeb[34] 0.00239849
7 gpio_ib_mode_sel[34] gpio_vtrip_sel[34] 0.00300288
8 *424:9 *440:17 4.38766e-05
9 *424:18 gpio_oeb[34] 1.68715e-05
10 *392:9 gpio_ib_mode_sel[34] 0.000491856
11 *423:9 *424:9 0
*RES
1 *921:gpio_ib_mode_sel[34] *424:9 19.6088 
2 *424:9 *424:11 130.797 
3 *424:11 gpio_ib_mode_sel[34] 19.7917 
4 gpio_ib_mode_sel[34] *424:18 0.0819512 
*END

*D_NET *425 0.1083
*CONN
*P gpio_ib_mode_sel[35] O
*I *921:gpio_ib_mode_sel[35] O *D CF_CARAVEL_SOC
*CAP
1 gpio_ib_mode_sel[35] 0.00819933
2 *921:gpio_ib_mode_sel[35] 0.00225283
3 *425:11 0.0197432
4 *425:9 0.0137967
5 gpio_ib_mode_sel[35] gpio_oeb[35] 0.00190024
6 gpio_ib_mode_sel[35] gpio_vtrip_sel[35] 0.000418479
7 gpio_ib_mode_sel[35] *447:17 0
8 gpio_ib_mode_sel[35] *548:23 0.000387076
9 gpio_ib_mode_sel[35] *737:71 0.000374259
10 gpio_ib_mode_sel[35] *757:9 0.000489397
11 *425:9 *426:9 0
12 *425:9 *433:6 0.000287215
13 *425:11 *543:23 0.012394
14 *425:11 *737:73 0.00480403
15 *425:11 *749:11 0.00545817
16 *425:11 *771:11 0.00425554
17 *425:11 *826:11 0.00259791
18 *425:11 *831:11 0.0121589
19 gpio_dm1[35] gpio_ib_mode_sel[35] 0
20 *382:11 *425:11 0.0156881
21 *386:11 *425:11 0.000107009
22 *388:11 *425:11 0.00280342
23 *418:11 *425:11 0.000184231
*RES
1 *921:gpio_ib_mode_sel[35] *425:9 13.6803 
2 *425:9 *425:11 88.1477 
3 *425:11 gpio_ib_mode_sel[35] 47.4271 
*END

*D_NET *426 0.0685745
*CONN
*P gpio_ib_mode_sel[36] O
*I *921:gpio_ib_mode_sel[36] O *D CF_CARAVEL_SOC
*CAP
1 gpio_ib_mode_sel[36] 0.00416798
2 *921:gpio_ib_mode_sel[36] 0.00598403
3 *426:11 0.0100775
4 *426:9 0.0118935
5 gpio_ib_mode_sel[36] gpio_oeb[36] 0.00300414
6 gpio_ib_mode_sel[36] gpio_vtrip_sel[36] 0
7 gpio_ib_mode_sel[36] *814:9 0.000275048
8 gpio_ib_mode_sel[36] *816:9 0
9 *426:9 gpio_ib_mode_sel[37] 0
10 *426:11 gpio_ib_mode_sel[37] 0.00154428
11 *426:11 *437:11 0.0115362
12 *426:11 *457:11 0.00396649
13 *426:11 *545:15 0.00396649
14 *336:67 *426:11 0.0030051
15 *383:11 *426:11 0.00887276
16 *390:11 *426:11 0.000133765
17 *417:11 *426:11 0.000147273
18 *425:9 *426:9 0
*RES
1 *921:gpio_ib_mode_sel[36] *426:9 21.5427 
2 *426:9 *426:11 47.2752 
3 *426:11 gpio_ib_mode_sel[36] 18.2396 
*END

*D_NET *427 0.0278172
*CONN
*P gpio_ib_mode_sel[37] O
*I *921:gpio_ib_mode_sel[37] O *D CF_CARAVEL_SOC
*CAP
1 gpio_ib_mode_sel[37] 0.0117647
2 *921:gpio_ib_mode_sel[37] 0.0117622
3 *427:18 2.46682e-06
4 gpio_ib_mode_sel[37] gpio_oeb[37] 0.00111025
5 gpio_ib_mode_sel[37] gpio_vtrip_sel[37] 0
6 gpio_ib_mode_sel[37] *428:9 0
7 gpio_ib_mode_sel[37] *455:21 0.000543522
8 *427:18 gpio_oeb[37] 1.68715e-05
9 *390:11 gpio_ib_mode_sel[37] 0.000543522
10 *398:15 gpio_ib_mode_sel[37] 4.81059e-05
11 *417:11 gpio_ib_mode_sel[37] 0.000481225
12 *426:9 gpio_ib_mode_sel[37] 0
13 *426:11 gpio_ib_mode_sel[37] 0.00154428
*RES
1 *921:gpio_ib_mode_sel[37] gpio_ib_mode_sel[37] 45.4224 
2 gpio_ib_mode_sel[37] *427:18 0.0685714 
*END

*D_NET *428 0.284721
*CONN
*P gpio_ib_mode_sel[38] O
*I *921:gpio_ib_mode_sel[38] O *D CF_CARAVEL_SOC
*CAP
1 gpio_ib_mode_sel[38] 0.000239212
2 *921:gpio_ib_mode_sel[38] 0.00127592
3 *428:23 0.012941
4 *428:21 0.0140688
5 *428:17 0.00150416
6 *428:11 0.0155674
7 *428:9 0.0167061
8 gpio_ib_mode_sel[38] gpio_oeb[38] 0
9 *428:9 *433:6 0.000287215
10 *428:11 *432:11 0.0517376
11 *428:11 *434:11 0
12 *428:11 *557:27 0.000140486
13 *428:11 *804:11 0.00910075
14 *428:11 *851:15 0
15 *428:11 *851:19 0.00791275
16 *428:17 *460:23 0.000390211
17 *428:17 *548:11 0.000387879
18 *428:21 *546:23 0.000171676
19 *428:21 *552:23 1.05658e-05
20 *428:21 *785:15 0
21 *428:21 *837:15 0.00106381
22 *428:21 *853:17 0
23 *428:21 *863:21 0
24 *428:21 *865:15 0.00254472
25 *428:23 *736:43 0.00353436
26 *428:23 *824:23 0.0674637
27 *428:23 *848:11 0.00733811
28 *428:23 *857:11 0.00214275
29 *428:23 *863:11 0.0026876
30 gpio_analog_en[38] *428:23 0.000182583
31 gpio_ib_mode_sel[37] *428:9 0
32 *207:31 *428:23 0.00398202
33 *251:15 *428:23 0.00206103
34 *284:23 *428:23 0.000139191
35 *284:31 *428:23 0.0351695
36 *284:39 *428:23 0.00422499
37 *295:25 *428:11 0.000133279
38 *385:15 *428:23 0.000230415
39 *387:15 *428:23 0.0192578
40 *387:23 *428:23 0.000123131
*RES
1 *921:gpio_ib_mode_sel[38] *428:9 11.0613 
2 *428:9 *428:11 660.237 
3 *428:11 *428:17 34.4329 
4 *428:17 *428:21 44.5918 
5 *428:21 *428:23 128.427 
6 *428:23 gpio_ib_mode_sel[38] 11.8736 
*END

*D_NET *429 0.41133
*CONN
*P gpio_ib_mode_sel[39] O
*I *921:gpio_ib_mode_sel[39] O *D CF_CARAVEL_SOC
*CAP
1 gpio_ib_mode_sel[39] 0.00225809
2 *921:gpio_ib_mode_sel[39] 0.00166699
3 *429:19 0.0232862
4 *429:17 0.0218348
5 *429:11 0.0107961
6 *429:9 0.0116564
7 gpio_ib_mode_sel[39] gpio_oeb[39] 0
8 gpio_ib_mode_sel[39] gpio_vtrip_sel[39] 0
9 *429:9 *431:9 0
10 *429:9 *433:6 0.000210019
11 *429:11 *435:11 0.00278096
12 *429:11 *448:13 0.0393938
13 *429:11 *825:11 3.97759e-05
14 *429:11 *829:11 0.0507492
15 *429:11 *829:21 0.000115228
16 *429:11 *865:15 0
17 *429:17 *825:11 0.00199379
18 *429:17 *825:21 0.000191276
19 *429:17 *829:21 2.61745e-05
20 *429:17 *829:27 0.00189528
21 *429:17 *854:25 0.000157558
22 *429:17 *854:27 1.26108e-05
23 *429:19 *461:23 0.000571506
24 *429:19 *559:27 0.00144921
25 *429:19 *780:13 0.0603936
26 *429:19 *845:19 0.121149
27 *429:19 *852:25 0.000114933
28 *164:35 *429:19 0.000588415
29 *238:15 *429:19 0.000671034
30 *338:71 *429:19 0.00121992
31 *339:23 *429:19 0.00022586
32 *340:39 *429:19 0.0551363
33 *386:11 *429:11 0.00072883
34 *390:21 *429:17 1.64154e-05
*RES
1 *921:gpio_ib_mode_sel[39] *429:9 12.3083 
2 *429:9 *429:11 647.384 
3 *429:11 *429:17 38.3464 
4 *429:17 *429:19 230.179 
5 *429:19 gpio_ib_mode_sel[39] 41.0289 
*END

*D_NET *430 0.788765
*CONN
*P gpio_ib_mode_sel[3] O
*I *921:gpio_ib_mode_sel[3] O *D CF_CARAVEL_SOC
*CAP
1 gpio_ib_mode_sel[3] 0.00115864
2 *921:gpio_ib_mode_sel[3] 0.00131952
3 *430:35 0.00413389
4 *430:33 0.00297526
5 *430:31 0.00392009
6 *430:29 0.00392009
7 *430:27 0.0141139
8 *430:25 0.0141139
9 *430:23 0.0550765
10 *430:21 0.0557423
11 *430:11 0.0147077
12 *430:9 0.0153613
13 gpio_ib_mode_sel[3] gpio_oeb[3] 0
14 gpio_ib_mode_sel[3] gpio_vtrip_sel[3] 0.000657511
15 *430:9 *433:6 0.000364411
16 *430:9 *435:9 0
17 *430:11 *435:11 0
18 *430:11 *542:23 0.000110158
19 *430:11 *785:11 0.00429733
20 *430:11 *804:11 0.000854091
21 *430:11 *837:15 0.00199671
22 *430:11 *845:27 0.00407064
23 *430:11 *847:38 0.00346899
24 *430:11 *865:15 0.00158482
25 *430:21 *467:15 0.000319492
26 *430:21 *471:25 0.000981354
27 *430:21 *842:15 1.30346e-05
28 *430:21 *858:21 0.000321544
29 *430:23 *921:gpio_in[0] 0.000222096
30 *430:23 *443:45 0.00318846
31 *430:23 *451:25 0.00030427
32 *430:23 *452:15 0
33 *430:23 *550:11 0.0850374
34 *430:23 *737:127 0.000104089
35 *430:23 *793:27 0.287426
36 *430:23 *815:25 0.00067454
37 *430:23 *815:49 0.00920891
38 *430:23 *839:31 0.00200245
39 *430:23 *839:53 0.000432254
40 *430:23 *839:69 0.000847175
41 *430:23 *839:91 0.00103804
42 *430:23 *839:103 0.000925274
43 *430:23 *839:117 0.000916598
44 *430:23 *839:139 0.000925255
45 *430:23 *839:149 0.0017769
46 *430:23 *839:165 0.00176675
47 *430:23 *839:187 0.000866016
48 *430:23 *839:193 0.00207187
49 *430:23 *839:205 0.00267336
50 *430:23 *839:215 0.000141263
51 *430:23 *840:11 0.0113877
52 *430:23 *846:13 5.1117e-05
53 *430:23 *846:29 0.00292921
54 *430:23 *858:11 0
55 *430:27 *445:19 0.000294443
56 *430:27 *562:123 0.0726869
57 *430:35 *782:55 0.00435867
58 *144:11 *430:27 0.00140349
59 *207:19 *430:27 0.00928709
60 *223:11 *430:27 0.00330081
61 *226:11 *430:27 0.000552883
62 *247:11 *430:27 0.0250494
63 *258:19 *430:23 0.0102195
64 *262:11 *430:35 0.000799645
65 *292:15 *430:23 0
66 *293:25 *430:21 0.000212722
67 *308:11 *430:27 0.000195307
68 *344:15 *430:23 0.0083719
69 *397:11 *430:11 0.0292067
70 *408:21 *430:21 6.04706e-05
71 *419:9 *430:9 0.000264614
*RES
1 *921:gpio_ib_mode_sel[3] *430:9 11.7464 
2 *430:9 *430:11 73.0427 
3 *430:11 *430:21 36.2121 
4 *430:21 *430:23 3078.83 
5 *430:23 *430:25 15 
6 *430:25 *430:27 937.549 
7 *430:27 *430:29 15 
8 *430:29 *430:31 63.9864 
9 *430:31 *430:33 15 
10 *430:33 *430:35 91.1739 
11 *430:35 gpio_ib_mode_sel[3] 11.1425 
*END

*D_NET *431 0.516964
*CONN
*P gpio_ib_mode_sel[40] O
*I *921:gpio_ib_mode_sel[40] O *D CF_CARAVEL_SOC
*CAP
1 gpio_ib_mode_sel[40] 7.86877e-05
2 *921:gpio_ib_mode_sel[40] 0.00129585
3 *431:19 0.00285338
4 *431:15 0.0318538
5 *431:13 0.0290791
6 *431:11 0.00857027
7 *431:9 0.00986612
8 *431:9 *432:9 0
9 *431:9 *433:6 0.000210019
10 *431:11 *432:11 0.0528868
11 *431:11 *542:23 0.0393106
12 *431:11 *804:11 0.00637312
13 *431:11 *853:19 0.00345225
14 *431:11 *853:23 0.00536443
15 *431:15 *432:15 0.00136603
16 *431:15 *452:15 0.00382388
17 *431:15 *466:15 0.107716
18 *431:15 *468:29 0.114182
19 *431:15 *469:15 0.00479325
20 *431:15 *479:15 0.00432129
21 *431:15 *484:15 0.021418
22 *431:15 *548:11 0.0247338
23 *431:15 *815:49 0.00186047
24 *431:15 *839:125 0.00168394
25 *431:15 *839:139 0.00106099
26 *431:19 gpio_vtrip_sel[40] 0
27 *121:15 *431:15 0.031024
28 *292:15 *431:15 0.00151676
29 *295:15 *431:15 0.00165322
30 *297:20 *431:19 0
31 *299:23 *431:15 0.00461556
32 *429:9 *431:9 0
*RES
1 *921:gpio_ib_mode_sel[40] *431:9 11.1061 
2 *431:9 *431:11 674.851 
3 *431:11 *431:13 8 
4 *431:13 *431:15 280.067 
5 *431:15 *431:19 48.4964 
6 *431:19 gpio_ib_mode_sel[40] 1.5225 
*END

*D_NET *432 0.582366
*CONN
*P gpio_ib_mode_sel[41] O
*I *921:gpio_ib_mode_sel[41] O *D CF_CARAVEL_SOC
*CAP
1 gpio_ib_mode_sel[41] 0.0027194
2 *921:gpio_ib_mode_sel[41] 0.00125607
3 *432:15 0.0323387
4 *432:13 0.0296193
5 *432:11 0.00881901
6 *432:9 0.0100751
7 gpio_ib_mode_sel[41] gpio_vtrip_sel[41] 0
8 *432:9 *433:6 0.000210019
9 *432:11 *434:11 0
10 *432:11 *542:23 0.000295125
11 *432:11 *804:11 0.0094291
12 *432:11 *853:19 4.13136e-05
13 *432:15 *434:15 0.0616773
14 *432:15 *459:25 0.01598
15 *432:15 *468:29 0.114151
16 *432:15 *470:15 0.00046221
17 *432:15 *842:11 0.0184556
18 *121:15 *432:15 0.058258
19 *295:25 *432:11 3.22939e-05
20 *296:23 *432:15 0.112556
21 *428:11 *432:11 0.0517376
22 *431:9 *432:9 0
23 *431:11 *432:11 0.0528868
24 *431:15 *432:15 0.00136603
*RES
1 *921:gpio_ib_mode_sel[41] *432:9 11.0203 
2 *432:9 *432:11 683.302 
3 *432:11 *432:13 8 
4 *432:13 *432:15 331.33 
5 *432:15 gpio_ib_mode_sel[41] 47.6368 
*END

*D_NET *433 0.525487
*CONN
*P gpio_ib_mode_sel[42] O
*I *921:gpio_ib_mode_sel[42] O *D CF_CARAVEL_SOC
*CAP
1 gpio_ib_mode_sel[42] 0.00063739
2 *921:gpio_ib_mode_sel[42] 0
3 *433:20 0.00116653
4 *433:16 0.000577054
5 *433:10 0.0425218
6 *433:8 0.0424739
7 *433:6 0.0274331
8 *433:4 0.0274331
9 gpio_ib_mode_sel[42] gpio_vtrip_sel[42] 0
10 *433:6 *921:mask_rev[0] 0.000287215
11 *433:6 *921:mask_rev[26] 0.000364411
12 *433:6 *921:mask_rev[27] 0.000364411
13 *433:6 *921:mask_rev[28] 0.000364411
14 *433:6 *921:mask_rev[29] 0.000364411
15 *433:6 *921:mask_rev[2] 0.000210019
16 *433:6 *921:mask_rev[30] 0.000364411
17 *433:6 *921:mask_rev[31] 0.000364411
18 *433:6 *921:mask_rev[3] 0.000210019
19 *433:6 *921:mask_rev[5] 0.000210019
20 *433:6 *921:mask_rev[6] 0.000210019
21 *433:6 *921:mask_rev[8] 0.0167287
22 *433:6 *921:resetb_l 0.000364411
23 *433:6 *435:9 0.000364411
24 *433:6 *783:11 0.00469521
25 *433:6 *784:9 0.030808
26 *433:6 *843:15 0.00341141
27 *433:6 *844:17 0.00420949
28 *433:6 *866:21 0.000244705
29 *433:10 *478:9 0.0551723
30 *433:10 *560:27 0.0627056
31 *433:10 *561:18 0.012809
32 *433:10 *781:23 0.0303588
33 *433:10 *783:15 0.000762714
34 *433:10 *784:21 0.000190284
35 *433:10 *829:35 0.0709759
36 *433:10 *829:43 0.0206506
37 *433:10 *844:13 0.0010898
38 *433:10 *859:19 0.0526267
39 *433:16 gpio_inp_dis[42] 7.48273e-05
40 *433:20 *560:27 0.000190845
41 *433:20 *786:23 0.00311237
42 *433:20 *804:23 0
43 *433:20 *829:43 0.00280472
44 *345:23 *433:20 0.00019952
45 *397:9 *433:6 0.000364411
46 *399:9 *433:6 0.000210019
47 *400:9 *433:6 0.000210019
48 *401:9 *433:6 0.000210019
49 *403:9 *433:6 0.000210019
50 *405:9 *433:6 0.000210019
51 *406:9 *433:6 0.000287215
52 *407:9 *433:6 0.000287215
53 *408:9 *433:6 0.000364411
54 *413:9 *433:6 0.000364411
55 *416:9 *433:6 0.000364411
56 *418:9 *433:6 0.000364411
57 *423:9 *433:6 0.000364411
58 *425:9 *433:6 0.000287215
59 *428:9 *433:6 0.000287215
60 *429:9 *433:6 0.000210019
61 *430:9 *433:6 0.000364411
62 *431:9 *433:6 0.000210019
63 *432:9 *433:6 0.000210019
*RES
1 *921:gpio_ib_mode_sel[42] *433:4 8 
2 *433:4 *433:6 130.226 
3 *433:6 *433:8 8 
4 *433:8 *433:10 373.619 
5 *433:10 *433:16 24.0254 
6 *433:16 *433:20 48.495 
7 *433:20 gpio_ib_mode_sel[42] 9.59071 
*END

*D_NET *434 0.479054
*CONN
*P gpio_ib_mode_sel[43] O
*I *921:gpio_ib_mode_sel[43] O *D CF_CARAVEL_SOC
*CAP
1 gpio_ib_mode_sel[43] 0.00248566
2 *921:gpio_ib_mode_sel[43] 0.00090699
3 *434:25 0.00248566
4 *434:23 0.0523834
5 *434:21 0.052546
6 *434:15 0.0107322
7 *434:13 0.0105696
8 *434:11 0.0187727
9 *434:9 0.0196797
10 gpio_ib_mode_sel[43] gpio_vtrip_sel[43] 0
11 gpio_ib_mode_sel[43] *692:33 0
12 *434:9 *793:9 0
13 *434:11 *454:41 0.00652662
14 *434:11 *542:23 0
15 *434:11 *828:11 0
16 *434:11 *849:15 0.0244065
17 *434:11 *850:23 0.000295125
18 *434:11 *851:19 0
19 *434:11 *858:23 0.00151384
20 *434:11 *868:15 0.0183179
21 *434:15 *450:33 0.0118487
22 *434:15 *456:31 0.0110943
23 *434:15 *470:15 0.0616773
24 *434:23 *474:15 0.0591991
25 *434:23 *543:11 0.013604
26 *434:23 *771:27 0
27 *434:23 *847:16 0.00996684
28 *165:23 *434:23 0.00812979
29 *169:15 *434:23 0.00474124
30 *325:99 *434:21 0
31 *399:11 *434:11 0.00165167
32 *403:11 *434:11 0.00058857
33 *406:11 *434:11 0.000279653
34 *407:11 *434:11 0.0129742
35 *428:11 *434:11 0
36 *432:11 *434:11 0
37 *432:15 *434:15 0.0616773
*RES
1 *921:gpio_ib_mode_sel[43] *434:9 10.2064 
2 *434:9 *434:11 698.796 
3 *434:11 *434:13 8 
4 *434:13 *434:15 116.749 
5 *434:15 *434:21 25.7861 
6 *434:21 *434:23 1754.83 
7 *434:23 *434:25 15 
8 *434:25 gpio_ib_mode_sel[43] 35.67 
*END

*D_NET *435 0.809294
*CONN
*P gpio_ib_mode_sel[4] O
*I *921:gpio_ib_mode_sel[4] O *D CF_CARAVEL_SOC
*CAP
1 gpio_ib_mode_sel[4] 0.000977321
2 *921:gpio_ib_mode_sel[4] 0.00178347
3 *435:35 0.0045623
4 *435:33 0.00358498
5 *435:31 0.00232054
6 *435:29 0.00232054
7 *435:27 0.0207284
8 *435:25 0.0207284
9 *435:23 0.0858566
10 *435:21 0.0861904
11 *435:11 0.0181097
12 *435:9 0.0195593
13 gpio_ib_mode_sel[4] gpio_oeb[4] 0
14 gpio_ib_mode_sel[4] gpio_vtrip_sel[4] 0.00136623
15 *435:11 *448:13 0.000110158
16 *435:11 *448:21 0.0121432
17 *435:11 *449:29 0.00325036
18 *435:11 *543:23 0
19 *435:11 *804:11 0
20 *435:11 *825:11 0.00609436
21 *435:11 *826:11 0.00146427
22 *435:11 *829:11 0.00513286
23 *435:11 *854:27 0.0027176
24 *435:21 *465:21 1.28232e-05
25 *435:21 *851:15 5.69588e-05
26 *435:21 *853:17 0
27 *435:23 *553:13 0.243936
28 *435:23 *570:22 0.0107376
29 *435:23 *749:27 0
30 *435:23 *760:31 0.000302653
31 *435:23 *841:11 0.0332654
32 *435:27 *481:11 0.0914901
33 *435:27 *771:31 0.0582845
34 *435:35 *782:55 0.0091892
35 *133:11 *435:27 0.010114
36 *169:11 *435:27 0
37 *207:39 *435:23 0.0242577
38 *208:29 *435:23 0.0145054
39 *224:19 *435:27 0
40 *353:29 *435:21 0.000944831
41 *386:11 *435:11 0.00911404
42 *388:21 *435:21 0.000935863
43 *429:11 *435:11 0.00278096
44 *430:9 *435:9 0
45 *430:11 *435:11 0
46 *433:6 *435:9 0.000364411
*RES
1 *921:gpio_ib_mode_sel[4] *435:9 12.7768 
2 *435:9 *435:11 79.5163 
3 *435:11 *435:21 34.5459 
4 *435:21 *435:23 3112.65 
5 *435:23 *435:25 15 
6 *435:25 *435:27 1168.91 
7 *435:27 *435:29 15 
8 *435:29 *435:31 37.3064 
9 *435:31 *435:33 15 
10 *435:33 *435:35 118.641 
11 *435:35 gpio_ib_mode_sel[4] 10.8737 
*END

*D_NET *436 0.894461
*CONN
*P gpio_ib_mode_sel[5] O
*I *921:gpio_ib_mode_sel[5] O *D CF_CARAVEL_SOC
*CAP
1 gpio_ib_mode_sel[5] 0.00239031
2 *921:gpio_ib_mode_sel[5] 0.00911765
3 *436:27 0.00677981
4 *436:25 0.0043895
5 *436:23 0.0924263
6 *436:21 0.0924263
7 *436:19 0.0139359
8 *436:17 0.0140231
9 *436:11 0.00920485
10 gpio_ib_mode_sel[5] gpio_oeb[5] 0.000316165
11 gpio_ib_mode_sel[5] gpio_vtrip_sel[5] 0.000509807
12 *436:11 *437:9 0
13 *436:11 *467:11 0.00274057
14 *436:11 *552:25 0.00166384
15 *436:11 *737:81 0.00100495
16 *436:11 *815:11 0.0144819
17 *436:19 *451:21 0.0710109
18 *436:19 *453:25 0.00778897
19 *436:19 *467:11 0.00353938
20 *436:19 *735:23 0.0836447
21 *436:19 *815:11 0.00157273
22 *436:23 *539:187 0
23 *436:23 *694:6 0.00266546
24 *436:23 *727:11 0.00112184
25 *436:23 *734:11 0.0480802
26 *436:23 *738:11 0.00217285
27 *436:23 *740:11 0.0591314
28 *436:23 *743:11 0.272311
29 *436:23 *808:23 0.00420523
30 *436:27 *571:39 0.0205089
31 *436:27 *782:39 0.00640926
32 *115:33 *436:23 9.64943e-05
33 *157:37 *436:23 0.000130115
34 *161:15 *436:23 0.00491141
35 *162:15 *436:23 0.00293721
36 *198:15 *436:23 0.00023236
37 *204:25 *436:23 0
38 *206:43 *436:27 0.0110497
39 *242:15 *436:23 0
40 *247:19 *436:19 0.0109076
41 *283:11 *436:27 0
42 *295:27 *436:11 0
43 *315:25 *436:23 0.00226988
44 *322:313 *436:23 0
45 *326:15 *436:23 0
46 *363:11 *436:19 0.000199617
47 *374:11 *436:19 0.00240004
48 *380:11 *436:19 0.00204674
49 *385:11 *436:19 2.22077e-05
50 *392:53 *436:27 0.000563367
51 *414:11 *436:11 0.00189974
52 *421:9 *436:17 1.07565e-05
53 *421:11 *436:11 0.000298413
54 *421:11 *436:19 0.00490237
55 *422:9 *436:17 9.2749e-06
*RES
1 *921:gpio_ib_mode_sel[5] *436:11 49.9123 
2 *436:11 *436:17 16.1848 
3 *436:17 *436:19 1150.77 
4 *436:19 *436:21 15 
5 *436:21 *436:23 3166.01 
6 *436:23 *436:25 15 
7 *436:25 *436:27 264.78 
8 *436:27 gpio_ib_mode_sel[5] 13.7017 
*END

*D_NET *437 0.788597
*CONN
*P gpio_ib_mode_sel[6] O
*I *921:gpio_ib_mode_sel[6] O *D CF_CARAVEL_SOC
*CAP
1 gpio_ib_mode_sel[6] 0.00242353
2 *921:gpio_ib_mode_sel[6] 0.00560789
3 *437:37 0.00362914
4 *437:33 0.00120562
5 *437:31 0.0908542
6 *437:29 0.0933339
7 *437:19 0.0182049
8 *437:17 0.0158585
9 *437:11 0.0252579
10 *437:9 0.0307325
11 gpio_ib_mode_sel[6] gpio_oeb[6] 0.00321306
12 gpio_ib_mode_sel[6] gpio_vtrip_sel[6] 0.000562062
13 *437:11 *457:11 0.00221903
14 *437:11 *545:15 0.00181887
15 *437:11 *769:11 0.000410021
16 *437:11 *817:11 0.0127211
17 *437:11 *823:11 0.00250276
18 *437:19 *457:11 0.0438126
19 *437:19 *737:55 0
20 *437:19 *769:11 0.0079446
21 *437:29 *736:21 0.000911268
22 *437:29 *790:11 2.33476e-05
23 *437:31 *544:29 0
24 *437:31 *688:11 0.00370414
25 *437:31 *744:11 0.101538
26 *115:15 *437:31 0.289042
27 *140:71 *437:31 0.000755561
28 *162:25 *437:29 0.000561256
29 *163:31 *437:29 0.004071
30 *195:15 *437:31 0
31 *205:49 *437:37 0.00295616
32 *205:65 *437:11 0.000546669
33 *273:11 *437:37 0
34 *291:15 *437:31 0.00092674
35 *336:67 *437:11 0.00181887
36 *355:11 *437:29 2.11066e-05
37 *383:11 *437:11 0.00011786
38 *393:23 *437:31 0.000243396
39 *398:15 *437:11 0.00693754
40 *412:11 *437:11 0.000574055
41 *412:11 *437:19 0
42 *422:11 *437:11 0
43 *426:11 *437:11 0.0115362
44 *436:11 *437:9 0
*RES
1 *921:gpio_ib_mode_sel[6] *437:9 21.8861 
2 *437:9 *437:11 140.571 
3 *437:11 *437:17 16.2707 
4 *437:17 *437:19 557.939 
5 *437:19 *437:29 39.6203 
6 *437:29 *437:31 3144.57 
7 *437:31 *437:33 15 
8 *437:33 *437:37 46.3525 
9 *437:37 gpio_ib_mode_sel[6] 6.85907 
*END

*D_NET *438 1.07113
*CONN
*P gpio_ib_mode_sel[7] O
*I *921:gpio_ib_mode_sel[7] O *D CF_CARAVEL_SOC
*CAP
1 gpio_ib_mode_sel[7] 0.00888118
2 *921:gpio_ib_mode_sel[7] 0.00680408
3 *438:27 0.0224375
4 *438:25 0.0135563
5 *438:23 0.0405012
6 *438:21 0.0405012
7 *438:19 0.0155424
8 *438:17 0.0158719
9 *438:11 0.00713361
10 gpio_ib_mode_sel[7] *702:13 0.000758831
11 gpio_ib_mode_sel[7] *834:15 0.0103533
12 *438:11 *439:9 0
13 *438:19 *555:17 0.00579183
14 *438:19 *755:11 0.0545978
15 *438:19 *777:15 0.000728455
16 *438:19 *793:11 0.00123735
17 *438:19 *827:11 0.0281834
18 *438:23 *759:15 0.0170635
19 *222:19 gpio_ib_mode_sel[7] 0.000120707
20 *292:27 *438:11 0.00614739
21 *334:36 *438:23 0.267788
22 *353:11 *438:11 0.00545853
23 *357:19 *438:19 0.00825231
24 *358:17 *438:19 0.000219712
25 *361:11 *438:19 0.00434338
26 *361:33 *438:23 0.0339875
27 *370:11 *438:19 1.89516e-05
28 *389:11 *438:19 0.077923
29 *394:15 *438:23 5.17394e-05
30 *394:19 *438:27 0.0336193
31 *395:23 *438:23 0.299404
32 *395:27 *438:27 0.0342264
33 *416:11 *438:11 0.00289225
34 *423:11 *438:19 0.00673614
*RES
1 *921:gpio_ib_mode_sel[7] *438:11 47.9112 
2 *438:11 *438:17 16.6141 
3 *438:17 *438:19 1197.43 
4 *438:19 *438:21 8 
5 *438:21 *438:23 547.37 
6 *438:23 *438:25 8 
7 *438:25 *438:27 825.568 
8 *438:27 gpio_ib_mode_sel[7] 36.5404 
*END

*D_NET *439 0.895447
*CONN
*P gpio_ib_mode_sel[8] O
*I *921:gpio_ib_mode_sel[8] O *D CF_CARAVEL_SOC
*CAP
1 gpio_ib_mode_sel[8] 0.00174565
2 *921:gpio_ib_mode_sel[8] 0.0089261
3 *439:15 0.111091
4 *439:13 0.109346
5 *439:11 0.0512602
6 *439:9 0.0601863
7 gpio_ib_mode_sel[8] *703:11 0
8 gpio_ib_mode_sel[8] *835:15 0.000926129
9 *439:9 *440:9 0
10 *439:11 *446:11 0.109675
11 *439:11 *447:17 0.0327693
12 *439:11 *461:11 0
13 *439:11 *776:11 0.0127972
14 *439:11 *782:11 0.0584852
15 *439:11 *810:11 0.028789
16 *439:15 *835:15 0.30945
17 *268:11 gpio_ib_mode_sel[8] 0
18 *311:11 gpio_ib_mode_sel[8] 0
19 *438:11 *439:9 0
*RES
1 *921:gpio_ib_mode_sel[8] *439:9 28.8843 
2 *439:9 *439:11 2431.34 
3 *439:11 *439:13 8 
4 *439:13 *439:15 584.98 
5 *439:15 gpio_ib_mode_sel[8] 22.5689 
*END

*D_NET *440 1.04859
*CONN
*P gpio_ib_mode_sel[9] O
*I *921:gpio_ib_mode_sel[9] O *D CF_CARAVEL_SOC
*CAP
1 gpio_ib_mode_sel[9] 0.00764256
2 *921:gpio_ib_mode_sel[9] 0.00454881
3 *440:35 0.0476897
4 *440:33 0.0400471
5 *440:31 0.0456993
6 *440:29 0.046038
7 *440:23 0.0135623
8 *440:21 0.0132235
9 *440:19 0.0198771
10 *440:17 0.0315506
11 *440:9 0.0162223
12 gpio_ib_mode_sel[9] gpio_oeb[9] 0.000551137
13 gpio_ib_mode_sel[9] *704:11 0.0125216
14 *440:19 *689:15 0.000764506
15 *440:19 *762:11 0
16 *440:19 *770:11 0.0463891
17 *440:19 *833:11 0.0788921
18 *440:23 *730:19 0.0180771
19 *440:23 *754:21 0.000916178
20 *440:31 *753:15 0.247671
21 *440:31 *755:15 0
22 *440:31 *757:15 0.170655
23 *440:31 *759:15 0.0156072
24 *118:211 *440:19 0.000135984
25 *148:13 *440:23 0
26 *283:27 *440:35 0.0197332
27 *290:15 *440:23 0
28 *322:277 *440:19 0.00868782
29 *334:36 *440:31 0.0251655
30 *338:83 *440:19 0.0232952
31 *361:33 *440:23 0.0044944
32 *387:11 *440:19 0.00659291
33 *395:27 *440:35 0.0822965
34 *398:9 *440:9 0
35 *424:9 *440:17 4.38766e-05
36 *439:9 *440:9 0
*RES
1 *921:gpio_ib_mode_sel[9] *440:9 19.4819 
2 *440:9 *440:17 47.9816 
3 *440:17 *440:19 1186.87 
4 *440:19 *440:21 8 
5 *440:21 *440:23 62.3952 
6 *440:23 *440:29 28.6032 
7 *440:29 *440:31 2711.98 
8 *440:31 *440:33 15 
9 *440:33 *440:35 1295.5 
10 *440:35 gpio_ib_mode_sel[9] 35.8273 
*END

*D_NET *441 0.75666
*CONN
*P gpio_in[0] I
*I *921:gpio_in[0] I *D CF_CARAVEL_SOC
*CAP
1 gpio_in[0] 0.00797925
2 *921:gpio_in[0] 0.00299913
3 *441:25 0.00318144
4 *441:19 0.00150726
5 *441:17 0.00135024
6 *441:15 0.0342746
7 *441:13 0.0342493
8 *441:11 0.00318434
9 *441:9 0.0111636
10 *921:gpio_in[0] *451:25 0.00286282
11 *921:gpio_in[0] *793:27 0.00330516
12 *921:gpio_in[0] *839:215 0.000560725
13 *921:gpio_in[0] *846:29 0.0143575
14 *921:gpio_in[0] *858:21 5.39053e-05
15 *921:gpio_in[0] *866:17 0.0154903
16 *441:11 *540:38 0.000187379
17 *441:11 *551:125 0.018773
18 *441:15 *442:15 0.249835
19 *441:15 *463:15 0.261226
20 *441:15 *557:19 0.00409884
21 *441:15 *840:19 0.00390103
22 *441:19 *463:15 0.00221341
23 *441:19 *471:27 0.000935628
24 *441:19 *557:19 0.00390457
25 *441:19 *739:62 0.00303211
26 *441:25 *737:117 0.000183491
27 *256:11 *441:11 0.000183418
28 *339:11 *441:11 0.0197599
29 *346:15 *441:15 0.0131406
30 *408:23 *441:15 0.0385441
31 *430:23 *921:gpio_in[0] 0.000222096
*RES
1 gpio_in[0] *441:9 27.2332 
2 *441:9 *441:11 252.103 
3 *441:11 *441:13 15 
4 *441:13 *441:15 2791.78 
5 *441:15 *441:17 0.497143 
6 *441:17 *441:19 75.1825 
7 *441:19 *441:25 25.7861 
8 *441:25 *921:gpio_in[0] 46.1785 
*END

*D_NET *442 0.959622
*CONN
*P gpio_in[10] I
*I *921:gpio_in[10] I *D CF_CARAVEL_SOC
*CAP
1 gpio_in[10] 0.00620721
2 *921:gpio_in[10] 0.000849202
3 *442:15 0.0403587
4 *442:13 0.0395095
5 *442:11 0.0945074
6 *442:9 0.100715
7 *921:gpio_in[10] *556:21 0.00148198
8 *921:gpio_in[10] *826:21 0.000164637
9 *921:gpio_in[10] *840:19 0.00143502
10 *921:gpio_in[10] *873:15 0
11 *442:11 *445:19 0.0088588
12 *442:11 *705:39 0.114421
13 *442:15 *463:15 0.000412444
14 *442:15 *471:27 0.0159799
15 *442:15 *531:24 0.0516984
16 *442:15 *534:11 0.00549478
17 *442:15 *557:19 0.10317
18 *106:11 *442:11 0.0545916
19 *119:11 *442:11 0
20 *123:15 *442:15 0.0265972
21 *221:13 *442:11 0.000118878
22 *226:11 *442:11 0.038886
23 *247:11 *442:11 0
24 *325:133 *921:gpio_in[10] 2.25693e-05
25 *408:23 *442:15 0.00430681
26 *441:15 *442:15 0.249835
*RES
1 gpio_in[10] *442:9 23.0631 
2 *442:9 *442:11 3275.25 
3 *442:11 *442:13 15 
4 *442:13 *442:15 2690.54 
5 *442:15 *921:gpio_in[10] 41.2475 
*END

*D_NET *443 0.934556
*CONN
*P gpio_in[11] I
*I *921:gpio_in[11] I *D CF_CARAVEL_SOC
*CAP
1 gpio_in[11] 0.00669477
2 *921:gpio_in[11] 0.000232079
3 *443:45 0.00471031
4 *443:37 0.00456754
5 *443:31 0.0465968
6 *443:29 0.0466714
7 *443:19 0.0370283
8 *443:17 0.0369153
9 *443:11 0.0899278
10 *443:9 0.0965716
11 *443:11 *570:26 0.139834
12 *443:19 *569:22 0.00522687
13 *443:19 *570:26 0.00965616
14 *443:19 *572:28 0.025486
15 *443:19 *661:19 0.00430338
16 *443:19 *698:23 0.00226884
17 *443:29 *444:15 1.4654e-05
18 *443:29 *815:49 3.51814e-05
19 *443:31 *451:25 0.00090233
20 *443:31 *457:23 0.0251443
21 *443:31 *458:23 0.00180085
22 *443:31 *531:24 0.000101462
23 *443:31 *534:11 0.0545535
24 *443:31 *557:19 0.0382724
25 *443:31 *793:27 0.129472
26 *443:31 *815:49 0.0110943
27 *443:31 *866:17 0.026134
28 *443:45 *793:27 0.00355249
29 *443:45 *839:193 0.00134465
30 *443:45 *839:197 0.00702821
31 *443:45 *839:205 0.000508323
32 *443:45 *866:17 0.0160755
33 *92:11 *443:11 0.0306722
34 *95:11 *443:11 0
35 *96:11 *443:11 0
36 *105:11 *443:11 0.0039428
37 *125:11 *443:11 0
38 *125:11 *443:19 0.00392159
39 *265:13 *443:19 0
40 *309:11 *443:19 0
41 *320:13 *443:19 0
42 *322:27 *443:19 0.000894121
43 *322:225 *443:45 0.000113152
44 *335:13 *443:11 1.14452e-05
45 *335:13 *443:19 0.0084243
46 *336:11 *443:19 0.00392159
47 *336:11 *443:29 5.05592e-05
48 *338:11 *443:11 0.0003954
49 *338:11 *443:19 0.00590162
50 *338:15 *443:19 0.000328079
51 *338:15 *443:29 4.81894e-05
52 *350:11 *443:19 0
53 *397:49 *443:45 1.66113e-05
54 *430:23 *443:45 0.00318846
*RES
1 gpio_in[11] *443:9 25.1836 
2 *443:9 *443:11 2679.95 
3 *443:11 *443:17 16.0989 
4 *443:17 *443:19 148.822 
5 *443:19 *443:29 32.0297 
6 *443:29 *443:31 2489.01 
7 *443:31 *443:37 24.0254 
8 *443:37 *443:45 48.2537 
9 *443:45 *921:gpio_in[11] 4.12214 
*END

*D_NET *444 0.99988
*CONN
*P gpio_in[12] I
*I *921:gpio_in[12] I *D CF_CARAVEL_SOC
*CAP
1 gpio_in[12] 0.00521813
2 *921:gpio_in[12] 7.69974e-05
3 *444:79 0.00432478
4 *444:71 0.0138387
5 *444:69 0.00973733
6 *444:63 0.00613483
7 *444:61 0.00602025
8 *444:55 0.0211607
9 *444:53 0.0211289
10 *444:51 0.00198153
11 *444:39 0.00317123
12 *444:37 0.00118971
13 *444:35 0.00301718
14 *444:23 0.00422962
15 *444:21 0.0014005
16 *444:15 0.0118961
17 *444:13 0.011708
18 *444:11 0.112219
19 *444:9 0.117437
20 *444:9 *752:15 0
21 *444:11 *484:11 0.238767
22 *444:11 *788:19 0
23 *444:15 *529:9 0.0440931
24 *444:15 *815:49 0
25 *444:23 *533:102 0.00101144
26 *444:23 *696:95 9.8971e-06
27 *444:23 *740:95 0.00796215
28 *444:35 *529:9 0.00290161
29 *444:35 *530:69 0
30 *444:35 *532:30 7.1459e-05
31 *444:35 *535:93 0
32 *444:35 *567:14 0.00164087
33 *444:35 *568:11 0.00137939
34 *444:35 *569:18 0.000563976
35 *444:35 *572:16 0.0016326
36 *444:35 *696:95 0.00069907
37 *444:35 *826:117 0
38 *444:39 *532:16 0.00834392
39 *444:51 *535:57 0.000107043
40 *444:51 *536:29 0.00877894
41 *444:51 *536:33 2.05503e-05
42 *444:51 *562:89 0
43 *444:51 *696:95 0.000998039
44 *444:51 *741:160 0.00152841
45 *444:55 *532:16 0.0188366
46 *444:55 *537:10 0.000814413
47 *444:55 *541:27 0.062394
48 *444:55 *556:11 0
49 *444:55 *572:16 0.00349553
50 *444:55 *826:47 0
51 *444:61 *539:61 6.10512e-05
52 *444:61 *826:43 7.45617e-05
53 *444:63 gpio_out[39] 0.00490965
54 *444:63 *472:55 0.0117637
55 *444:63 *539:63 0.0321065
56 *444:71 *472:55 0.00437688
57 *444:71 *556:11 0.00035932
58 *444:71 *693:169 0.000204154
59 *444:71 *826:27 0.00259388
60 *444:79 *921:gpio_in[16] 0.00483024
61 *444:79 *739:104 8.59724e-05
62 *444:79 *826:21 0.0026379
63 gpio_analog_sel[43] *444:15 0.00938122
64 gpio_analog_sel[43] *444:35 0.00147915
65 *103:11 *444:11 0
66 *115:11 *444:11 0
67 *118:39 *444:23 0.000186953
68 *118:55 *444:35 0.00080529
69 *118:61 *444:39 0.000337633
70 *118:75 *444:51 0.000928288
71 *118:179 *444:71 0.00111217
72 *125:15 *444:23 0.00947946
73 *125:15 *444:39 0.00894905
74 *125:15 *444:55 0.0182296
75 *155:11 *444:11 0.00571585
76 *180:11 *444:11 0.0316305
77 *225:19 *444:11 0
78 *243:11 *444:11 0.00740612
79 *246:11 *444:11 0
80 *270:19 *444:11 0
81 *293:15 *444:71 0.00306597
82 *310:11 *444:11 0.0118408
83 *322:71 *444:21 0.000274416
84 *322:123 *444:55 0.0013345
85 *322:173 *444:61 4.15283e-06
86 *322:209 *444:71 0.000121197
87 *325:39 *444:51 0.0015224
88 *325:45 *444:51 9.28078e-06
89 *325:117 *444:79 6.11806e-05
90 *338:35 *444:55 0.0103547
91 *338:63 *444:63 0.000956791
92 *346:15 *444:15 0.0108507
93 *386:73 *444:79 0
94 *397:57 *444:79 0.00186195
95 *397:69 *444:71 0.000279487
96 *397:79 *444:71 0.0195108
97 *419:23 *444:71 0.0162319
98 *443:29 *444:15 1.4654e-05
*RES
1 gpio_in[12] *444:9 20.7111 
2 *444:9 *444:11 3737.79 
3 *444:11 *444:13 8 
4 *444:13 *444:15 81.2 
5 *444:15 *444:21 26.8425 
6 *444:21 *444:23 104.006 
7 *444:23 *444:35 47.2747 
8 *444:35 *444:37 15 
9 *444:37 *444:39 98.2893 
10 *444:39 *444:51 47.5835 
11 *444:51 *444:53 15 
12 *444:53 *444:55 975.871 
13 *444:55 *444:61 24.0254 
14 *444:61 *444:63 58.5312 
15 *444:63 *444:69 25.4339 
16 *444:69 *444:71 398.916 
17 *444:71 *444:79 49.6185 
18 *444:79 *921:gpio_in[12] 9.74 
*END

*D_NET *445 1.19279
*CONN
*P gpio_in[13] I
*I *921:gpio_in[13] I *D CF_CARAVEL_SOC
*CAP
1 gpio_in[13] 0.00375892
2 *921:gpio_in[13] 0.00189627
3 *445:23 0.0346447
4 *445:21 0.0327485
5 *445:19 0.0172824
6 *445:17 0.0172824
7 *445:15 0.00230116
8 *445:13 0.00230116
9 *445:11 0.0739082
10 *445:9 0.0776671
11 *445:9 gpio_slow_sel[13] 0
12 *445:11 *692:23 0.00129728
13 *445:11 *787:19 0.000257083
14 *445:11 *832:51 0.0114793
15 *445:19 *562:123 0.0318103
16 *445:19 *705:39 0.00968773
17 *445:19 *716:15 0.038494
18 *445:19 *727:15 0.0204972
19 *445:23 *481:15 0.233952
20 *445:23 *482:15 0.000105038
21 *445:23 *483:23 0.0211225
22 *445:23 *547:13 0.00560244
23 *445:23 *555:13 0.205624
24 *445:23 *837:11 0.0439323
25 *90:11 *445:19 0.00123563
26 *119:11 *445:19 0
27 *178:19 *445:11 0.0378706
28 *207:19 *445:19 0
29 *226:11 *445:19 0.00114629
30 *267:23 *445:11 0
31 *274:67 *445:11 0.00359283
32 *308:11 *445:19 0.00410307
33 *313:11 *445:11 0.245668
34 *321:47 *445:11 0.00236857
35 *430:27 *445:19 0.000294443
36 *442:11 *445:19 0.0088588
*RES
1 gpio_in[13] *445:9 16.212 
2 *445:9 *445:11 3163.62 
3 *445:11 *445:13 15 
4 *445:13 *445:15 35.4007 
5 *445:15 *445:17 15 
6 *445:17 *445:19 1063.26 
7 *445:19 *445:21 15 
8 *445:21 *445:23 2606.69 
9 *445:23 *921:gpio_in[13] 41.6904 
*END

*D_NET *446 1.16401
*CONN
*P gpio_in[14] I
*I *921:gpio_in[14] I *D CF_CARAVEL_SOC
*CAP
1 gpio_in[14] 0.000230802
2 *921:gpio_in[14] 0.00291338
3 *446:29 0.00291338
4 *446:27 0.0094069
5 *446:25 0.0105342
6 *446:19 0.0421431
7 *446:17 0.0410157
8 *446:15 0.00300186
9 *446:13 0.00300186
10 *446:11 0.0730133
11 *446:9 0.0730133
12 *446:7 0.166117
13 *446:5 0.166348
14 *446:11 gpio_oeb[29] 0.000335862
15 *446:11 *447:17 0.248508
16 *446:11 *810:11 0
17 *446:19 *455:21 0
18 *446:19 *470:11 0
19 *446:19 *693:79 0
20 *446:19 *693:83 0
21 *446:19 *763:11 0
22 *446:19 *774:11 0.0178914
23 *446:19 *775:11 0.0173446
24 *446:19 *779:11 0.0106386
25 *446:25 *455:21 0
26 *446:25 *544:17 0
27 *446:27 *447:21 0.0530965
28 *446:27 *546:23 0.000214439
29 *446:27 *825:23 0.0107471
30 *446:27 *844:13 0.0261784
31 *119:27 *446:25 0.000103408
32 *149:39 *446:7 0
33 *238:25 *446:25 2.33476e-05
34 *250:23 *446:27 0.000207337
35 *289:33 *446:25 9.69591e-05
36 *294:27 *446:19 0.0750789
37 *294:27 *446:25 0.000214502
38 *439:11 *446:11 0.109675
*RES
1 gpio_in[14] *446:5 0.885733 
2 *446:5 *446:7 588.685 
3 *446:7 *446:9 8 
4 *446:9 *446:11 3198.83 
5 *446:11 *446:13 15 
6 *446:13 *446:15 47.3114 
7 *446:15 *446:17 15 
8 *446:17 *446:19 1475.63 
9 *446:19 *446:25 39.7018 
10 *446:25 *446:27 567.571 
11 *446:27 *446:29 15 
12 *446:29 *921:gpio_in[14] 41.2732 
*END

*D_NET *447 1.24658
*CONN
*P gpio_in[15] I
*I *921:gpio_in[15] I *D CF_CARAVEL_SOC
*CAP
1 gpio_in[15] 0.0010402
2 *921:gpio_in[15] 0.00286651
3 *447:23 0.00286651
4 *447:21 0.0100997
5 *447:19 0.0100997
6 *447:17 0.157913
7 *447:15 0.157913
8 *447:13 0.0986988
9 *447:11 0.099739
10 *447:17 *461:11 0
11 *447:17 *462:11 0
12 *447:17 *547:25 0
13 *447:17 *548:23 0
14 *447:17 *693:39 0
15 *447:17 *776:11 0.0127951
16 *447:17 *811:11 0
17 *447:21 *453:49 0.0534481
18 *447:21 *546:23 0.000379423
19 *447:21 *825:23 0.00978593
20 *447:21 *844:13 0.00116197
21 gpio_analog_en[32] *447:17 0
22 gpio_analog_pol[30] *447:17 0
23 gpio_analog_sel[29] *447:17 0
24 gpio_analog_sel[32] *447:17 0
25 gpio_dm2[37] *447:17 0
26 gpio_ib_mode_sel[35] *447:17 0
27 *360:15 *447:13 0.226019
28 *362:15 *447:13 0.0668357
29 *381:11 *447:17 0
30 *381:15 *447:17 0
31 *397:57 *921:gpio_in[15] 9.06238e-05
32 *404:23 *447:13 0
33 *409:15 *447:13 0.000451057
34 *439:11 *447:17 0.0327693
35 *446:11 *447:17 0.248508
36 *446:27 *447:21 0.0530965
*RES
1 gpio_in[15] *447:11 39.3704 
2 *447:11 *447:13 3087.4 
3 *447:13 *447:15 15 
4 *447:15 *447:17 4900.92 
5 *447:17 *447:19 15 
6 *447:19 *447:21 648.088 
7 *447:21 *447:23 15 
8 *447:23 *921:gpio_in[15] 40.9211 
*END

*D_NET *448 1.19075
*CONN
*P gpio_in[16] I
*I *921:gpio_in[16] I *D CF_CARAVEL_SOC
*CAP
1 gpio_in[16] 1.7995e-05
2 *921:gpio_in[16] 0.0052088
3 *448:39 0.00556173
4 *448:33 0.00603116
5 *448:31 0.00581197
6 *448:21 0.00376017
7 *448:13 0.136819
8 *448:11 0.133192
9 *448:9 0.0751371
10 *448:7 0.0751551
11 *921:gpio_in[16] *826:21 0.00205973
12 *921:gpio_in[16] *840:19 0.00353639
13 *448:9 *449:9 0.198886
14 *448:9 *450:9 0.000193575
15 *448:9 *451:9 0.000382979
16 *448:9 *536:245 0.00317216
17 *448:9 *537:250 0.00947789
18 *448:13 *451:13 0
19 *448:13 *453:33 0.00253967
20 *448:13 *785:11 0
21 *448:13 *797:11 0.000862421
22 *448:13 *798:19 0.299575
23 *448:13 *801:11 0
24 *448:13 *805:11 0
25 *448:13 *819:11 0.000283788
26 *448:13 *829:11 0.0108857
27 *448:13 *845:27 0
28 *448:13 *865:15 0
29 *448:21 *449:29 0.000104065
30 *448:21 *471:11 0.00189588
31 *448:21 *543:23 0
32 *448:21 *826:11 0.00658013
33 *448:21 *852:27 0.000112415
34 *448:21 *854:27 0.00189588
35 *448:21 *873:47 0
36 *448:31 *471:25 4.82958e-05
37 *448:31 *852:27 0.000256457
38 *448:31 *854:27 0.000251579
39 *448:33 *451:25 0.0398595
40 *448:33 *457:23 0.039645
41 *448:33 *866:17 0.00777213
42 *448:39 *541:75 9.95346e-05
43 *448:39 *693:137 0
44 *118:183 *921:gpio_in[16] 0.0010432
45 *161:19 *448:13 0.000747542
46 *359:15 *448:9 0.0181865
47 *359:21 *448:9 0.00012692
48 *359:23 *448:9 0.0222902
49 *360:11 *448:13 0.00538713
50 *363:19 *448:9 0.000397334
51 *386:73 *921:gpio_in[16] 0
52 *391:11 *448:13 0.0024202
53 *397:57 *921:gpio_in[16] 0
54 *397:69 *921:gpio_in[16] 0.00345396
55 *419:23 *921:gpio_in[16] 0.00314494
56 *429:11 *448:13 0.0393938
57 *435:11 *448:13 0.000110158
58 *435:11 *448:21 0.0121432
59 *444:79 *921:gpio_in[16] 0.00483024
*RES
1 gpio_in[16] *448:7 15.2486 
2 *448:7 *448:9 2467.57 
3 *448:9 *448:11 15 
4 *448:11 *448:13 4729.95 
5 *448:13 *448:21 44.8904 
6 *448:21 *448:31 34.5893 
7 *448:31 *448:33 427.501 
8 *448:33 *448:39 27.8989 
9 *448:39 *921:gpio_in[16] 39.1181 
*END

*D_NET *449 1.27879
*CONN
*P gpio_in[17] I
*I *921:gpio_in[17] I *D CF_CARAVEL_SOC
*CAP
1 gpio_in[17] 4.71097e-05
2 *921:gpio_in[17] 0.0012485
3 *449:51 0.00209513
4 *449:41 0.00931036
5 *449:39 0.00846374
6 *449:37 0.00549849
7 *449:35 0.00549849
8 *449:33 0.00183968
9 *449:29 0.0243265
10 *449:27 0.0232244
11 *449:21 0.00436137
12 *449:19 0.0036238
13 *449:17 0.00208253
14 *449:13 0.0967736
15 *449:11 0.0946911
16 *449:9 0.0330023
17 *449:7 0.0330494
18 *449:9 *450:9 0.156904
19 *449:9 *537:250 0.00317216
20 *449:13 *450:13 0
21 *449:13 *453:17 0.255867
22 *449:13 *541:119 0
23 *449:13 *542:39 0.000574661
24 *449:13 *690:21 0
25 *449:13 *758:9 0.00795642
26 *449:13 *831:27 0.00362535
27 *449:13 *836:11 0.00563086
28 *449:17 *453:29 0
29 *449:21 *453:41 0.00677104
30 *449:21 *543:31 0
31 *449:29 *471:11 0.0173657
32 *449:29 *737:73 0
33 *449:29 *751:11 0.0242322
34 *449:29 *791:23 0.00903212
35 *449:29 *797:11 0.00075631
36 *449:29 *797:19 0.000973914
37 *449:29 *798:19 0
38 *449:29 *808:11 0.00864606
39 *449:29 *819:11 0.00617031
40 *449:29 *825:11 0.0259618
41 *449:29 *829:11 0.000627725
42 *449:29 *852:27 0.0141263
43 *449:29 *854:27 0.0152298
44 *449:37 *450:29 0.00622626
45 *449:37 *844:17 0
46 *449:37 *866:21 0.00118037
47 *449:37 *873:39 0
48 *449:41 *461:23 0.0539585
49 *449:41 *780:13 0.0118887
50 *449:51 *470:15 0.000377234
51 *449:51 *539:101 0.000120171
52 *449:51 *693:169 0
53 *449:51 *739:104 0.000473128
54 *449:51 *847:16 0.00215961
55 *115:27 *449:13 0
56 *160:27 *449:13 0.00179503
57 *238:15 *449:41 0.0301542
58 *354:11 *449:29 0.000598254
59 *359:15 *449:9 0.0208264
60 *359:21 *449:9 0.000155534
61 *359:23 *449:9 0.0286556
62 *363:19 *449:9 0.000341329
63 *375:19 *449:21 0
64 *386:11 *449:29 0.00294174
65 *389:11 *449:21 0.00143472
66 *423:11 *449:21 0.000504182
67 *435:11 *449:29 0.00325036
68 *448:9 *449:9 0.198886
69 *448:21 *449:29 0.000104065
*RES
1 gpio_in[17] *449:7 15.6007 
2 *449:7 *449:9 2183.14 
3 *449:9 *449:11 15 
4 *449:11 *449:13 3371.21 
5 *449:13 *449:17 47.5421 
6 *449:17 *449:19 15 
7 *449:19 *449:21 121.986 
8 *449:21 *449:27 42.0557 
9 *449:27 *449:29 1250.6 
10 *449:29 *449:33 42.7779 
11 *449:33 *449:35 15 
12 *449:35 *449:37 160.722 
13 *449:37 *449:39 15 
14 *449:39 *449:41 576.147 
15 *449:41 *449:51 37.8778 
16 *449:51 *921:gpio_in[17] 18.2079 
*END

*D_NET *450 1.14719
*CONN
*P gpio_in[18] I
*I *921:gpio_in[18] I *D CF_CARAVEL_SOC
*CAP
1 gpio_in[18] 7.77794e-05
2 *921:gpio_in[18] 0
3 *450:41 0.00249318
4 *450:33 0.0111664
5 *450:31 0.00867318
6 *450:29 0.00511875
7 *450:27 0.00895842
8 *450:13 0.144952
9 *450:11 0.141112
10 *450:9 0.0296991
11 *450:7 0.0297769
12 *450:9 *451:9 0.109158
13 *450:9 *763:15 0.00589056
14 *450:13 *541:119 0.00196514
15 *450:13 *542:39 0
16 *450:13 *690:21 0.00020667
17 *450:13 *752:11 0.0278226
18 *450:13 *786:11 0.000184494
19 *450:13 *830:11 0.00453882
20 *450:13 *840:27 0
21 *450:13 *842:23 0
22 *450:13 *860:19 0.0114433
23 *450:27 *921:mask_rev[9] 8.76403e-05
24 *450:27 *921:porb_l 0.000103097
25 *450:27 *786:11 0.00355576
26 *450:27 *828:11 0.000531633
27 *450:27 *830:11 0.000921857
28 *450:27 *839:219 0.000754217
29 *450:29 *866:21 0.00118037
30 *450:33 *456:31 0.0546468
31 *450:33 *771:27 0.0305214
32 *450:41 *472:55 0.000209093
33 *450:41 *539:97 0.000158912
34 *450:41 *739:112 0.00038089
35 *450:41 *826:27 0
36 *115:27 *450:13 0.000122907
37 *359:15 *450:9 0.0139255
38 *359:21 *450:9 0.000442748
39 *359:23 *450:9 0.0214742
40 *386:81 *450:41 0.00037825
41 *397:75 *450:41 0.00176874
42 *401:11 *450:13 0.297616
43 *434:15 *450:33 0.0118487
44 *448:9 *450:9 0.000193575
45 *449:9 *450:9 0.156904
46 *449:13 *450:13 0
47 *449:37 *450:29 0.00622626
*RES
1 gpio_in[18] *450:7 15.9529 
2 *450:7 *450:9 1726.25 
3 *450:9 *450:11 15 
4 *450:11 *450:13 4663.75 
5 *450:13 *450:27 48.9157 
6 *450:27 *450:29 154.208 
7 *450:29 *450:31 15 
8 *450:31 *450:33 583.77 
9 *450:33 *450:41 47.8531 
10 *450:41 *921:gpio_in[18] 8 
*END

*D_NET *451 0.999935
*CONN
*P gpio_in[19] I
*I *921:gpio_in[19] I *D CF_CARAVEL_SOC
*CAP
1 gpio_in[19] 0.000104795
2 *921:gpio_in[19] 0.000613277
3 *451:35 0.00212397
4 *451:25 0.0113652
5 *451:23 0.00985447
6 *451:21 0.0194568
7 *451:19 0.0194568
8 *451:17 0.00140187
9 *451:13 0.135616
10 *451:11 0.134215
11 *451:9 0.0364538
12 *451:7 0.0365586
13 *451:9 *763:15 0.014032
14 *451:13 *792:11 0.00400017
15 *451:13 *795:19 0
16 *451:13 *796:11 0
17 *451:13 *799:11 0
18 *451:13 *800:11 0
19 *451:13 *801:11 0.0218888
20 *451:13 *805:11 0.000301828
21 *451:13 *806:11 0.000225251
22 *451:13 *807:11 0.0296314
23 *451:13 *834:11 0.016699
24 *451:17 *453:29 0.00106441
25 *451:21 *467:11 0.011847
26 *451:21 *815:11 0.0108935
27 *451:21 *863:23 0.015121
28 *451:25 *457:23 0.00876655
29 *451:25 *550:11 0.000137796
30 *451:25 *793:27 0.0543301
31 *451:25 *815:25 0.00104387
32 *451:25 *866:17 0.00636344
33 *451:35 *793:27 0.00161248
34 *451:35 *839:193 0.00837657
35 *451:35 *866:17 0.00837033
36 *921:gpio_in[0] *451:25 0.00286282
37 *248:45 *451:21 0.000537283
38 *322:209 *451:35 8.11914e-06
39 *325:133 *451:25 0.00039906
40 *353:11 *451:21 0.00579558
41 *359:15 *451:9 0.0237421
42 *359:21 *451:9 0.00100099
43 *359:23 *451:9 0.000867449
44 *363:19 *451:9 0.00014228
45 *380:11 *451:21 0.00194268
46 *385:11 *451:21 0.119092
47 *430:23 *451:25 0.00030427
48 *436:19 *451:21 0.0710109
49 *443:31 *451:25 0.00090233
50 *448:9 *451:9 0.000382979
51 *448:13 *451:13 0
52 *448:33 *451:25 0.0398595
53 *450:9 *451:9 0.109158
*RES
1 gpio_in[19] *451:7 16.305 
2 *451:7 *451:9 1209.32 
3 *451:9 *451:11 15 
4 *451:11 *451:13 3374.38 
5 *451:13 *451:17 41.3486 
6 *451:17 *451:19 15 
7 *451:19 *451:21 1515.42 
8 *451:21 *451:23 15 
9 *451:23 *451:25 625.219 
10 *451:25 *451:35 47.5287 
11 *451:35 *921:gpio_in[19] 8.92786 
*END

*D_NET *452 0.766744
*CONN
*P gpio_in[1] I
*I *921:gpio_in[1] I *D CF_CARAVEL_SOC
*CAP
1 gpio_in[1] 0.00706212
2 *921:gpio_in[1] 0.00077288
3 *452:15 0.0375355
4 *452:13 0.0367626
5 *452:11 0.00833015
6 *452:9 0.0153923
7 *452:11 *463:11 0.0382526
8 *452:11 *474:11 0.000255069
9 *452:15 *466:15 0.018756
10 *452:15 *469:15 0.00214168
11 *452:15 *479:15 0.271369
12 *452:15 *484:15 9.06073e-05
13 *452:15 *548:11 0.00344186
14 *125:11 *452:11 0.0136047
15 *265:13 *452:11 0.0008496
16 *273:9 *452:9 0.00166503
17 *292:15 *452:15 0.000963817
18 *295:15 *452:15 0.278745
19 *299:23 *452:15 0.0267809
20 *309:11 *452:11 0.000148344
21 *336:11 *452:11 0
22 *430:23 *452:15 0
23 *431:15 *452:15 0.00382388
*RES
1 gpio_in[1] *452:9 25.2657 
2 *452:9 *452:11 494.73 
3 *452:11 *452:13 15 
4 *452:13 *452:15 3003.55 
5 *452:15 *921:gpio_in[1] 27.6254 
*END

*D_NET *453 1.12413
*CONN
*P gpio_in[20] I
*I *921:gpio_in[20] I *D CF_CARAVEL_SOC
*CAP
1 gpio_in[20] 0.00113005
2 *921:gpio_in[20] 0.00287582
3 *453:51 0.00287582
4 *453:49 0.00969357
5 *453:47 0.0104252
6 *453:41 0.0207471
7 *453:39 0.0210308
8 *453:33 0.00196704
9 *453:29 0.00215721
10 *453:25 0.00258376
11 *453:23 0.00137821
12 *453:21 0.00264831
13 *453:19 0.00264831
14 *453:17 0.0876753
15 *453:15 0.0876753
16 *453:13 0.0264561
17 *453:11 0.0275861
18 *453:17 *756:6 0.0129729
19 *453:17 *758:9 0.0101173
20 *453:17 *831:27 0.013446
21 *453:17 *836:11 0.00634243
22 *453:33 *805:11 0
23 *453:41 *543:31 0
24 *453:41 *737:65 0
25 *453:41 *793:11 0.00160271
26 *453:41 *827:11 7.00754e-06
27 *453:41 *857:23 5.36496e-06
28 *453:47 *462:21 0.000222655
29 *453:47 *827:11 0.000573368
30 *453:47 *857:15 0.000296812
31 *453:49 *454:53 0.0667565
32 *453:49 *541:59 0.00862146
33 *453:49 *546:13 0.000537758
34 *453:49 *784:13 0.0124926
35 *453:49 *825:23 0.00011756
36 *453:49 *844:13 0.000655658
37 *203:21 *453:25 0.00011563
38 *248:33 *453:47 0.000623397
39 *248:35 *453:41 0.0999786
40 *248:35 *453:47 1.20894e-05
41 *335:25 *453:49 0.00170788
42 *360:15 *453:13 0.0867644
43 *362:15 *453:13 0.000482513
44 *363:11 *453:25 0.000863037
45 *365:15 *453:13 0.000173494
46 *374:11 *453:25 0.000103953
47 *380:11 *453:25 0.000635972
48 *385:11 *453:25 0.00610873
49 *389:11 *453:41 0.117365
50 *391:11 *453:33 0.000103953
51 *404:23 *453:13 0
52 *408:11 *453:41 0.00604822
53 *409:15 *453:13 0.0167865
54 *423:11 *453:41 0.0124525
55 *436:19 *453:25 0.00778897
56 *447:21 *453:49 0.0534481
57 *448:13 *453:33 0.00253967
58 *449:13 *453:17 0.255867
59 *449:17 *453:29 0
60 *449:21 *453:41 0.00677104
61 *451:17 *453:29 0.00106441
*RES
1 gpio_in[20] *453:11 38.6661 
2 *453:11 *453:13 927.275 
3 *453:13 *453:15 15 
4 *453:15 *453:17 3252.18 
5 *453:17 *453:19 15 
6 *453:19 *453:21 41.1179 
7 *453:21 *453:23 15 
8 *453:23 *453:25 99.8014 
9 *453:25 *453:29 38.0136 
10 *453:29 *453:33 47.5421 
11 *453:33 *453:39 45.3907 
12 *453:39 *453:41 1495.52 
13 *453:41 *453:47 37.8996 
14 *453:47 *453:49 742.421 
15 *453:49 *453:51 15 
16 *453:51 *921:gpio_in[20] 40.5689 
*END

*D_NET *454 0.917676
*CONN
*P gpio_in[21] I
*I *921:gpio_in[21] I *D CF_CARAVEL_SOC
*CAP
1 gpio_in[21] 0.000134032
2 *921:gpio_in[21] 0.00284519
3 *454:55 0.00284519
4 *454:53 0.0090472
5 *454:51 0.0090472
6 *454:49 0.00132151
7 *454:47 0.00156003
8 *454:41 0.0294314
9 *454:39 0.0301055
10 *454:33 0.00630418
11 *454:25 0.0148879
12 *454:23 0.0105134
13 *454:17 0.0175283
14 *454:15 0.0165112
15 *454:13 0.0150523
16 *454:11 0.0150523
17 *454:9 0.117438
18 *454:7 0.117572
19 *454:9 *673:7 0
20 *454:13 *542:51 0.0613318
21 *454:13 *715:6 0.0100504
22 *454:13 *719:8 0.0137082
23 *454:17 *455:13 0.0246794
24 *454:17 *541:127 0.0114162
25 *454:17 *543:39 0.0104975
26 *454:23 *543:37 0.00139374
27 *454:25 *764:11 0.025382
28 *454:25 *796:11 0
29 *454:33 *756:6 0.0103174
30 *454:33 *784:7 7.29709e-06
31 *454:33 *785:9 0.000153404
32 *454:39 *763:9 0.000203838
33 *454:39 *764:9 0
34 *454:41 *786:11 0.090248
35 *454:41 *794:11 0.000662716
36 *454:41 *804:11 0.00427377
37 *454:41 *849:15 0.0042325
38 *454:41 *850:23 0.0033278
39 *454:41 *851:15 0.000250774
40 *454:41 *868:15 0.00243031
41 *454:47 *471:25 0.000294422
42 *454:49 *830:11 0.00224006
43 *454:49 *851:15 0
44 *454:49 *860:15 0.0026072
45 *454:53 *546:13 0.0699709
46 *454:53 *784:13 0.0152441
47 *103:15 *454:13 0
48 *116:67 *454:25 0.000524336
49 *206:51 *454:17 0
50 *206:57 *454:23 0.000132577
51 *335:25 *454:53 0.000790801
52 *386:25 *454:47 0
53 *399:11 *454:41 0.0487106
54 *405:11 *454:41 0.000322604
55 *406:11 *454:41 0.00340821
56 *407:11 *454:41 0.00838324
57 *419:29 *921:gpio_in[21] 0
58 *434:11 *454:41 0.00652662
59 *453:49 *454:53 0.0667565
*RES
1 gpio_in[21] *454:7 1.86429 
2 *454:7 *454:9 2658.82 
3 *454:9 *454:11 8 
4 *454:11 *454:13 118.037 
5 *454:13 *454:15 8 
6 *454:15 *454:17 604.422 
7 *454:17 *454:23 18.8037 
8 *454:23 *454:25 324.821 
9 *454:25 *454:33 42.5459 
10 *454:33 *454:39 18.1168 
11 *454:39 *454:41 209.75 
12 *454:41 *454:47 16.6141 
13 *454:47 *454:49 36.9439 
14 *454:49 *454:51 15 
15 *454:51 *454:53 747.185 
16 *454:53 *454:55 15 
17 *454:55 *921:gpio_in[21] 40.2168 
*END

*D_NET *455 0.891967
*CONN
*P gpio_in[22] I
*I *921:gpio_in[22] I *D CF_CARAVEL_SOC
*CAP
1 gpio_in[22] 0.117304
2 *921:gpio_in[22] 0.00208764
3 *455:25 0.0136602
4 *455:23 0.0115726
5 *455:21 0.0205296
6 *455:19 0.0266138
7 *455:13 0.0249041
8 *455:11 0.0188199
9 *455:9 0.00503216
10 *455:7 0.00503216
11 *455:5 0.117304
12 *455:5 *712:7 0
13 *455:9 *542:51 0.0383113
14 *455:9 *543:43 0.0347235
15 *455:9 *720:9 0.00189869
16 *455:9 *807:15 0
17 *455:13 *543:39 0.00762386
18 *455:19 gpio_slow_sel[33] 0.000411317
19 *455:19 *543:37 0.000744956
20 *455:21 *470:11 0.077444
21 *455:21 *539:183 2.31209e-05
22 *455:21 *693:31 0.000262106
23 *455:21 *693:79 0.0100071
24 *455:21 *693:83 0.00176046
25 *455:21 *737:57 0.00719874
26 *455:21 *763:11 0.00858068
27 *455:25 *462:23 0.075801
28 *455:25 *481:23 0.00623466
29 *455:25 *544:13 0
30 *455:25 *547:13 3.72835e-05
31 *455:25 *749:27 0.0751166
32 gpio_analog_en[33] *455:19 0
33 gpio_ib_mode_sel[37] *455:21 0.000543522
34 *119:23 *455:25 0.00340344
35 *289:23 *455:25 0.000983104
36 *336:63 *455:25 0.00336609
37 *336:67 *455:21 0.000236044
38 *366:11 *455:21 0.0127516
39 *369:11 *455:21 1.36268e-05
40 *383:11 *455:21 0.008606
41 *390:11 *455:21 0.128346
42 *446:19 *455:21 0
43 *446:25 *455:21 0
44 *454:17 *455:13 0.0246794
*RES
1 gpio_in[22] *455:5 2658.75 
2 *455:5 *455:7 8 
3 *455:7 *455:9 69.8656 
4 *455:9 *455:11 8 
5 *455:11 *455:13 602.309 
6 *455:13 *455:19 29.9664 
7 *455:19 *455:21 1652.22 
8 *455:21 *455:23 15 
9 *455:23 *455:25 846.282 
10 *455:25 *921:gpio_in[22] 44.3004 
*END

*D_NET *456 0.794445
*CONN
*P gpio_in[23] I
*I *921:gpio_in[23] I *D CF_CARAVEL_SOC
*CAP
1 gpio_in[23] 0.00229409
2 *921:gpio_in[23] 0.00108057
3 *456:31 0.0143272
4 *456:29 0.0132466
5 *456:27 0.0220284
6 *456:25 0.0220284
7 *456:23 0.00228834
8 *456:21 0.00228834
9 *456:19 0.00197339
10 *456:17 0.00197339
11 *456:15 0.00312609
12 *456:13 0.00312609
13 *456:11 0.134716
14 *456:9 0.13701
15 *921:gpio_in[23] *839:173 0
16 *456:11 *539:281 0
17 *456:11 *539:287 0
18 *456:15 *544:29 0.00859979
19 *456:15 *690:11 1.46455e-05
20 *456:15 *705:17 0.000101159
21 *456:15 *716:9 0.000101159
22 *456:15 *732:6 0.00200963
23 *456:15 *735:11 0.000304683
24 *456:19 *831:27 0.0123063
25 *456:19 *836:11 0.00192611
26 *456:23 *544:21 0.00438316
27 *456:27 gpio_vtrip_sel[35] 0.000405131
28 *456:27 *736:23 0.00159527
29 *456:27 *768:11 0.0320997
30 *456:27 *803:11 0.0151437
31 *456:27 *821:13 0.00218494
32 *456:27 *832:15 0.00190593
33 *456:31 *459:25 0.00113161
34 *456:31 *460:23 4.05481e-05
35 *456:31 *543:11 0.00018352
36 *456:31 *548:11 7.36693e-05
37 *456:31 *771:27 0.00808647
38 *456:31 *842:11 0.0758757
39 gpio_dm1[35] *456:27 0.000693778
40 *204:33 *456:15 0.00273112
41 *250:35 *456:27 0.00303562
42 *251:27 *456:27 0.0302486
43 *295:27 *456:27 0.0115181
44 *296:23 *456:31 0.00291337
45 *322:409 *456:11 0.00628796
46 *368:11 *456:27 4.45392e-05
47 *373:11 *456:27 0.00115007
48 *375:27 *456:19 0.0123041
49 *384:11 *456:27 0.125285
50 *420:11 *456:27 0.00251242
51 *434:15 *456:31 0.0110943
52 *450:33 *456:31 0.0546468
*RES
1 gpio_in[23] *456:9 49.8489 
2 *456:9 *456:11 3076.7 
3 *456:11 *456:13 15 
4 *456:13 *456:15 127.828 
5 *456:15 *456:17 15 
6 *456:17 *456:19 157.201 
7 *456:19 *456:21 15 
8 *456:21 *456:23 49.6936 
9 *456:23 *456:25 15 
10 *456:25 *456:27 1615.78 
11 *456:27 *456:29 15 
12 *456:29 *456:31 857.716 
13 *456:31 *921:gpio_in[23] 30.4425 
*END

*D_NET *457 0.919677
*CONN
*P gpio_in[24] I
*I *921:gpio_in[24] I *D CF_CARAVEL_SOC
*CAP
1 gpio_in[24] 0.00448287
2 *921:gpio_in[24] 0.000498498
3 *457:23 0.0118961
4 *457:21 0.0139656
5 *457:11 0.125942
6 *457:9 0.127856
7 *457:9 gpio_slow_sel[24] 0
8 *457:11 *545:15 0.370862
9 *457:11 *693:91 0
10 *457:11 *769:11 0.0249458
11 *457:11 *817:11 0.00383927
12 *457:21 *458:21 0.0019565
13 *457:21 *467:15 0.00216253
14 *457:21 *550:21 0.0013655
15 *457:21 *557:27 0.000731247
16 *457:21 *829:27 7.45617e-05
17 *457:23 *458:23 0.0804607
18 *457:23 *866:17 0.0143315
19 *366:11 *457:11 0
20 *369:23 *457:11 0.0107523
21 *412:11 *457:11 0
22 *426:11 *457:11 0.00396649
23 *437:11 *457:11 0.00221903
24 *437:19 *457:11 0.0438126
25 *443:31 *457:23 0.0251443
26 *448:33 *457:23 0.039645
27 *451:25 *457:23 0.00876655
*RES
1 gpio_in[24] *457:9 18.6633 
2 *457:9 *457:11 4748.44 
3 *457:11 *457:21 41.6984 
4 *457:21 *457:23 862.004 
5 *457:23 *921:gpio_in[24] 22.6954 
*END

*D_NET *458 0.717359
*CONN
*P gpio_in[25] I
*I *921:gpio_in[25] I *D CF_CARAVEL_SOC
*CAP
1 gpio_in[25] 0.00685647
2 *921:gpio_in[25] 0.000467828
3 *458:23 0.0119778
4 *458:21 0.0123623
5 *458:11 0.112079
6 *458:9 0.118083
7 *458:9 gpio_slow_sel[25] 0
8 *458:11 *555:17 0
9 *458:11 *556:43 0
10 *458:11 *809:11 0
11 *458:21 *467:15 2.19134e-05
12 *458:21 *471:25 0.000363698
13 *458:21 *550:21 0.00149028
14 *458:21 *829:27 2.31765e-05
15 *458:21 *865:15 0
16 *458:23 *467:15 0.017257
17 *458:23 *557:19 0.0830396
18 gpio_analog_en[26] *458:11 0.000120707
19 *203:21 *458:11 0.00140071
20 *353:19 *458:11 0.0163818
21 *358:19 *458:11 0
22 *363:11 *458:11 0.190147
23 *374:11 *458:11 0.00937845
24 *380:11 *458:11 0.0003777
25 *385:11 *458:11 0.051313
26 *443:31 *458:23 0.00180085
27 *457:21 *458:21 0.0019565
28 *457:23 *458:23 0.0804607
*RES
1 gpio_in[25] *458:9 24.4351 
2 *458:9 *458:11 3868.79 
3 *458:11 *458:21 36.2975 
4 *458:21 *458:23 895.831 
5 *458:23 *921:gpio_in[25] 22.3432 
*END

*D_NET *459 0.735872
*CONN
*P gpio_in[26] I
*I *921:gpio_in[26] I *D CF_CARAVEL_SOC
*CAP
1 gpio_in[26] 0.000594937
2 *921:gpio_in[26] 0.00099813
3 *459:25 0.0127143
4 *459:23 0.0170154
5 *459:13 0.0962175
6 *459:11 0.0915133
7 *459:13 *466:11 0
8 *459:13 *553:25 0.0705278
9 *459:13 *559:31 0
10 *459:23 *460:21 0.00666275
11 *459:23 *466:15 0.00088657
12 *459:23 *468:27 2.73373e-05
13 *459:23 *470:15 0.000852428
14 *459:23 *554:23 0
15 *459:23 *749:23 2.26406e-05
16 *459:25 *460:23 0.0876473
17 *459:25 *842:11 0.0855239
18 gpio_analog_pol[26] *459:13 0.000878574
19 gpio_analog_pol[29] *459:13 0.000936406
20 gpio_analog_sel[30] *459:13 0.00120481
21 gpio_dm0[27] *459:13 0.00207832
22 gpio_dm0[31] *459:13 0.00248315
23 gpio_ib_mode_sel[26] *459:13 0.000653272
24 *117:43 *459:13 0.0464906
25 *163:35 *459:13 0
26 *193:63 *459:11 0.000397165
27 *193:63 *459:13 0.144578
28 *204:45 *459:13 0.0297004
29 *206:59 *459:13 0.00551045
30 *290:19 *459:13 0.00352898
31 *291:27 *459:13 0.000228692
32 *292:25 *459:23 0.000899753
33 *322:293 *459:13 0.00798704
34 *432:15 *459:25 0.01598
35 *456:31 *459:25 0.00113161
*RES
1 gpio_in[26] *459:11 19.7357 
2 *459:11 *459:13 3647.91 
3 *459:13 *459:23 48.808 
4 *459:23 *459:25 937.756 
5 *459:25 *921:gpio_in[26] 29.7382 
*END

*D_NET *460 0.733106
*CONN
*P gpio_in[27] I
*I *921:gpio_in[27] I *D CF_CARAVEL_SOC
*CAP
1 gpio_in[27] 0.00225939
2 *921:gpio_in[27] 0.000940247
3 *460:23 0.016041
4 *460:21 0.0177705
5 *460:11 0.081669
6 *460:9 0.0812587
7 *460:11 *550:23 0.22436
8 *460:11 *550:27 0.00197662
9 *460:11 *812:11 0.00959846
10 *460:21 *466:15 0.00665663
11 *460:21 *861:27 4.82477e-05
12 *460:23 *468:29 0.0191702
13 *460:23 *548:11 0.0505356
14 *460:23 *842:11 0.00182586
15 *284:51 *460:11 0.123898
16 *289:35 *460:11 0.00031152
17 *388:11 *460:21 4.60157e-05
18 *404:11 *460:11 0
19 *410:11 *460:11 0
20 *428:17 *460:23 0.000390211
21 *456:31 *460:23 4.05481e-05
22 *459:23 *460:21 0.00666275
23 *459:25 *460:23 0.0876473
*RES
1 gpio_in[27] *460:9 12.7721 
2 *460:9 *460:11 3432.83 
3 *460:11 *460:21 44.9527 
4 *460:21 *460:23 973.965 
5 *460:23 *921:gpio_in[27] 28.9096 
*END

*D_NET *461 0.782303
*CONN
*P gpio_in[28] I
*I *921:gpio_in[28] I *D CF_CARAVEL_SOC
*CAP
1 gpio_in[28] 0.00113249
2 *921:gpio_in[28] 0.00135637
3 *461:23 0.0161668
4 *461:21 0.0186919
5 *461:11 0.0637378
6 *461:9 0.0609889
7 *461:11 *547:25 0.2499
8 *461:11 *810:11 0.180615
9 *461:21 *472:11 0.000133124
10 *461:21 *547:23 0.0011013
11 *461:21 *559:27 0.00229419
12 *461:21 *855:15 0
13 *461:23 *545:11 0.0948975
14 *461:23 *780:13 0.0109932
15 *238:15 *461:23 0.0146481
16 *238:25 *461:21 0.00263427
17 *248:33 *461:21 0.000152253
18 *294:23 *461:21 3.72204e-05
19 *339:23 *461:21 0.00282058
20 *340:39 *461:23 0.0054727
21 *429:19 *461:23 0.000571506
22 *439:11 *461:11 0
23 *447:17 *461:11 0
24 *449:41 *461:23 0.0539585
*RES
1 gpio_in[28] *461:9 10.5807 
2 *461:9 *461:11 3217.32 
3 *461:11 *461:21 47.821 
4 *461:21 *461:23 1014.94 
5 *461:23 *921:gpio_in[28] 35.3518 
*END

*D_NET *462 0.773862
*CONN
*P gpio_in[29] I
*I *921:gpio_in[29] I *D CF_CARAVEL_SOC
*CAP
1 gpio_in[29] 0.00181818
2 *921:gpio_in[29] 0.00199162
3 *462:23 0.0153551
4 *462:21 0.0165976
5 *462:11 0.0496557
6 *462:9 0.0482397
7 *462:11 *548:23 0.231573
8 *462:11 *554:25 0.0343783
9 *462:11 *811:11 0.16267
10 *462:21 *464:21 0.0015137
11 *462:21 *472:11 0.00461844
12 *462:21 *547:23 0.00101052
13 *462:21 *553:21 0
14 *462:21 *827:17 0.000111172
15 *462:23 *464:23 0.0975895
16 *462:23 *481:23 0.00719797
17 *462:23 *749:27 0.012606
18 *119:23 *462:23 0.00632975
19 *248:33 *462:21 0.000220423
20 *289:23 *462:23 0.00038436
21 *289:33 *462:21 9.12913e-05
22 *336:63 *462:23 0.00388618
23 *447:17 *462:11 0
24 *453:47 *462:21 0.000222655
25 *455:25 *462:23 0.075801
*RES
1 gpio_in[29] *462:9 11.9135 
2 *462:9 *462:11 2996.88 
3 *462:11 *462:21 47.4177 
4 *462:21 *462:23 1050.67 
5 *462:23 *921:gpio_in[29] 43.9482 
*END

*D_NET *463 0.809939
*CONN
*P gpio_in[2] I
*I *921:gpio_in[2] I *D CF_CARAVEL_SOC
*CAP
1 gpio_in[2] 0.00812279
2 *921:gpio_in[2] 0.000270496
3 *463:15 0.037187
4 *463:13 0.0369165
5 *463:11 0.0123319
6 *463:9 0.0204547
7 *463:11 *474:11 0.056241
8 *463:15 *557:19 0.00213432
9 *463:15 *739:62 0.00302713
10 *463:15 *840:19 0.00450554
11 *125:11 *463:11 0
12 *265:13 *463:11 0.0008496
13 *293:15 *463:15 0.277045
14 *309:11 *463:11 0.000466944
15 *313:9 *463:9 0
16 *315:9 *463:9 0
17 *320:13 *463:11 0.00087541
18 *346:15 *463:15 0.0111983
19 *350:11 *463:11 0.000219712
20 *408:23 *463:15 0.0359882
21 *441:15 *463:15 0.261226
22 *441:19 *463:15 0.00221341
23 *442:15 *463:15 0.000412444
24 *452:11 *463:11 0.0382526
*RES
1 gpio_in[2] *463:9 26.0983 
2 *463:9 *463:11 716.58 
3 *463:11 *463:13 15 
4 *463:13 *463:15 2968.77 
5 *463:15 *921:gpio_in[2] 20.5825 
*END

*D_NET *464 0.72384
*CONN
*P gpio_in[30] I
*I *921:gpio_in[30] I *D CF_CARAVEL_SOC
*CAP
1 gpio_in[30] 0.00309457
2 *921:gpio_in[30] 0.00196658
3 *464:23 0.0149979
4 *464:21 0.015538
5 *464:11 0.0579102
6 *464:9 0.0584981
7 *464:11 *541:111 0
8 *464:11 *549:25 0.215646
9 *464:11 *690:23 0.0120856
10 *464:11 *772:11 0.118393
11 *464:21 *749:23 4.5745e-05
12 *464:21 *827:17 0.000105065
13 *464:21 *827:19 0.000175785
14 *464:23 *481:23 0.0071814
15 *464:23 *749:27 0.00116197
16 *464:23 *838:11 0.00807676
17 *289:23 *464:23 0.100793
18 *289:33 *464:21 0.0010098
19 *336:63 *464:21 0.0041711
20 *336:63 *464:23 0.00388618
21 *402:11 *464:11 0
22 *462:21 *464:21 0.0015137
23 *462:23 *464:23 0.0975895
*RES
1 gpio_in[30] *464:9 14.2393 
2 *464:9 *464:11 2777.14 
3 *464:11 *464:21 43.7505 
4 *464:21 *464:23 1076.87 
5 *464:23 *921:gpio_in[30] 43.5961 
*END

*D_NET *465 0.63528
*CONN
*P gpio_in[31] I
*I *921:gpio_in[31] I *D CF_CARAVEL_SOC
*CAP
1 gpio_in[31] 0.00375325
2 *921:gpio_in[31] 0.00190743
3 *465:23 0.0147179
4 *465:21 0.0158114
5 *465:11 0.0775466
6 *465:9 0.078299
7 *465:11 *472:15 0
8 *465:11 *541:111 0
9 *465:11 *737:41 0.00934506
10 *465:11 *773:11 0.100441
11 *465:11 *822:13 0
12 *465:21 *542:15 0
13 *465:21 *553:21 0.00630808
14 *465:21 *860:15 0.000272322
15 *465:21 *864:11 1.08293e-05
16 *465:21 *868:11 0.000124215
17 *465:23 *547:13 0.102017
18 *465:23 *838:11 0.0223454
19 *119:23 *465:21 0.0003425
20 *162:27 *465:11 0.00209074
21 *207:49 *465:21 0.0048244
22 *249:27 *465:11 0.092142
23 *289:23 *465:23 0.102023
24 *289:33 *465:21 0.00058737
25 *336:63 *465:21 1.14075e-05
26 *353:29 *465:21 0.000339312
27 *388:21 *465:21 7.62058e-06
28 *396:11 *465:11 0
29 *402:11 *465:11 0
30 *435:21 *465:21 1.28232e-05
*RES
1 gpio_in[31] *465:9 15.6543 
2 *465:9 *465:11 2555.29 
3 *465:11 *465:21 49.7534 
4 *465:21 *465:23 1089.26 
5 *465:23 *921:gpio_in[31] 42.8918 
*END

*D_NET *466 0.609713
*CONN
*P gpio_in[32] I
*I *921:gpio_in[32] I *D CF_CARAVEL_SOC
*CAP
1 gpio_in[32] 0.000667691
2 *921:gpio_in[32] 0.000827266
3 *466:15 0.024126
4 *466:13 0.0232987
5 *466:11 0.037709
6 *466:9 0.0383767
7 *466:11 *557:31 0.0447517
8 *466:11 *559:31 0.0563345
9 *466:11 *693:47 0.00228212
10 *466:11 *693:55 0
11 *466:11 *731:18 0.00631341
12 *466:15 *468:27 9.49799e-05
13 *466:15 *468:29 0.000523023
14 *466:15 *469:15 0.111181
15 *466:15 *479:15 0.0195507
16 *466:15 *548:21 0.00245384
17 *466:15 *858:11 0.0017396
18 *163:35 *466:11 0.0812973
19 *193:63 *466:11 0
20 *244:19 *466:11 0.00588065
21 *286:41 *466:11 0.000161588
22 *291:27 *466:11 0.000106208
23 *292:15 *466:15 0.0140755
24 *325:167 *466:11 0.00394616
25 *378:11 *466:11 0
26 *431:15 *466:15 0.107716
27 *452:15 *466:15 0.018756
28 *459:13 *466:11 0
29 *459:23 *466:15 0.00088657
30 *460:21 *466:15 0.00665663
*RES
1 gpio_in[32] *466:9 9.52787 
2 *466:9 *466:11 1874.95 
3 *466:11 *466:13 8 
4 *466:13 *466:15 223.223 
5 *466:15 *921:gpio_in[32] 20.6771 
*END

*D_NET *467 0.61228
*CONN
*P gpio_in[33] I
*I *921:gpio_in[33] I *D CF_CARAVEL_SOC
*CAP
1 gpio_in[33] 0.00783777
2 *921:gpio_in[33] 0.000453349
3 *467:15 0.0213392
4 *467:13 0.0208859
5 *467:11 0.0213683
6 *467:9 0.0292061
7 *467:11 *552:25 0.129438
8 *467:11 *735:23 0.0746825
9 *467:11 *815:11 0.000251239
10 *467:11 *848:23 0.0133968
11 *467:11 *863:23 0.000885376
12 *467:15 *471:25 8.49971e-05
13 *467:15 *471:27 0.106422
14 *467:15 *557:19 0.0145641
15 *467:15 *557:27 0.000380707
16 *467:15 *793:25 0.000221494
17 *467:15 *839:215 2.43685e-05
18 *467:15 *858:21 0.00289129
19 *467:15 *866:17 0.109343
20 *293:15 *467:15 0.00115505
21 *408:21 *467:15 0.0028247
22 *408:23 *467:15 0.000504634
23 *419:11 *467:11 0.00626802
24 *421:11 *467:11 0.00996307
25 *430:21 *467:15 0.000319492
26 *436:11 *467:11 0.00274057
27 *436:19 *467:11 0.00353938
28 *451:21 *467:11 0.011847
29 *457:21 *467:15 0.00216253
30 *458:21 *467:15 2.19134e-05
31 *458:23 *467:15 0.017257
*RES
1 gpio_in[33] *467:9 23.1881 
2 *467:9 *467:11 1647.47 
3 *467:11 *467:13 8 
4 *467:13 *467:15 215.324 
5 *467:15 *921:gpio_in[33] 15.5193 
*END

*D_NET *468 0.554544
*CONN
*P gpio_in[34] I
*I *921:gpio_in[34] I *D CF_CARAVEL_SOC
*CAP
1 gpio_in[34] 0.00924783
2 *921:gpio_in[34] 0.000946239
3 *468:29 0.0210603
4 *468:27 0.0205821
5 *468:11 0.0297352
6 *468:9 0.0385151
7 *468:9 gpio_slow_sel[34] 0
8 *468:11 *543:31 0.0392464
9 *468:11 *558:25 0.0741501
10 *468:11 *732:10 0.00403056
11 *468:11 *766:11 0.00180105
12 *468:11 *787:11 0.00425435
13 *468:11 *859:23 0.0140288
14 *468:11 *862:23 0.000291305
15 *468:27 *548:11 6.18635e-05
16 *468:27 *749:23 0.000122784
17 *468:29 *470:15 0.000135696
18 *468:29 *548:11 0.00498902
19 *468:29 *771:27 0.00384778
20 *248:35 *468:11 0
21 *292:25 *468:27 1.91712e-05
22 *292:25 *468:29 0.000704535
23 *358:17 *468:9 0.000524591
24 *364:19 *468:11 0.0236084
25 *364:27 *468:11 0.0102859
26 *413:11 *468:11 0.0006447
27 *418:11 *468:11 0.00356163
28 *431:15 *468:29 0.114182
29 *432:15 *468:29 0.114151
30 *459:23 *468:27 2.73373e-05
31 *460:23 *468:29 0.0191702
32 *466:15 *468:27 9.49799e-05
33 *466:15 *468:29 0.000523023
*RES
1 gpio_in[34] *468:9 26.5257 
2 *468:9 *468:11 1422.27 
3 *468:11 *468:27 44.7788 
4 *468:27 *468:29 218.372 
5 *468:29 *921:gpio_in[34] 22.5621 
*END

*D_NET *469 0.453071
*CONN
*P gpio_in[35] I
*I *921:gpio_in[35] I *D CF_CARAVEL_SOC
*CAP
1 gpio_in[35] 0.0055912
2 *921:gpio_in[35] 0.000779126
3 *469:15 0.0303371
4 *469:13 0.029558
5 *469:11 0.0334074
6 *469:9 0.0389986
7 *469:9 *767:17 5.10545e-05
8 *469:9 *777:15 0.00657309
9 *469:11 *539:159 0
10 *469:11 *733:10 0.00408931
11 *469:11 *753:11 0.00763229
12 *469:11 *803:11 0.00634851
13 *469:11 *832:19 0
14 *469:15 *479:15 0.00185506
15 *469:15 *548:21 0.00121439
16 *469:15 *737:117 0.00129216
17 *469:15 *771:23 0.000724936
18 *469:15 *815:39 0.00331526
19 *469:15 *815:49 0.00774976
20 *469:15 *839:157 0.00706147
21 *469:15 *839:173 0.00715244
22 *469:15 *839:187 0.00328489
23 *469:15 *839:193 0.000135504
24 *469:15 *839:197 0.00412287
25 *469:15 *839:205 0.000157577
26 *469:15 *839:215 0.0065427
27 *469:15 *846:13 0.00224146
28 *469:15 *846:37 0.00155297
29 *469:15 *858:11 0.00762531
30 *250:35 *469:11 0.0748625
31 *292:15 *469:15 0.000263267
32 *293:25 *469:15 0.00103284
33 *295:15 *469:15 0.0248291
34 *295:27 *469:11 0.00605353
35 *364:37 *469:15 9.0213e-05
36 *386:65 *469:15 0.00194411
37 *387:11 *469:11 0
38 *420:11 *469:11 0.00648527
39 *431:15 *469:15 0.00479325
40 *452:15 *469:15 0.00214168
41 *466:15 *469:15 0.111181
*RES
1 gpio_in[35] *469:9 22.1988 
2 *469:9 *469:11 1202.36 
3 *469:11 *469:13 8 
4 *469:13 *469:15 229.148 
5 *469:15 *921:gpio_in[35] 20.4493 
*END

*D_NET *470 0.415567
*CONN
*P gpio_in[36] I
*I *921:gpio_in[36] I *D CF_CARAVEL_SOC
*CAP
1 gpio_in[36] 0.00525699
2 *921:gpio_in[36] 0.00107992
3 *470:15 0.0397259
4 *470:13 0.038646
5 *470:11 0.0263161
6 *470:9 0.0315731
7 *470:11 *693:83 0.00335889
8 *470:15 *543:11 0.0273349
9 *470:15 *543:21 9.0213e-05
10 *470:15 *739:104 0.000485334
11 *470:15 *771:27 0.0161685
12 *470:15 *847:16 0.0153618
13 *470:15 *847:24 0.000538012
14 *165:23 *470:15 0.00324969
15 *292:25 *470:15 0.00073434
16 *295:25 *470:15 0.00350866
17 *296:23 *470:15 0.0580489
18 *383:11 *470:11 0.00264204
19 *390:21 *470:15 0.000498938
20 *432:15 *470:15 0.00046221
21 *434:15 *470:15 0.0616773
22 *446:19 *470:11 0
23 *449:51 *470:15 0.000377234
24 *455:21 *470:11 0.077444
25 *459:23 *470:15 0.000852428
26 *468:29 *470:15 0.000135696
*RES
1 gpio_in[36] *470:9 18.514 
2 *470:9 *470:11 984.736 
3 *470:11 *470:13 8 
4 *470:13 *470:15 238.679 
5 *470:15 *921:gpio_in[36] 24.675 
*END

*D_NET *471 0.446398
*CONN
*P gpio_in[37] I
*I *921:gpio_in[37] I *D CF_CARAVEL_SOC
*CAP
1 gpio_in[37] 0.00797199
2 *921:gpio_in[37] 0.000394611
3 *471:27 0.0213452
4 *471:25 0.0233997
5 *471:11 0.0199843
6 *471:9 0.0255072
7 *921:gpio_in[37] *539:61 0
8 *921:gpio_in[37] *826:43 0
9 *471:9 gpio_slow_sel[37] 0.00548534
10 *471:9 *833:9 0
11 *471:11 *737:73 0
12 *471:11 *749:11 0
13 *471:11 *826:11 0.000340272
14 *471:11 *846:39 0.00383909
15 *471:11 *852:27 0.0254162
16 *471:11 *864:15 0.0152652
17 *471:25 *826:21 0.000331988
18 *471:25 *840:19 0.00335338
19 *471:25 *858:21 1.70415e-05
20 *471:25 *867:21 0.000594634
21 *471:27 *557:19 0.00737153
22 *471:27 *866:17 0.0041329
23 *293:15 *471:27 0.00523966
24 *341:18 *471:27 0.00467198
25 *386:11 *471:11 0.00779408
26 *386:25 *471:25 0
27 *408:23 *471:25 9.0547e-05
28 *408:23 *471:27 0.119479
29 *430:21 *471:25 0.000981354
30 *441:19 *471:27 0.000935628
31 *442:15 *471:27 0.0159799
32 *448:21 *471:11 0.00189588
33 *448:31 *471:25 4.82958e-05
34 *449:29 *471:11 0.0173657
35 *454:47 *471:25 0.000294422
36 *458:21 *471:25 0.000363698
37 *467:15 *471:25 8.49971e-05
38 *467:15 *471:27 0.106422
*RES
1 gpio_in[37] *471:9 27.9481 
2 *471:9 *471:11 744.575 
3 *471:11 *471:25 36.8568 
4 *471:25 *471:27 226.143 
5 *471:27 *921:gpio_in[37] 14.3386 
*END

*D_NET *472 0.607788
*CONN
*P gpio_in[38] I
*I *921:gpio_in[38] I *D CF_CARAVEL_SOC
*I *920:clk I *D counter_macro
*CAP
1 gpio_in[38] 0.00208705
2 *921:gpio_in[38] 8.90122e-05
3 *920:clk 2.78087e-05
4 *472:55 0.0228526
5 *472:53 0.0244283
6 *472:43 0.00292504
7 *472:41 0.00289723
8 *472:39 0.00647108
9 *472:37 0.0072824
10 *472:27 0.00294385
11 *472:25 0.00783272
12 *472:15 0.052373
13 *472:13 0.0466728
14 *472:11 0.0164265
15 *472:9 0.0164265
16 *472:7 0.00375177
17 *472:11 *547:23 0.00113824
18 *472:11 *558:23 0.000993717
19 *472:11 *693:163 0.00146008
20 *472:11 *827:17 3.73024e-05
21 *472:11 *827:19 0.0629803
22 *472:11 *852:11 0.00066638
23 *472:15 *546:25 0
24 *472:15 *693:71 0.0151
25 *472:15 *802:11 0.0598269
26 *472:25 *737:39 0.00451577
27 *472:25 *754:11 0.000125151
28 *472:25 *802:11 0.000146456
29 *472:27 *544:25 0.0122429
30 *472:27 *737:27 0.00146689
31 *472:27 *831:27 0
32 *472:27 *836:11 0.00179503
33 *472:37 *732:6 0.0031227
34 *472:37 *733:6 0.00312583
35 *472:39 *732:6 0.0127939
36 *472:39 *735:21 0.00840261
37 *472:39 *737:9 0.0341302
38 *472:55 gpio_out[39] 0.00677829
39 *472:55 *539:63 2.36641e-05
40 *472:55 *541:35 0
41 *472:55 *693:187 0
42 *472:55 *826:27 0.0123504
43 *472:55 *826:43 0.000340525
44 *472:55 *840:19 0.015325
45 gpio_analog_sel[33] *472:25 0.000624743
46 *206:51 *472:27 0.0110995
47 *249:27 *472:15 0
48 *293:15 *472:55 0.00300081
49 *294:23 *472:11 0.0112982
50 *322:167 *472:55 0.000575401
51 *322:175 *472:55 6.25481e-06
52 *322:255 *472:11 0.00028042
53 *322:257 *472:11 0.000600844
54 *322:301 *472:25 0.000146456
55 *338:63 *472:55 0.0036061
56 *339:23 *472:11 0.0108803
57 *364:39 *472:11 0.000734201
58 *375:27 *472:27 0.000143762
59 *386:45 *472:11 0.0024056
60 *387:9 *472:25 0.00522942
61 *390:23 *472:11 0.00574082
62 *396:11 *472:15 0.0166577
63 *396:11 *472:25 0.000111122
64 *397:75 *472:55 0
65 *397:79 *472:55 0.0116483
66 *409:11 *472:15 0.0251972
67 *419:23 *472:55 0.00232362
68 *444:63 *472:55 0.0117637
69 *444:71 *472:55 0.00437688
70 *450:41 *472:55 0.000209093
71 *461:21 *472:11 0.000133124
72 *462:21 *472:11 0.00461844
73 *465:11 *472:15 0
*RES
1 gpio_in[38] *472:7 29.8182 
2 *472:7 *472:9 8 
3 *472:9 *472:11 128.427 
4 *472:11 *472:13 8 
5 *472:13 *472:15 1615.78 
6 *472:15 *472:25 32.5573 
7 *472:25 *472:27 162.835 
8 *472:27 *472:37 32.2387 
9 *472:37 *472:39 64.456 
10 *472:39 *472:41 8 
11 *472:41 *472:43 52.2621 
12 *472:43 *920:clk 0.310714 
13 *472:7 *472:53 31.3864 
14 *472:53 *472:55 125.636 
15 *472:55 *921:gpio_in[38] 9.48107 
*END

*D_NET *473 0.0409393
*CONN
*P gpio_in[39] I
*I *921:gpio_in[39] I *D CF_CARAVEL_SOC
*CAP
1 gpio_in[39] 0.000876629
2 *921:gpio_in[39] 0.00273164
3 *473:15 0.00578562
4 *473:11 0.00393061
5 *921:gpio_in[39] *839:139 2.63253e-05
6 *473:15 *783:15 0.00501533
7 *473:15 *784:13 0.0163457
8 *473:15 *825:23 0.00622749
*RES
1 gpio_in[39] *473:11 20.7289 
2 *473:11 *473:15 38.8821 
3 *473:15 *921:gpio_in[39] 40.745 
*END

*D_NET *474 0.688503
*CONN
*P gpio_in[3] I
*I *921:gpio_in[3] I *D CF_CARAVEL_SOC
*CAP
1 gpio_in[3] 0.00805332
2 *921:gpio_in[3] 0.00117776
3 *474:15 0.064272
4 *474:13 0.0630942
5 *474:11 0.0156706
6 *474:9 0.0237239
7 *474:11 *571:31 0.0758391
8 *474:15 *480:15 0.268175
9 *474:15 *539:101 0.00267844
10 *474:15 *543:11 0
11 *474:15 *559:19 0.00218954
12 *474:15 *771:27 0
13 *474:15 *780:13 0.000354353
14 *474:15 *847:16 0.000378691
15 *474:15 *852:19 0.00428136
16 *92:9 *474:9 8.37749e-05
17 *93:9 *474:9 0
18 *125:11 *474:11 0
19 *169:15 *474:15 0.000350498
20 *209:15 *474:15 0.0113156
21 *213:15 *474:15 0.0163025
22 *265:13 *474:11 0.00103652
23 *294:15 *474:15 0.00024201
24 *309:11 *474:11 0.000483734
25 *314:17 *474:9 0.000161602
26 *314:19 *474:11 1.61501e-05
27 *320:13 *474:11 0.00106801
28 *322:75 *474:15 0.001119
29 *336:11 *474:11 0
30 *338:71 *474:15 0.00804965
31 *351:11 *474:11 0.00267953
32 *386:207 *474:15 1.08507e-05
33 *434:23 *474:15 0.0591991
34 *452:11 *474:11 0.000255069
35 *463:11 *474:11 0.056241
*RES
1 gpio_in[3] *474:9 25.8481 
2 *474:9 *474:11 966.601 
3 *474:11 *474:13 15 
4 *474:13 *474:15 2935.9 
5 *474:15 *921:gpio_in[3] 33.2389 
*END

*D_NET *475 0.0240469
*CONN
*P gpio_in[40] I
*I *921:gpio_in[40] I *D CF_CARAVEL_SOC
*CAP
1 gpio_in[40] 0.0027575
2 *921:gpio_in[40] 0.00277593
3 *475:13 0.00553343
4 *475:13 *477:11 0.000847052
5 *475:13 *783:15 0.00732354
6 *475:13 *784:13 0.0031886
7 *335:25 *475:13 0.00162084
*RES
1 gpio_in[40] *475:13 43.1096 
2 *475:13 *921:gpio_in[40] 41.4493 
*END

*D_NET *476 0.0778449
*CONN
*P gpio_in[41] I
*I *921:gpio_in[41] I *D CF_CARAVEL_SOC
*CAP
1 gpio_in[41] 0.00261646
2 *921:gpio_in[41] 0.000238752
3 *476:19 0.0057884
4 *476:15 0.00822619
5 *476:11 0.005293
6 *476:11 *477:11 0.0113731
7 *476:11 *563:14 0.0113762
8 *476:15 *784:19 3.06286e-05
9 *476:19 *529:9 0.0104633
10 *476:19 *539:55 0.00431513
11 *476:19 *540:16 0.00089539
12 *476:19 *556:11 0.00140257
13 *476:19 *840:19 0.00975904
14 *322:167 *476:19 0.00431515
15 *338:63 *476:19 0.000166209
16 *397:79 *476:19 0.00158552
*RES
1 gpio_in[41] *476:11 42.8907 
2 *476:11 *476:15 46.8807 
3 *476:15 *476:19 45.2363 
4 *476:19 *921:gpio_in[41] 11.9979 
*END

*D_NET *477 0.116318
*CONN
*P gpio_in[42] I
*I *921:gpio_in[42] I *D CF_CARAVEL_SOC
*CAP
1 gpio_in[42] 0.000879846
2 *921:gpio_in[42] 0.00275445
3 *477:11 0.0178698
4 *477:9 0.0159952
5 *477:11 *541:19 0.000718568
6 *477:11 *546:13 0.00612639
7 *477:11 *552:13 0.00541951
8 *477:11 *561:18 0.000730314
9 *477:11 *563:14 0.00783747
10 *477:11 *564:13 0.0235752
11 *477:11 *783:15 0.000448371
12 *477:11 *784:13 0.0164388
13 *477:11 *843:11 0.00530432
14 *475:13 *477:11 0.000847052
15 *476:11 *477:11 0.0113731
*RES
1 gpio_in[42] *477:9 20.5632 
2 *477:9 *477:11 104.126 
3 *477:11 *921:gpio_in[42] 48.745 
*END

*D_NET *478 0.177744
*CONN
*P gpio_in[43] I
*I *921:gpio_in[43] I *D CF_CARAVEL_SOC
*CAP
1 gpio_in[43] 0.000624347
2 *921:gpio_in[43] 9.74221e-05
3 *478:13 0.00293218
4 *478:9 0.0177266
5 *478:7 0.0155162
6 *478:9 *560:27 0.000404801
7 *478:9 *561:18 0.0788551
8 gpio_analog_en[40] *478:13 0
9 *299:27 *478:13 0
10 *300:27 *478:9 4.40645e-05
11 *345:23 *478:9 0.00637072
12 *433:10 *478:9 0.0551723
*RES
1 gpio_in[43] *478:7 17.4354 
2 *478:7 *478:9 149.121 
3 *478:9 *478:13 49.6979 
4 *478:13 *921:gpio_in[43] 1.86429 
*END

*D_NET *479 0.900928
*CONN
*P gpio_in[4] I
*I *921:gpio_in[4] I *D CF_CARAVEL_SOC
*CAP
1 gpio_in[4] 0.00747224
2 *921:gpio_in[4] 0.000781455
3 *479:15 0.0360579
4 *479:13 0.0352764
5 *479:11 0.0161722
6 *479:9 0.0236444
7 *479:11 *480:11 0.0937393
8 *479:11 *571:31 0.0856235
9 *479:15 *484:15 0.255283
10 *479:15 *548:11 0.00899026
11 *178:9 *479:9 0.00126525
12 *220:9 *479:9 0.000763148
13 *265:13 *479:11 0.00132831
14 *299:23 *479:15 0.031029
15 *309:11 *479:11 0.000708185
16 *314:19 *479:11 0
17 *320:13 *479:11 0.00136866
18 *352:11 *479:11 0.00432954
19 *431:15 *479:15 0.00432129
20 *452:15 *479:15 0.271369
21 *466:15 *479:15 0.0195507
22 *469:15 *479:15 0.00185506
*RES
1 gpio_in[4] *479:9 25.6241 
2 *479:9 *479:11 1195.14 
3 *479:11 *479:13 15 
4 *479:13 *479:15 2899.69 
5 *479:15 *921:gpio_in[4] 27.0246 
*END

*D_NET *480 0.947915
*CONN
*P gpio_in[5] I
*I *921:gpio_in[5] I *D CF_CARAVEL_SOC
*CAP
1 gpio_in[5] 0.00793855
2 *921:gpio_in[5] 0.00103955
3 *480:15 0.0353935
4 *480:13 0.034354
5 *480:11 0.0189504
6 *480:9 0.026889
7 *480:11 *534:15 0.111245
8 *480:11 *571:31 0.000255128
9 *480:11 *699:10 0.0118249
10 *480:15 *847:16 0.038571
11 *169:15 *480:15 0.00012144
12 *173:9 *480:9 0.00215745
13 *174:9 *480:9 0
14 *178:15 *480:9 4.34222e-05
15 *213:15 *480:15 0.0190299
16 *265:13 *480:11 0.00151492
17 *284:11 *480:11 0
18 *294:15 *480:15 0.265944
19 *309:11 *480:11 0.000779695
20 *314:19 *480:11 0
21 *320:13 *480:11 0.0015612
22 *335:39 *921:gpio_in[5] 0
23 *335:43 *921:gpio_in[5] 0.000288337
24 *338:77 *921:gpio_in[5] 0.000318064
25 *352:11 *480:11 0.00725057
26 *386:207 *480:15 0.00053091
27 *474:15 *480:15 0.268175
28 *479:11 *480:11 0.0937393
*RES
1 gpio_in[5] *480:9 26.4567 
2 *480:9 *480:11 1431.08 
3 *480:11 *480:13 15 
4 *480:13 *480:15 2864.91 
5 *480:15 *921:gpio_in[5] 34.0675 
*END

*D_NET *481 0.964894
*CONN
*P gpio_in[6] I
*I *921:gpio_in[6] I *D CF_CARAVEL_SOC
*CAP
1 gpio_in[6] 0.00510042
2 *921:gpio_in[6] 0.00203484
3 *481:23 0.00900354
4 *481:21 0.00711934
5 *481:15 0.0312517
6 *481:13 0.031101
7 *481:11 0.0336581
8 *481:9 0.0387586
9 *921:gpio_in[6] *693:117 0
10 *921:gpio_in[6] *737:127 0
11 *481:11 *535:121 0
12 *481:15 *482:15 0.000227822
13 *481:15 *547:13 0.173091
14 *481:15 *749:27 0
15 *481:15 *837:11 0.0490976
16 *481:23 *838:11 0.0331022
17 *119:15 *481:15 0.000350337
18 *119:23 *481:23 0.0163888
19 *133:11 *481:11 0.0122228
20 *137:11 *481:11 0.00282158
21 *166:11 *481:11 0.000306877
22 *174:11 *481:11 0.000231929
23 *181:11 *481:11 0.00170146
24 *224:19 *481:11 0
25 *289:23 *481:23 0.00622031
26 *307:11 *481:11 0.0956604
27 *327:39 *481:11 0.0055796
28 *336:15 *481:15 0.0598175
29 *375:51 *481:11 0.00398951
30 *391:43 *481:11 0
31 *435:27 *481:11 0.0914901
32 *445:23 *481:15 0.233952
33 *455:25 *481:23 0.00623466
34 *462:23 *481:23 0.00719797
35 *464:23 *481:23 0.0071814
*RES
1 gpio_in[6] *481:9 18.3927 
2 *481:9 *481:11 1675.46 
3 *481:11 *481:13 15 
4 *481:13 *481:15 2527.12 
5 *481:15 *481:21 24.7296 
6 *481:21 *481:23 62.5669 
7 *481:23 *921:gpio_in[6] 36.7721 
*END

*D_NET *482 1.0929
*CONN
*P gpio_in[7] I
*I *921:gpio_in[7] I *D CF_CARAVEL_SOC
*CAP
1 gpio_in[7] 0.00146821
2 *921:gpio_in[7] 0.00173071
3 *482:15 0.038219
4 *482:13 0.0364883
5 *482:11 0.0454584
6 *482:9 0.0469266
7 *921:gpio_in[7] *839:205 0.00010853
8 *482:9 *790:15 0
9 *482:15 *483:23 0.0157409
10 *482:15 *558:13 0.234496
11 *482:15 *827:19 0.0223551
12 *120:11 *482:11 0
13 *229:11 *482:11 0.00505263
14 *262:11 *482:11 0.185928
15 *268:11 *482:11 0.164495
16 *297:14 *482:15 0.0256358
17 *364:39 *482:15 0.268463
18 *445:23 *482:15 0.000105038
19 *481:15 *482:15 0.000227822
*RES
1 gpio_in[7] *482:9 11.1836 
2 *482:9 *482:11 2595.61 
3 *482:11 *482:13 15 
4 *482:13 *482:15 2875.39 
5 *482:15 *921:gpio_in[7] 40.4268 
*END

*D_NET *483 0.985751
*CONN
*P gpio_in[8] I
*I *921:gpio_in[8] I *D CF_CARAVEL_SOC
*CAP
1 gpio_in[8] 0.00788695
2 *921:gpio_in[8] 0.00181701
3 *483:23 0.0370711
4 *483:21 0.0352541
5 *483:19 0.0266786
6 *483:17 0.027639
7 *483:11 0.0680069
8 *483:9 0.0749335
9 *483:11 *534:15 0
10 *483:11 *701:15 0
11 *483:11 *788:27 0
12 *483:19 *572:28 0.00802245
13 *483:19 *672:15 0
14 *483:19 *683:15 0.00937761
15 *483:19 *698:23 0
16 *483:23 *555:13 0.221695
17 *483:23 *558:13 0.231327
18 *483:23 *828:15 0.0267102
19 *99:11 *483:11 0.0585567
20 *102:11 *483:19 0.000185018
21 *117:11 *483:11 0
22 *119:11 *483:19 0.0824349
23 *153:19 *483:11 0.000281986
24 *280:19 *483:11 0.00680126
25 *297:14 *483:23 0.0242082
26 *316:11 *483:11 0
27 *317:11 *483:11 0
28 *319:11 *483:11 0
29 *445:23 *483:23 0.0211225
30 *482:15 *483:23 0.0157409
*RES
1 gpio_in[8] *483:9 27.0577 
2 *483:9 *483:11 1774.77 
3 *483:11 *483:17 44.9143 
4 *483:17 *483:19 1050.59 
5 *483:19 *483:21 15 
6 *483:21 *483:23 2773.44 
7 *483:23 *921:gpio_in[8] 40.9861 
*END

*D_NET *484 1.17138
*CONN
*P gpio_in[9] I
*I *921:gpio_in[9] I *D CF_CARAVEL_SOC
*CAP
1 gpio_in[9] 0.00539755
2 *921:gpio_in[9] 0.000862654
3 *484:15 0.0364565
4 *484:13 0.0355938
5 *484:11 0.046997
6 *484:9 0.0523945
7 *484:9 *792:15 0
8 *484:15 *548:11 0.198891
9 *135:11 *484:11 0.024401
10 *155:11 *484:11 0.00810632
11 *165:15 *484:15 0.000763288
12 *188:11 *484:11 0.000171422
13 *225:19 *484:11 0
14 *256:15 *484:15 0.0215827
15 *287:11 *484:11 0.000242841
16 *299:23 *484:15 0.00514171
17 *304:11 *484:11 0.00214822
18 *310:11 *484:11 0.184369
19 *338:19 *484:15 0.0316541
20 *349:11 *484:11 0.000648203
21 *431:15 *484:15 0.021418
22 *444:11 *484:11 0.238767
23 *452:15 *484:15 9.06073e-05
24 *479:15 *484:15 0.255283
*RES
1 gpio_in[9] *484:9 20.6103 
2 *484:9 *484:11 3047.06 
3 *484:11 *484:13 15 
4 *484:13 *484:15 2755.81 
5 *484:15 *921:gpio_in[9] 27.8532 
*END

*D_NET *529 0.390165
*CONN
*P gpio_inp_dis[0] O
*I *921:gpio_inp_dis[0] O *D CF_CARAVEL_SOC
*CAP
1 gpio_inp_dis[0] 0.00146364
2 *921:gpio_inp_dis[0] 9.12637e-05
3 *529:13 0.00595051
4 *529:11 0.00448687
5 *529:9 0.0429847
6 *529:7 0.043076
7 *529:9 *531:12 0.00548476
8 *529:9 *531:16 0.000275717
9 *529:9 *532:24 0.00843157
10 *529:9 *536:11 0.0169551
11 *529:9 *536:19 0.000114879
12 *529:9 *536:29 0.003268
13 *529:9 *536:63 0
14 *529:9 *537:10 0.00474935
15 *529:9 *537:14 0.00032096
16 *529:9 *538:11 0.000440406
17 *529:9 *540:16 0.00657902
18 *529:9 *540:22 0.0170287
19 *529:9 *541:27 0.000793681
20 *529:9 *556:11 0.0200171
21 *529:9 *557:11 0.00502749
22 *529:9 *559:11 0.00159626
23 *529:9 *560:11 0.00131744
24 *529:9 *561:12 0.00418437
25 *529:9 *562:119 0
26 *529:9 *563:8 0.00168209
27 *529:9 *567:12 0.000761049
28 *529:9 *567:14 0.00522697
29 *529:9 *568:11 0.00459671
30 *529:9 *569:14 0.00510531
31 *529:9 *570:14 0.000368865
32 *529:9 *571:17 0.00749227
33 *529:9 *572:16 0.00369545
34 *529:9 *572:26 0
35 *529:9 *697:109 1.96267e-05
36 *529:9 *740:79 0.00832837
37 *529:9 *815:49 0
38 *529:9 *840:19 0.00573968
39 *529:13 *749:31 0.020223
40 gpio_analog_en[0] *529:13 0.000216438
41 gpio_analog_pol[0] gpio_inp_dis[0] 0.00199656
42 gpio_analog_sel[43] *529:9 0.00995016
43 *118:23 *529:9 0
44 *120:11 *529:13 0
45 *125:15 *529:9 0.00366293
46 *322:159 *529:9 0.0169459
47 *322:167 *529:9 0.00310736
48 *338:45 *529:9 0.00165306
49 *338:63 *529:9 0.00296914
50 *346:15 *529:9 0.00245198
51 *353:35 *529:13 0.000318311
52 *397:79 *529:9 0.00975556
53 *397:177 *529:13 0.021802
54 *408:97 *529:9 0
55 *419:111 *529:9 0
56 *444:15 *529:9 0.0440931
57 *444:35 *529:9 0.00290161
58 *476:19 *529:9 0.0104633
*RES
1 *921:gpio_inp_dis[0] *529:7 9.48107 
2 *529:7 *529:9 288.611 
3 *529:9 *529:11 8 
4 *529:11 *529:13 288.198 
5 *529:13 gpio_inp_dis[0] 12.0945 
*END

*D_NET *530 0.728364
*CONN
*P gpio_inp_dis[10] O
*I *921:gpio_inp_dis[10] O *D CF_CARAVEL_SOC
*CAP
1 gpio_inp_dis[10] 0.00570905
2 *921:gpio_inp_dis[10] 0.000929902
3 *530:113 0.0970322
4 *530:111 0.0913232
5 *530:109 0.0068125
6 *530:107 0.0068125
7 *530:105 0.000645644
8 *530:93 0.00433588
9 *530:91 0.00369023
10 *530:89 0.00132517
11 *530:77 0.0027373
12 *530:75 0.00157117
13 *530:69 0.00312844
14 *530:55 0.00562363
15 *530:53 0.0034429
16 *530:43 0.00253481
17 *530:41 0.00185269
18 *530:35 0.00191307
19 *530:27 0.00262472
20 *530:25 0.000916554
21 *530:19 0.00405029
22 *530:11 0.00488182
23 *530:11 *539:35 0
24 *530:11 *562:35 0
25 *530:11 *569:14 0
26 *530:19 *533:14 0.000271138
27 *530:19 *540:16 0.0011425
28 *530:19 *551:43 9.47182e-05
29 *530:19 *696:145 0.000751334
30 *530:25 *551:49 0.000104454
31 *530:25 *562:49 2.05503e-05
32 *530:27 *562:51 0.0058198
33 *530:27 *696:119 6.17437e-06
34 *530:27 *826:63 1.03836e-05
35 *530:35 *535:27 0.000109334
36 *530:35 *535:33 4.76467e-05
37 *530:35 *540:16 0.00105153
38 *530:35 *551:69 9.18156e-06
39 *530:35 *551:77 0.0100354
40 *530:35 *562:59 3.33144e-05
41 *530:35 *696:129 1.6873e-05
42 *530:41 *551:77 3.04012e-05
43 *530:41 *696:113 8.51333e-05
44 *530:43 *533:54 0
45 *530:43 *535:33 0.000850155
46 *530:43 *535:37 9.88574e-06
47 *530:43 *551:79 0.00741793
48 *530:43 *551:91 0.000728715
49 *530:43 *696:103 2.812e-05
50 *530:43 *740:135 0.00194094
51 *530:53 *551:91 0.000901448
52 *530:53 *740:133 4.53345e-05
53 *530:53 *740:135 0.00111963
54 *530:55 *535:65 0.000237143
55 *530:55 *551:95 2.23336e-05
56 *530:55 *562:91 0.00881433
57 *530:55 *740:123 0
58 *530:55 *740:133 0.00326169
59 *530:55 *741:140 0.000980308
60 *530:55 *826:95 2.32004e-05
61 *530:69 *535:75 7.50435e-05
62 *530:69 *535:93 0.00203797
63 *530:69 *536:35 0.000574467
64 *530:69 *562:105 0.000127077
65 *530:69 *826:109 2.85501e-06
66 *530:69 *826:117 0.00726659
67 *530:75 *533:92 0.000140797
68 *530:75 *535:93 2.67855e-05
69 *530:75 *562:105 5.79413e-06
70 *530:77 *533:94 2.92911e-06
71 *530:77 *535:95 9.88574e-06
72 *530:77 *537:46 0.000213872
73 *530:77 *551:111 1.21972e-05
74 *530:77 *562:109 2.18506e-05
75 *530:77 *696:89 0
76 *530:89 *535:109 0.00638641
77 *530:89 *551:119 1.28726e-05
78 *530:89 *551:121 2.24814e-05
79 *530:93 *535:113 0.0114883
80 *530:93 *551:121 0.00038178
81 *530:105 *551:121 0.00430027
82 *530:113 *567:18 0.0390661
83 *530:113 *831:75 0.00334194
84 gpio_analog_pol[10] gpio_inp_dis[10] 0
85 gpio_analog_sel[10] gpio_inp_dis[10] 0
86 gpio_analog_sel[43] *530:89 0.000518324
87 gpio_analog_sel[43] *530:105 0.000476724
88 gpio_dm0[10] gpio_inp_dis[10] 0
89 *93:11 *530:113 0.184881
90 *98:11 *530:113 0
91 *101:11 *530:113 0
92 *118:115 *530:11 0.00209571
93 *130:11 *530:113 0.00125901
94 *144:11 *530:113 0.000948145
95 *179:11 *530:113 0.0549079
96 *207:19 *530:113 0
97 *223:11 *530:113 0.00166408
98 *247:11 *530:113 0
99 *254:11 *530:113 0.000254406
100 *270:15 *530:113 0.00127529
101 *274:39 *530:113 0.000181815
102 *288:57 *530:113 0.00180931
103 *288:59 *530:113 0.0034029
104 *322:47 *530:93 0.00467054
105 *342:11 *530:113 0.000208957
106 *386:155 *530:35 0.000441137
107 *386:175 *530:43 7.43025e-06
108 *397:95 *530:27 0.00581889
109 *397:111 *530:43 0.00559692
110 *397:151 *530:77 0.000101302
111 *397:159 *530:77 0.00170534
112 *397:173 *530:105 3.52728e-05
113 *408:53 *530:43 0.00188263
114 *408:61 *530:55 0.00103236
115 *408:63 *530:55 0.00890127
116 *408:79 *530:77 0.00774218
117 *419:87 *530:19 0.0119439
118 *419:93 *530:25 2.26406e-05
119 *419:111 *530:35 0.0101557
120 *419:119 *530:43 1.56762e-05
121 *419:135 *530:55 1.21972e-05
122 *419:159 *530:77 0.00973249
123 *419:173 *530:89 0.00642343
124 *419:189 *530:105 0.00430867
125 *419:193 *530:109 0.0184975
126 *444:35 *530:69 0
*RES
1 *921:gpio_inp_dis[10] *530:11 41.9389 
2 *530:11 *530:19 49.8509 
3 *530:19 *530:25 24.7296 
4 *530:25 *530:27 64.4629 
5 *530:27 *530:35 43.7709 
6 *530:35 *530:41 25.0818 
7 *530:41 *530:43 104.721 
8 *530:43 *530:53 24.2875 
9 *530:53 *530:55 141.168 
10 *530:55 *530:69 42.412 
11 *530:69 *530:75 26.4904 
12 *530:75 *530:77 110.2 
13 *530:77 *530:89 44.6042 
14 *530:89 *530:91 15 
15 *530:91 *530:93 125.922 
16 *530:93 *530:105 40.2163 
17 *530:105 *530:107 15 
18 *530:107 *530:109 204.056 
19 *530:109 *530:111 15 
20 *530:111 *530:113 3297.79 
21 *530:113 gpio_inp_dis[10] 21.5697 
*END

*D_NET *531 0.682939
*CONN
*P gpio_inp_dis[11] O
*I *921:gpio_inp_dis[11] O *D CF_CARAVEL_SOC
*CAP
1 gpio_inp_dis[11] 0.00377997
2 *921:gpio_inp_dis[11] 0.00399643
3 *531:28 0.10566
4 *531:26 0.10188
5 *531:24 0.0107822
6 *531:22 0.0109659
7 *531:16 0.00842812
8 *531:14 0.00824438
9 *531:12 0.00399643
10 *531:12 *532:12 0.011808
11 *531:12 *539:23 0
12 *531:12 *540:16 0.00304936
13 *531:12 *541:27 0.00162515
14 *531:12 *551:43 0
15 *531:12 *567:14 0.00306814
16 *531:12 *568:11 0.00264884
17 *531:12 *572:16 0.00187625
18 *531:16 *532:24 0.00145575
19 *531:16 *536:11 0.00272431
20 *531:16 *537:14 0.0182389
21 *531:16 *538:19 0.000756566
22 *531:16 *538:27 0.00455202
23 *531:16 *538:33 0.000391994
24 *531:16 *540:22 0.00344538
25 *531:16 *556:11 0.00239173
26 *531:16 *570:14 0.0100821
27 *531:16 *840:19 0.000204427
28 *531:24 *534:11 0.0280599
29 *531:24 *793:27 0
30 *531:28 *692:23 0.0202124
31 gpio_analog_pol[11] gpio_inp_dis[11] 0.00111259
32 *94:19 *531:28 0
33 *114:11 *531:28 0
34 *118:85 *531:16 0.000318899
35 *123:15 *531:24 0.010226
36 *169:11 *531:28 0
37 *242:11 *531:28 0
38 *293:15 *531:16 0.0139366
39 *313:11 *531:28 0.222531
40 *322:115 *531:16 0.00256442
41 *322:153 *531:12 2.05503e-05
42 *337:11 *531:28 0
43 *338:35 *531:12 0.000343173
44 *442:15 *531:24 0.0516984
45 *443:31 *531:24 0.000101462
46 *529:9 *531:12 0.00548476
47 *529:9 *531:16 0.000275717
*RES
1 *921:gpio_inp_dis[11] *531:12 47.3359 
2 *531:12 *531:14 15 
3 *531:14 *531:16 457.04 
4 *531:16 *531:22 32.61 
5 *531:22 *531:24 589.964 
6 *531:24 *531:26 15 
7 *531:26 *531:28 3541.12 
8 *531:28 gpio_inp_dis[11] 17.1495 
*END

*D_NET *532 0.768741
*CONN
*P gpio_inp_dis[12] O
*I *921:gpio_inp_dis[12] O *D CF_CARAVEL_SOC
*CAP
1 gpio_inp_dis[12] 0.00464434
2 *921:gpio_inp_dis[12] 0.00318449
3 *532:36 0.106444
4 *532:34 0.1018
5 *532:32 0.00806889
6 *532:30 0.00840182
7 *532:24 0.00229092
8 *532:16 0.00778533
9 *532:14 0.00582735
10 *532:12 0.00318449
11 *532:12 *533:14 0.000340243
12 *532:12 *535:19 0.000277095
13 *532:12 *539:23 0
14 *532:12 *540:16 0.00311286
15 *532:12 *551:43 0
16 *532:12 *562:43 0
17 *532:12 *826:47 0.000481385
18 *532:12 *826:59 0
19 *532:16 *537:10 0.000575807
20 *532:16 *569:18 0.00181968
21 *532:16 *696:95 0.00402631
22 *532:24 *537:20 0.000284015
23 *532:30 *740:107 7.03663e-05
24 *532:32 *536:63 0.00278052
25 *532:32 *540:34 0.0472968
26 *532:32 *569:18 0.0486031
27 *532:32 *826:127 0.00141577
28 *532:36 *568:15 0.00014615
29 gpio_analog_pol[12] gpio_inp_dis[12] 0.000242342
30 gpio_analog_sel[43] *532:24 0.00226846
31 gpio_dm0[12] gpio_inp_dis[12] 0
32 *118:23 *532:32 0.00463061
33 *118:61 *532:16 0.00144098
34 *118:75 *532:16 0.00412512
35 *118:99 *532:16 0.00760813
36 *125:15 *532:16 0.000752308
37 *129:11 *532:36 0.000129945
38 *136:11 *532:36 0.0357339
39 *139:11 *532:36 0
40 *162:11 *532:36 0
41 *171:13 *532:36 0.00196638
42 *225:19 *532:36 0
43 *232:11 *532:36 0.00179308
44 *259:11 *532:36 0.0137034
45 *266:11 *532:36 0.223575
46 *312:19 *532:36 0
47 *315:11 *532:36 0.0291584
48 *325:39 *532:16 0.0067023
49 *325:63 *532:16 2.47321e-05
50 *338:35 *532:12 0.00134604
51 *338:35 *532:16 0.00107405
52 *346:15 *532:24 0.00234797
53 *397:91 *532:12 0.000363181
54 *419:197 *532:36 0.0179455
55 *444:35 *532:30 7.1459e-05
56 *444:39 *532:16 0.00834392
57 *444:55 *532:16 0.0188366
58 *529:9 *532:24 0.00843157
59 *531:12 *532:12 0.011808
60 *531:16 *532:24 0.00145575
*RES
1 *921:gpio_inp_dis[12] *532:12 38.6885 
2 *532:12 *532:14 15 
3 *532:14 *532:16 386.052 
4 *532:16 *532:24 42.5349 
5 *532:24 *532:30 28.9554 
6 *532:30 *532:32 561.854 
7 *532:32 *532:34 15 
8 *532:34 *532:36 3767.9 
9 *532:36 gpio_inp_dis[12] 19.2177 
*END

*D_NET *533 0.612659
*CONN
*P gpio_inp_dis[13] O
*I *921:gpio_inp_dis[13] O *D CF_CARAVEL_SOC
*CAP
1 gpio_inp_dis[13] 0.00303469
2 *921:gpio_inp_dis[13] 0.00207896
3 *533:202 0.00566877
4 *533:194 0.00394411
5 *533:188 0.00578912
6 *533:182 0.130692
7 *533:180 0.126213
8 *533:178 0.00632647
9 *533:170 0.0154276
10 *533:164 0.00942894
11 *533:158 0.00175727
12 *533:156 0.00202062
13 *533:144 0.00351765
14 *533:130 0.0092863
15 *533:128 0.00770338
16 *533:122 0.0284747
17 *533:120 0.0324487
18 *533:114 0.00705841
19 *533:112 0.0017408
20 *533:110 0.00498275
21 *533:108 0.00547839
22 *533:102 0.00145184
23 *533:100 0.00128899
24 *533:94 0.00309245
25 *533:92 0.00450942
26 *533:84 0.00243602
27 *533:76 0.000870689
28 *533:70 0.0011765
29 *533:68 0.00128878
30 *533:62 0.00317177
31 *533:54 0.00439886
32 *533:52 0.00229688
33 *533:48 0.00125506
34 *533:42 0.00456844
35 *533:34 0.00477408
36 *533:30 0.00286166
37 *533:14 0.004253
38 *533:14 *539:33 0.00201171
39 *533:14 *540:16 0.000555301
40 *533:14 *551:43 0
41 *533:14 *696:145 4.35362e-05
42 *533:30 *535:19 0
43 *533:30 *539:23 0
44 *533:30 *539:33 0.000119478
45 *533:30 *540:16 0.000398702
46 *533:30 *551:51 0.000568119
47 *533:30 *551:61 0.000182581
48 *533:30 *696:145 0.00197549
49 *533:30 *826:63 0.000406541
50 *533:34 *696:119 2.4754e-05
51 *533:34 *826:63 0.00186881
52 *533:42 *541:11 0.0017987
53 *533:42 *541:15 0
54 *533:42 *696:113 0.00226619
55 *533:42 *696:129 3.52303e-05
56 *533:42 *740:163 0.000582883
57 *533:42 *740:167 0
58 *533:48 *562:65 1.96391e-05
59 *533:48 *696:113 0
60 *533:52 *535:33 0.000333052
61 *533:52 *569:18 0
62 *533:52 *696:103 0.000492178
63 *533:52 *740:147 0.00129573
64 *533:54 *569:18 0
65 *533:54 *740:145 0.00300087
66 *533:54 *740:147 0.000673559
67 *533:62 *535:57 0.000896541
68 *533:62 *740:141 0.00020786
69 *533:62 *826:91 1.65299e-05
70 *533:68 *562:89 2.95119e-05
71 *533:70 *551:95 0.00746921
72 *533:70 *740:123 0.00747091
73 *533:84 *537:24 0.000369036
74 *533:84 *826:109 0.000220782
75 *533:92 *535:93 0.000799214
76 *533:92 *537:34 0.00143537
77 *533:92 *562:105 8.66845e-05
78 *533:94 *535:95 0.00851781
79 *533:94 *562:109 1.21972e-05
80 *533:94 *740:107 0
81 *533:94 *826:119 0
82 *533:102 *826:127 0.000102375
83 *533:110 *535:113 0.000205127
84 *533:110 *551:121 0.00287158
85 *533:110 *696:71 0.0119205
86 *533:114 *537:78 0.00195186
87 *533:114 *697:103 0.00606943
88 *533:120 *697:101 0
89 *533:122 *536:79 0.000383182
90 *533:122 *696:53 0.000149504
91 *533:122 *697:87 0
92 *533:122 *741:88 9.62148e-05
93 *533:122 *742:106 0.000841277
94 *533:122 *742:108 0
95 *533:128 *538:93 0
96 *533:128 *741:88 0
97 *533:128 *742:106 0
98 *533:130 *536:107 6.57607e-05
99 *533:130 *537:86 0.0104931
100 *533:130 *538:95 0.00996014
101 *533:130 *538:119 0
102 *533:130 *695:51 0.000303681
103 *533:130 *695:55 0.000161156
104 *533:144 *536:107 0.000830264
105 *533:144 *537:86 0
106 *533:144 *537:100 0.000578016
107 *533:144 *695:51 0.00102744
108 *533:144 *697:73 0.00126577
109 *533:144 *741:60 0
110 *533:144 *742:80 0.00297069
111 *533:156 *537:86 7.5177e-05
112 *533:156 *537:102 2.13985e-05
113 *533:156 *538:119 0.000138735
114 *533:156 *695:35 0
115 *533:156 *697:61 0.00136
116 *533:156 *741:60 0.00060258
117 *533:158 *538:123 0.00439787
118 *533:158 *741:46 0.000728857
119 *533:158 *742:64 0.00144608
120 *533:164 *536:119 9.17033e-05
121 *533:170 *536:121 0.000483753
122 *533:170 *536:129 0.00121291
123 *533:170 *537:108 0
124 *533:170 *537:114 0.00032882
125 *533:170 *538:133 0.00366202
126 *533:170 *538:137 0.000836046
127 *533:170 *697:37 0
128 *533:170 *742:52 0
129 *533:170 *742:64 0
130 *533:178 *536:141 0.000448878
131 *533:178 *538:137 0.000184361
132 *533:178 *538:139 0.0046676
133 *533:178 *695:35 0
134 *533:178 *696:23 0.000494127
135 *533:178 *697:11 0.00150337
136 gpio_analog_en[13] *533:202 0
137 gpio_analog_pol[13] gpio_inp_dis[13] 0.000410663
138 gpio_dm0[13] *533:202 0.00277506
139 *93:11 *533:202 0
140 *118:37 *533:108 0
141 *118:39 *533:102 0.000639148
142 *118:69 *533:62 0.00167621
143 *125:15 *533:102 0.00276441
144 *138:11 *533:202 0
145 *322:63 *533:102 0.00452007
146 *322:85 *533:92 0.00317379
147 *322:89 *533:84 0.000619133
148 *322:95 *533:84 0.00166266
149 *322:105 *533:68 0.000512245
150 *322:105 *533:70 0.00149235
151 *322:111 *533:62 0.00820332
152 *325:49 *533:54 0.000822638
153 *336:31 *533:54 0.00026354
154 *338:33 *533:42 9.01265e-05
155 *338:35 *533:14 0.000123437
156 *386:149 *533:14 0
157 *386:183 *533:62 4.35362e-05
158 *397:95 *533:30 0.000292906
159 *397:103 *533:42 0
160 *408:75 *533:92 0.00212152
161 *408:95 *533:94 0.000218012
162 *419:87 *533:30 1.41966e-05
163 *419:95 *533:30 0.000358942
164 *419:117 *533:48 0.000186804
165 *419:131 *533:62 3.87221e-06
166 *419:131 *533:68 0
167 *419:155 *533:92 2.10832e-05
168 *444:23 *533:102 0.00101144
169 *530:19 *533:14 0.000271138
170 *530:43 *533:54 0
171 *530:75 *533:92 0.000140797
172 *530:77 *533:94 2.92911e-06
173 *532:12 *533:14 0.000340243
*RES
1 *921:gpio_inp_dis[13] *533:14 42.2488 
2 *533:14 *533:30 39.4794 
3 *533:30 *533:34 36.1079 
4 *533:34 *533:42 47.902 
5 *533:42 *533:48 32.1246 
6 *533:48 *533:52 24.9296 
7 *533:52 *533:54 58.0311 
8 *533:54 *533:62 47.7997 
9 *533:62 *533:68 30.0118 
10 *533:68 *533:70 82.0907 
11 *533:70 *533:76 32.9621 
12 *533:76 *533:84 49.6696 
13 *533:84 *533:92 41.8827 
14 *533:92 *533:94 94.4779 
15 *533:94 *533:100 35.4271 
16 *533:100 *533:102 64.4629 
17 *533:102 *533:108 37.8921 
18 *533:108 *533:110 154.984 
19 *533:110 *533:112 15 
20 *533:112 *533:114 77.0882 
21 *533:114 *533:120 33.7875 
22 *533:120 *533:122 105.665 
23 *533:122 *533:128 20.6928 
24 *533:128 *533:130 59.9685 
25 *533:130 *533:144 47.8629 
26 *533:144 *533:156 20.3736 
27 *533:156 *533:158 56.4879 
28 *533:158 *533:164 17.0435 
29 *533:164 *533:170 49.4699 
30 *533:170 *533:178 49.6 
31 *533:178 *533:180 8 
32 *533:180 *533:182 475.929 
33 *533:182 *533:188 32.156 
34 *533:188 *533:194 43.1818 
35 *533:194 *533:202 44.9332 
36 *533:202 gpio_inp_dis[13] 27.7269 
*END

*D_NET *534 0.735762
*CONN
*P gpio_inp_dis[14] O
*I *921:gpio_inp_dis[14] O *D CF_CARAVEL_SOC
*CAP
1 gpio_inp_dis[14] 0.00502208
2 *921:gpio_inp_dis[14] 0.000410589
3 *534:15 0.183679
4 *534:13 0.178657
5 *534:11 0.0186814
6 *534:9 0.019092
7 *534:11 *557:19 0.0321936
8 *534:15 *699:10 0.00254461
9 *534:15 *744:15 0.022541
10 gpio_analog_en[14] gpio_inp_dis[14] 0
11 gpio_analog_pol[14] gpio_inp_dis[14] 0.00693724
12 *91:11 *534:15 0.0404441
13 *97:11 *534:15 0
14 *99:11 *534:15 0
15 *107:11 *534:15 0
16 *152:11 *534:15 0.0024804
17 *160:11 *534:15 0
18 *212:11 *534:15 0
19 *265:13 *534:15 0.000312229
20 *274:11 *534:15 0
21 *284:11 *534:15 0
22 *309:11 *534:15 0.00344596
23 *314:19 *534:15 0
24 *341:18 *534:11 0.0169832
25 *352:11 *534:15 0.00298355
26 *442:15 *534:11 0.00549478
27 *443:31 *534:11 0.0545535
28 *480:11 *534:15 0.111245
29 *483:11 *534:15 0
30 *531:24 *534:11 0.0280599
*RES
1 *921:gpio_inp_dis[14] *534:9 20.9139 
2 *534:9 *534:11 1047.33 
3 *534:11 *534:13 15 
4 *534:13 *534:15 4698.96 
5 *534:15 gpio_inp_dis[14] 43.3644 
*END

*D_NET *535 0.953759
*CONN
*P gpio_inp_dis[15] O
*I *921:gpio_inp_dis[15] O *D CF_CARAVEL_SOC
*CAP
1 gpio_inp_dis[15] 1.7995e-05
2 *921:gpio_inp_dis[15] 0.000888567
3 *535:125 0.00762401
4 *535:123 0.00760602
5 *535:121 0.126972
6 *535:119 0.126972
7 *535:117 0.00811835
8 *535:115 0.00819647
9 *535:113 0.00282761
10 *535:111 0.00274949
11 *535:109 0.00131718
12 *535:95 0.00277749
13 *535:93 0.00473221
14 *535:75 0.00358421
15 *535:65 0.00184042
16 *535:57 0.00640177
17 *535:37 0.00513783
18 *535:33 0.00539598
19 *535:27 0.00583807
20 *535:19 0.00159482
21 *535:19 *539:23 0
22 *535:19 *540:16 0.000242349
23 *535:27 *539:11 6.19043e-05
24 *535:27 *696:129 0.000124169
25 *535:27 *696:135 0
26 *535:33 *540:16 0.00158031
27 *535:33 *551:77 0.010113
28 *535:33 *551:79 0.000981511
29 *535:33 *562:59 0.0102025
30 *535:33 *562:67 0.000385652
31 *535:33 *696:103 0.000850155
32 *535:33 *740:147 0.000605086
33 *535:33 *826:79 0.000586255
34 *535:37 *551:79 1.41077e-05
35 *535:37 *562:79 0.00192441
36 *535:37 *740:145 1.40958e-05
37 *535:57 *540:22 0.000975159
38 *535:57 *551:91 0.0016713
39 *535:57 *562:79 2.11066e-05
40 *535:57 *562:89 0.00238538
41 *535:57 *740:141 8.28923e-05
42 *535:57 *741:154 0.000106969
43 *535:57 *741:160 0.00215599
44 *535:57 *826:91 0.000886082
45 *535:65 *562:89 2.37336e-05
46 *535:65 *562:91 0.000268074
47 *535:65 *741:140 0.00595101
48 *535:65 *741:154 0
49 *535:65 *826:95 0.000170857
50 *535:75 *562:105 2.58697e-05
51 *535:75 *826:109 0.00186288
52 *535:75 *826:117 7.20213e-06
53 *535:93 *536:47 0.000158983
54 *535:93 *537:34 0.000169386
55 *535:93 *551:107 0.00142425
56 *535:93 *562:105 0.00179582
57 *535:93 *826:117 0.00222892
58 *535:95 *551:111 0.00973068
59 *535:95 *562:109 2.18506e-05
60 *535:109 *551:119 8.37392e-05
61 *535:109 *551:121 0.00639465
62 *535:113 *537:58 4.64105e-05
63 *535:113 *551:121 0.000215788
64 *535:113 *696:71 0.000137698
65 *535:117 *551:121 0.0031349
66 *535:121 *568:15 0
67 gpio_analog_pol[15] gpio_inp_dis[15] 0
68 gpio_analog_sel[43] *535:65 0.000643171
69 gpio_analog_sel[43] *535:93 0.00211262
70 gpio_analog_sel[43] *535:109 0.000248765
71 *94:11 *535:121 0.00309916
72 *96:15 *535:125 0.00292479
73 *100:11 *535:121 0.000877193
74 *104:27 *535:121 0.000781908
75 *113:11 *535:121 0.00107434
76 *113:19 *535:121 0.0112524
77 *118:69 *535:57 0.000174588
78 *122:13 *535:121 0.000559343
79 *161:13 *535:121 0.00227807
80 *176:11 *535:121 0.0046053
81 *177:11 *535:121 0.00299638
82 *181:11 *535:121 0.0101764
83 *182:19 *535:121 0.256612
84 *202:25 *535:121 0.000521056
85 *215:13 *535:121 0.000122544
86 *260:19 *535:121 0.0732925
87 *288:11 *535:121 0.00915516
88 *299:17 *535:117 0.000136743
89 *307:11 *535:121 0
90 *312:19 *535:121 0.000250694
91 *322:47 *535:113 0.00202274
92 *322:85 *535:93 0.000158983
93 *322:95 *535:65 7.14436e-05
94 *322:105 *535:65 0.00748499
95 *322:111 *535:57 0.000712599
96 *322:123 *535:33 0
97 *325:57 *535:33 3.84366e-05
98 *326:11 *535:121 0.076758
99 *336:39 *535:33 0
100 *386:155 *535:27 0.00103692
101 *386:159 *535:33 0.00107704
102 *386:183 *535:57 0.000174588
103 *386:201 *535:93 0.000153782
104 *397:103 *535:33 2.80036e-05
105 *397:111 *535:33 0.000750604
106 *397:117 *535:33 4.97925e-05
107 *397:125 *535:37 0.00188263
108 *397:133 *535:57 0.00196302
109 *397:135 *535:75 0.00182795
110 *397:147 *535:93 0.00123065
111 *397:171 *535:95 0.000116409
112 *408:45 *535:33 0.000196651
113 *408:61 *535:57 0.00145203
114 *408:63 *535:65 0.000209378
115 *408:75 *535:93 0.000919695
116 *408:95 *535:95 0.000116058
117 *419:111 *535:27 5.62433e-06
118 *419:111 *535:33 3.52728e-05
119 *419:119 *535:33 0.000663997
120 *419:131 *535:57 0.00125479
121 *419:131 *535:65 3.13462e-06
122 *419:135 *535:65 0.00111026
123 *419:139 *535:65 0.000330956
124 *419:155 *535:93 0.0011271
125 *419:173 *535:109 6.35951e-05
126 *419:177 *535:113 0.0114883
127 *419:189 *535:113 0.000601598
128 *419:193 *535:117 0.0199165
129 *444:35 *535:93 0
130 *444:51 *535:57 0.000107043
131 *481:11 *535:121 0
132 *530:35 *535:27 0.000109334
133 *530:35 *535:33 4.76467e-05
134 *530:43 *535:33 0.000850155
135 *530:43 *535:37 9.88574e-06
136 *530:55 *535:65 0.000237143
137 *530:69 *535:75 7.50435e-05
138 *530:69 *535:93 0.00203797
139 *530:75 *535:93 2.67855e-05
140 *530:77 *535:95 9.88574e-06
141 *530:89 *535:109 0.00638641
142 *530:93 *535:113 0.0114883
143 *532:12 *535:19 0.000277095
144 *533:30 *535:19 0
145 *533:52 *535:33 0.000333052
146 *533:62 *535:57 0.000896541
147 *533:92 *535:93 0.000799214
148 *533:94 *535:95 0.00851781
149 *533:110 *535:113 0.000205127
*RES
1 *921:gpio_inp_dis[15] *535:19 39.1524 
2 *535:19 *535:27 44.8846 
3 *535:27 *535:33 38.8771 
4 *535:33 *535:37 36.5843 
5 *535:37 *535:57 44.6249 
6 *535:57 *535:65 38.8248 
7 *535:65 *535:75 43.9271 
8 *535:75 *535:93 44.7518 
9 *535:93 *535:95 107.818 
10 *535:95 *535:109 44.8735 
11 *535:109 *535:111 15 
12 *535:111 *535:113 155.699 
13 *535:113 *535:115 1.55357 
14 *535:115 *535:117 236.215 
15 *535:117 *535:119 15 
16 *535:119 *535:121 4874.51 
17 *535:121 *535:123 15 
18 *535:123 *535:125 156.652 
19 *535:125 gpio_inp_dis[15] 15.2486 
*END

*D_NET *536 0.815595
*CONN
*P gpio_inp_dis[16] O
*I *921:gpio_inp_dis[16] O *D CF_CARAVEL_SOC
*CAP
1 gpio_inp_dis[16] 4.71097e-05
2 *921:gpio_inp_dis[16] 0.00412903
3 *536:245 0.00310706
4 *536:243 0.00305995
5 *536:241 0.0016153
6 *536:239 0.0016153
7 *536:237 0.00212496
8 *536:235 0.00363027
9 *536:231 0.00213927
10 *536:225 0.0064891
11 *536:223 0.00655661
12 *536:217 0.00285802
13 *536:215 0.00215654
14 *536:213 0.00476713
15 *536:211 0.00476713
16 *536:209 0.00261203
17 *536:207 0.00381802
18 *536:203 0.00176646
19 *536:197 0.00427747
20 *536:195 0.00437002
21 *536:189 0.00441503
22 *536:187 0.00487779
23 *536:183 0.00197479
24 *536:177 0.00544032
25 *536:175 0.00528279
26 *536:169 0.00691893
27 *536:167 0.00621745
28 *536:165 0.00312689
29 *536:163 0.00312689
30 *536:161 0.00833059
31 *536:159 0.00909192
32 *536:153 0.0584655
33 *536:151 0.0578668
34 *536:145 0.015683
35 *536:143 0.0155203
36 *536:141 0.00233215
37 *536:129 0.00448896
38 *536:127 0.00239865
39 *536:121 0.00328964
40 *536:119 0.00555344
41 *536:107 0.00615228
42 *536:89 0.0261622
43 *536:87 0.0234192
44 *536:81 0.0062713
45 *536:79 0.0072777
46 *536:71 0.00696802
47 *536:65 0.0103971
48 *536:63 0.0101082
49 *536:59 0.00484443
50 *536:51 0.000348327
51 *536:47 0.00373433
52 *536:41 0.00383718
53 *536:35 0.00363212
54 *536:33 0.0034666
55 *536:29 0.00180845
56 *536:19 0.00195135
57 *536:11 0.00448225
58 *536:11 *538:19 0.000138791
59 *536:11 *538:27 0.000951506
60 *536:11 *538:33 0.000104089
61 *536:11 *539:15 0
62 *536:11 *540:16 0.00191874
63 *536:11 *570:14 0.0017728
64 *536:11 *840:19 0.00810096
65 *536:19 *542:9 0
66 *536:19 *556:11 0.00126805
67 *536:19 *568:11 0.000710607
68 *536:29 *562:89 0
69 *536:29 *567:14 0.00185121
70 *536:29 *568:11 0.0015442
71 *536:29 *572:16 0.00184292
72 *536:29 *741:162 0
73 *536:35 *537:24 2.80924e-06
74 *536:35 *540:34 0.00540067
75 *536:35 *569:18 0.0147338
76 *536:35 *826:109 0
77 *536:41 *537:34 0.000209313
78 *536:47 *537:34 0.000147024
79 *536:47 *537:40 0.000298437
80 *536:51 *540:34 0.00200785
81 *536:51 *826:119 0.00200446
82 *536:59 *562:117 3.28227e-05
83 *536:63 *540:34 0.00321013
84 *536:63 *562:119 0.0207602
85 *536:63 *569:18 0.00245493
86 *536:63 *697:109 0.00259369
87 *536:63 *826:119 0.000831332
88 *536:63 *826:127 0.00152238
89 *536:65 *696:59 0
90 *536:71 *696:59 0
91 *536:79 *696:53 0.00215909
92 *536:81 *538:79 0.0155094
93 *536:81 *695:55 0.00280348
94 *536:87 *538:85 0
95 *536:89 *538:87 0
96 *536:89 *696:35 0.0274119
97 *536:89 *741:74 0.00316897
98 *536:107 *537:86 0.00107007
99 *536:107 *538:119 0.000166921
100 *536:107 *695:51 0.000172002
101 *536:107 *697:61 0.00185377
102 *536:107 *741:72 0.000149816
103 *536:107 *742:80 0
104 *536:119 *695:35 0.00422828
105 *536:119 *695:51 0.00173559
106 *536:119 *696:31 0.004049
107 *536:119 *697:61 0.000219122
108 *536:121 *697:47 0
109 *536:121 *741:34 0
110 *536:141 *537:102 0.003008
111 *536:141 *538:133 0.000314719
112 *536:141 *538:137 0.00848044
113 *536:141 *697:27 3.78879e-05
114 *536:141 *740:47 0.000311276
115 *536:145 *537:114 0.0141338
116 *536:145 *538:139 0.0014994
117 *536:145 *740:23 0.00786384
118 *536:145 *740:47 0.000403351
119 *536:145 *742:34 0
120 *536:153 *537:118 0.0403305
121 gpio_analog_pol[16] gpio_inp_dis[16] 0
122 gpio_analog_sel[43] *536:63 0.00181959
123 *118:23 *536:63 0.00532838
124 *118:39 *536:63 0.000573275
125 *118:51 *536:41 0.000831346
126 *125:15 *536:29 0.00132999
127 *139:19 *536:161 0.0239003
128 *140:371 *536:225 0
129 *230:21 *536:145 2.03036e-06
130 *244:15 *536:151 0.000252048
131 *271:27 *536:153 0.0905465
132 *322:63 *536:63 0.000467807
133 *322:85 *536:47 0.00967049
134 *322:95 *536:35 0.0022687
135 *322:139 *536:11 0.00016364
136 *359:23 *536:245 0.00274428
137 *386:197 *536:41 0
138 *386:201 *536:47 0
139 *386:203 *536:47 0
140 *391:15 *536:151 0.000702792
141 *397:135 *536:35 0
142 *408:85 *536:47 0.000265981
143 *444:51 *536:29 0.00877894
144 *444:51 *536:33 2.05503e-05
145 *448:9 *536:245 0.00317216
146 *529:9 *536:11 0.0169551
147 *529:9 *536:19 0.000114879
148 *529:9 *536:29 0.003268
149 *529:9 *536:63 0
150 *530:69 *536:35 0.000574467
151 *531:16 *536:11 0.00272431
152 *532:32 *536:63 0.00278052
153 *533:122 *536:79 0.000383182
154 *533:130 *536:107 6.57607e-05
155 *533:144 *536:107 0.000830264
156 *533:164 *536:119 9.17033e-05
157 *533:170 *536:121 0.000483753
158 *533:170 *536:129 0.00121291
159 *533:178 *536:141 0.000448878
160 *535:93 *536:47 0.000158983
*RES
1 *921:gpio_inp_dis[16] *536:11 43.1376 
2 *536:11 *536:19 38.6911 
3 *536:19 *536:29 48.4047 
4 *536:29 *536:33 18.1382 
5 *536:33 *536:35 161.654 
6 *536:35 *536:41 34.2375 
7 *536:41 *536:47 36.6212 
8 *536:47 *536:51 37.0607 
9 *536:51 *536:59 23.9425 
10 *536:59 *536:63 46.0091 
11 *536:63 *536:65 118.465 
12 *536:65 *536:71 32.8 
13 *536:71 *536:79 48.3223 
14 *536:79 *536:81 196.641 
15 *536:81 *536:87 19.1901 
16 *536:87 *536:89 118.485 
17 *536:89 *536:107 47.8405 
18 *536:107 *536:119 37.1773 
19 *536:119 *536:121 68.4607 
20 *536:121 *536:127 16.7429 
21 *536:127 *536:129 50.1493 
22 *536:129 *536:141 46.0621 
23 *536:141 *536:143 8 
24 *536:143 *536:145 71.1387 
25 *536:145 *536:151 17.3011 
26 *536:151 *536:153 2186.07 
27 *536:153 *536:159 44.4379 
28 *536:159 *536:161 303.34 
29 *536:161 *536:163 15 
30 *536:163 *536:165 64.4629 
31 *536:165 *536:167 15 
32 *536:167 *536:169 141.354 
33 *536:169 *536:175 44.4379 
34 *536:175 *536:177 105.436 
35 *536:177 *536:183 47.7729 
36 *536:183 *536:187 40.1471 
37 *536:187 *536:189 79.2321 
38 *536:189 *536:195 44.5829 
39 *536:195 *536:197 78.2793 
40 *536:197 *536:203 42.47 
41 *536:203 *536:207 40.3957 
42 *536:207 *536:209 59.305 
43 *536:209 *536:211 15 
44 *536:211 *536:213 100.195 
45 *536:213 *536:215 15 
46 *536:215 *536:217 48.3886 
47 *536:217 *536:223 44.4379 
48 *536:223 *536:225 131.846 
49 *536:225 *536:231 43.0086 
50 *536:231 *536:235 49.655 
51 *536:235 *536:237 47.7879 
52 *536:237 *536:239 15 
53 *536:239 *536:241 37.4721 
54 *536:241 *536:243 15 
55 *536:243 *536:245 76.3736 
56 *536:245 gpio_inp_dis[16] 15.6007 
*END

*D_NET *537 0.771615
*CONN
*P gpio_inp_dis[17] O
*I *921:gpio_inp_dis[17] O *D CF_CARAVEL_SOC
*CAP
1 gpio_inp_dis[17] 7.77794e-05
2 *921:gpio_inp_dis[17] 0.00437965
3 *537:250 0.0069649
4 *537:248 0.00688712
5 *537:246 0.0168568
6 *537:244 0.0183437
7 *537:240 0.00221503
8 *537:236 0.00161709
9 *537:230 0.0339084
10 *537:228 0.0330195
11 *537:226 0.00139424
12 *537:222 0.00565677
13 *537:220 0.00426253
14 *537:218 0.00205171
15 *537:216 0.00205171
16 *537:214 0.00485013
17 *537:212 0.00539408
18 *537:206 0.00147187
19 *537:202 0.00233988
20 *537:198 0.00297726
21 *537:196 0.00228928
22 *537:190 0.00663116
23 *537:188 0.00660865
24 *537:182 0.0040248
25 *537:180 0.00332332
26 *537:178 0.00128614
27 *537:174 0.00792691
28 *537:172 0.00664077
29 *537:170 0.00306438
30 *537:168 0.00413709
31 *537:164 0.00192926
32 *537:160 0.00190591
33 *537:156 0.00210067
34 *537:152 0.00186994
35 *537:146 0.00371793
36 *537:144 0.00289931
37 *537:142 0.00279305
38 *537:140 0.00279305
39 *537:138 0.00732501
40 *537:136 0.00732501
41 *537:134 0.00068799
42 *537:130 0.0026064
43 *537:128 0.00191841
44 *537:126 0.0181798
45 *537:124 0.0189787
46 *537:118 0.0239326
47 *537:116 0.0231338
48 *537:114 0.00368579
49 *537:108 0.00408966
50 *537:102 0.0108691
51 *537:100 0.0125078
52 *537:86 0.0411972
53 *537:84 0.0458746
54 *537:78 0.00806942
55 *537:76 0.00172316
56 *537:70 0.00312865
57 *537:58 0.00416702
58 *537:56 0.0039047
59 *537:46 0.00363956
60 *537:40 0.00126564
61 *537:34 0.00316978
62 *537:26 0.00492087
63 *537:24 0.00237423
64 *537:20 0.000939574
65 *537:14 0.00376421
66 *537:12 0.00332913
67 *537:10 0.00437965
68 *537:10 *538:39 3.18198e-05
69 *537:10 *540:16 0.00256811
70 *537:10 *542:9 0
71 *537:10 *567:14 0.00276762
72 *537:10 *568:11 0.00230179
73 *537:10 *572:16 0.00276762
74 *537:14 *538:33 5.3304e-05
75 *537:14 *540:22 0.00344538
76 *537:14 *556:11 0.0072999
77 *537:24 *540:34 7.37658e-05
78 *537:24 *740:121 0
79 *537:24 *826:109 0.000617576
80 *537:26 *540:34 0
81 *537:26 *562:105 0.00100503
82 *537:26 *740:115 0.00205333
83 *537:26 *740:121 1.32314e-05
84 *537:46 *551:121 0.000244389
85 *537:46 *696:89 0.000245485
86 *537:56 *551:121 0
87 *537:56 *696:81 0.00591237
88 *537:58 *551:121 0.00263597
89 *537:58 *696:71 0.0115779
90 *537:70 *538:67 0.000139791
91 *537:70 *551:121 0.000610606
92 *537:70 *696:67 0.000908429
93 *537:70 *741:120 0
94 *537:78 *695:63 0.000402474
95 *537:78 *696:59 5.747e-05
96 *537:78 *697:103 0.000291305
97 *537:84 *696:65 6.18433e-05
98 *537:86 *538:87 0
99 *537:86 *695:51 0.00113517
100 *537:86 *695:55 0
101 *537:86 *697:61 0.000141398
102 *537:86 *697:73 0.000440671
103 *537:86 *697:75 0
104 *537:86 *741:60 0.0015116
105 *537:86 *742:94 0.000551962
106 *537:100 *696:31 0.00163257
107 *537:100 *741:60 0
108 *537:102 *538:133 0
109 *537:102 *695:35 0
110 *537:102 *697:61 0.00284302
111 *537:102 *742:64 0.000366587
112 *537:114 *538:137 0.00182131
113 *537:114 *538:139 0.00511523
114 *537:114 *695:27 0.00115645
115 *537:114 *697:27 0.000201676
116 *537:114 *740:47 0.000132823
117 *537:118 *538:147 0.00561833
118 *537:118 *696:21 0
119 *537:134 *667:15 0
120 *537:188 *706:11 0.000503148
121 *537:250 gpio_slow_sel[17] 0
122 gpio_analog_pol[17] gpio_inp_dis[17] 0
123 gpio_dm2[16] *537:240 0.00208434
124 *118:33 *537:56 0
125 *118:99 *537:10 0.000504475
126 *125:15 *537:10 0.00231049
127 *139:19 *537:126 0.0514798
128 *140:109 *537:126 0
129 *140:257 *537:142 0
130 *271:27 *537:118 0.000595029
131 *322:59 *537:56 2.17681e-05
132 *322:85 *537:34 0.00976095
133 *322:95 *537:24 9.88574e-06
134 *322:123 *537:10 0.00433009
135 *325:63 *537:10 0.000411664
136 *338:35 *537:10 0.000401912
137 *359:23 *537:250 0.00836334
138 *386:197 *537:34 0
139 *397:135 *537:24 1.76557e-05
140 *397:159 *537:46 0.00166356
141 *403:19 *537:134 0.000623816
142 *408:75 *537:34 2.45284e-05
143 *419:111 *537:10 0
144 *419:177 *537:58 0.0114883
145 *444:55 *537:10 0.000814413
146 *448:9 *537:250 0.00947789
147 *449:9 *537:250 0.00317216
148 *529:9 *537:10 0.00474935
149 *529:9 *537:14 0.00032096
150 *530:77 *537:46 0.000213872
151 *531:16 *537:14 0.0182389
152 *532:16 *537:10 0.000575807
153 *532:24 *537:20 0.000284015
154 *533:84 *537:24 0.000369036
155 *533:92 *537:34 0.00143537
156 *533:114 *537:78 0.00195186
157 *533:130 *537:86 0.0104931
158 *533:144 *537:86 0
159 *533:144 *537:100 0.000578016
160 *533:156 *537:86 7.5177e-05
161 *533:156 *537:102 2.13985e-05
162 *533:170 *537:108 0
163 *533:170 *537:114 0.00032882
164 *535:93 *537:34 0.000169386
165 *535:113 *537:58 4.64105e-05
166 *536:35 *537:24 2.80924e-06
167 *536:41 *537:34 0.000209313
168 *536:47 *537:34 0.000147024
169 *536:47 *537:40 0.000298437
170 *536:107 *537:86 0.00107007
171 *536:141 *537:102 0.003008
172 *536:145 *537:114 0.0141338
173 *536:153 *537:118 0.0403305
*RES
1 *921:gpio_inp_dis[17] *537:10 42.9277 
2 *537:10 *537:12 15 
3 *537:12 *537:14 200.245 
4 *537:14 *537:20 37.54 
5 *537:20 *537:24 15.9811 
6 *537:24 *537:26 55.6489 
7 *537:26 *537:34 47.301 
8 *537:34 *537:40 26.8425 
9 *537:40 *537:46 48.0496 
10 *537:46 *537:56 46.2503 
11 *537:56 *537:58 126.875 
12 *537:58 *537:70 42.6038 
13 *537:70 *537:76 17.1293 
14 *537:76 *537:78 45.9236 
15 *537:78 *537:84 38.8536 
16 *537:84 *537:86 174.843 
17 *537:86 *537:100 40.3141 
18 *537:100 *537:102 49.0523 
19 *537:102 *537:108 17.0864 
20 *537:108 *537:114 45.3651 
21 *537:114 *537:116 8 
22 *537:116 *537:118 729.609 
23 *537:118 *537:124 44.9143 
24 *537:124 *537:126 654.074 
25 *537:126 *537:128 15 
26 *537:128 *537:130 39.2121 
27 *537:130 *537:134 36.6257 
28 *537:134 *537:136 15 
29 *537:136 *537:138 154.031 
30 *537:138 *537:140 15 
31 *537:140 *537:142 64.235 
32 *537:142 *537:144 15 
33 *537:144 *537:146 60.6514 
34 *537:146 *537:152 48.1043 
35 *537:152 *537:156 37.0607 
36 *537:156 *537:160 38.3864 
37 *537:160 *537:164 32.7729 
38 *537:164 *537:168 38.3864 
39 *537:168 *537:170 64.4629 
40 *537:170 *537:172 15 
41 *537:172 *537:174 150.158 
42 *537:174 *537:178 43.7307 
43 *537:178 *537:180 15 
44 *537:180 *537:182 75.5036 
45 *537:182 *537:188 44.4379 
46 *537:188 *537:190 132.199 
47 *537:190 *537:196 44.9143 
48 *537:196 *537:198 35.7114 
49 *537:198 *537:202 46.5893 
50 *537:202 *537:206 36.2736 
51 *537:206 *537:212 41.1029 
52 *537:212 *537:214 107.549 
53 *537:214 *537:216 15 
54 *537:216 *537:218 43.0236 
55 *537:218 *537:220 15 
56 *537:220 *537:222 96.9843 
57 *537:222 *537:226 43.7307 
58 *537:226 *537:228 15 
59 *537:228 *537:230 752.322 
60 *537:230 *537:236 47.7729 
61 *537:236 *537:240 41.5557 
62 *537:240 *537:244 47.5421 
63 *537:244 *537:246 383.981 
64 *537:246 *537:248 15 
65 *537:248 *537:250 217.396 
66 *537:250 gpio_inp_dis[17] 15.9529 
*END

*D_NET *538 0.812279
*CONN
*P gpio_inp_dis[18] O
*I *921:gpio_inp_dis[18] O *D CF_CARAVEL_SOC
*CAP
1 gpio_inp_dis[18] 0.000920701
2 *921:gpio_inp_dis[18] 0.00069915
3 *538:407 0.00282252
4 *538:395 0.00376603
5 *538:393 0.00257648
6 *538:387 0.00355487
7 *538:385 0.00354311
8 *538:381 0.00244883
9 *538:371 0.00378248
10 *538:363 0.00505984
11 *538:355 0.00522792
12 *538:353 0.00424255
13 *538:347 0.00724321
14 *538:345 0.00623634
15 *538:339 0.0029458
16 *538:331 0.00554191
17 *538:329 0.00942637
18 *538:325 0.00708174
19 *538:321 0.0069611
20 *538:315 0.0411102
21 *538:313 0.039764
22 *538:307 0.00788002
23 *538:305 0.00510857
24 *538:291 0.00358702
25 *538:289 0.00239476
26 *538:283 0.00355409
27 *538:275 0.0150271
28 *538:273 0.012549
29 *538:267 0.00591517
30 *538:265 0.00591517
31 *538:259 0.0154375
32 *538:257 0.0152658
33 *538:251 0.00291407
34 *538:249 0.00505401
35 *538:245 0.00364625
36 *538:239 0.00342699
37 *538:227 0.00444784
38 *538:219 0.00593764
39 *538:217 0.00638673
40 *538:203 0.00461775
41 *538:201 0.00291424
42 *538:195 0.00340393
43 *538:193 0.00814443
44 *538:189 0.00701716
45 *538:185 0.00441015
46 *538:179 0.00601544
47 *538:177 0.006542
48 *538:171 0.00544273
49 *538:169 0.00405313
50 *538:161 0.00519732
51 *538:155 0.00488583
52 *538:153 0.00223661
53 *538:147 0.00334506
54 *538:145 0.00333425
55 *538:139 0.0098144
56 *538:137 0.0122299
57 *538:133 0.00739062
58 *538:123 0.00625712
59 *538:121 0.0018142
60 *538:119 0.00556596
61 *538:95 0.0100329
62 *538:93 0.00499885
63 *538:87 0.0156249
64 *538:85 0.0157583
65 *538:79 0.0100536
66 *538:77 0.0160509
67 *538:67 0.00879317
68 *538:55 0.00543206
69 *538:53 0.00330156
70 *538:51 0.00224773
71 *538:43 0.00986691
72 *538:41 0.00761918
73 *538:39 0.0032988
74 *538:33 0.00351419
75 *538:27 0.00100657
76 *538:25 0.000861496
77 *538:19 0.000373064
78 *538:11 0.0010019
79 *538:11 *556:11 0.0016571
80 *538:11 *568:11 0.00294398
81 *538:27 *556:11 0.00183603
82 *538:33 *556:11 0.000424426
83 *538:39 *542:9 0.00050012
84 *538:43 *692:35 0.00203868
85 *538:43 *742:120 0.00669723
86 *538:43 *857:11 0.0164803
87 *538:51 *698:27 0.0127776
88 *538:51 *860:11 0.00233371
89 *538:51 *865:11 0.00269428
90 *538:55 *741:122 0.00177213
91 *538:67 *551:121 0.00155083
92 *538:67 *741:120 0
93 *538:79 *695:55 0.00401291
94 *538:79 *741:98 0
95 *538:93 *741:88 0.00030565
96 *538:95 *695:55 0.0244418
97 *538:119 *695:55 0.000130344
98 *538:119 *697:61 0.00208183
99 *538:119 *741:60 0.00032882
100 *538:119 *742:64 0.000108949
101 *538:119 *742:80 0
102 *538:119 *742:94 0
103 *538:123 *697:61 0.00095985
104 *538:123 *741:46 0.000276136
105 *538:133 *697:61 2.88691e-05
106 *538:133 *741:46 0.000232577
107 *538:133 *742:64 0.000483609
108 *538:139 *740:31 0.00282311
109 *538:145 *695:25 5.6192e-05
110 *538:195 *685:17 0.00768037
111 *538:219 *682:7 0
112 *538:239 *681:17 0
113 *538:249 *799:15 0
114 *538:257 *800:15 0.000417192
115 *538:259 *677:7 0
116 *538:283 *748:11 0.00251258
117 *538:283 *836:15 0
118 *538:363 *756:10 0
119 *538:395 gpio_slow_sel[18] 0
120 gpio_analog_en[18] *538:407 0
121 gpio_analog_pol[18] gpio_inp_dis[18] 0
122 gpio_analog_pol[18] *538:407 0
123 gpio_analog_sel[17] *538:315 0.0317112
124 gpio_dm0[18] *538:407 0
125 gpio_dm1[18] *538:395 0
126 *105:31 *538:381 0.00277243
127 *109:31 *538:305 0.00130525
128 *139:19 *538:155 0.0042128
129 *146:21 *538:227 0.00300488
130 *153:31 *538:305 0.00030499
131 *156:15 *538:265 0
132 *187:15 *538:161 0.00871396
133 *189:15 *538:169 0
134 *191:15 *538:239 0.000311251
135 *197:15 *538:289 0.000608486
136 *230:25 *538:153 0.000169839
137 *230:27 *538:407 0.000231276
138 *231:15 *538:169 0.000944223
139 *234:15 *538:239 0.000308879
140 *237:23 *538:371 0.000487664
141 *251:15 *538:43 0.0239279
142 *252:15 *538:51 0.0127745
143 *275:15 *538:153 0.000420695
144 *278:15 *538:239 0.00466137
145 *280:23 *538:249 0.00696335
146 *284:23 *538:43 0.0133301
147 *285:15 *538:305 0
148 *290:15 *538:153 0.000273351
149 *293:15 *538:19 0.000430034
150 *317:15 *538:177 0
151 *319:15 *538:161 0
152 *322:123 *538:39 1.96401e-05
153 *402:15 *538:381 0
154 *529:9 *538:11 0.000440406
155 *531:16 *538:19 0.000756566
156 *531:16 *538:27 0.00455202
157 *531:16 *538:33 0.000391994
158 *533:128 *538:93 0
159 *533:130 *538:95 0.00996014
160 *533:130 *538:119 0
161 *533:156 *538:119 0.000138735
162 *533:158 *538:123 0.00439787
163 *533:170 *538:133 0.00366202
164 *533:170 *538:137 0.000836046
165 *533:178 *538:137 0.000184361
166 *533:178 *538:139 0.0046676
167 *536:11 *538:19 0.000138791
168 *536:11 *538:27 0.000951506
169 *536:11 *538:33 0.000104089
170 *536:81 *538:79 0.0155094
171 *536:87 *538:85 0
172 *536:89 *538:87 0
173 *536:107 *538:119 0.000166921
174 *536:141 *538:133 0.000314719
175 *536:141 *538:137 0.00848044
176 *536:145 *538:139 0.0014994
177 *537:10 *538:39 3.18198e-05
178 *537:14 *538:33 5.3304e-05
179 *537:70 *538:67 0.000139791
180 *537:86 *538:87 0
181 *537:102 *538:133 0
182 *537:114 *538:137 0.00182131
183 *537:114 *538:139 0.00511523
184 *537:118 *538:147 0.00561833
*RES
1 *921:gpio_inp_dis[18] *538:11 49.1268 
2 *538:11 *538:19 40.8543 
3 *538:19 *538:25 30.8493 
4 *538:25 *538:27 49.9318 
5 *538:27 *538:33 23.9796 
6 *538:33 *538:39 49.155 
7 *538:39 *538:41 15 
8 *538:41 *538:43 457.04 
9 *538:43 *538:51 49.8847 
10 *538:51 *538:53 8 
11 *538:53 *538:55 57.8964 
12 *538:55 *538:67 42.953 
13 *538:67 *538:77 47.2269 
14 *538:77 *538:79 287.494 
15 *538:79 *538:85 18.2456 
16 *538:85 *538:87 58.6992 
17 *538:87 *538:93 18.1168 
18 *538:93 *538:95 55.6528 
19 *538:95 *538:119 47.5144 
20 *538:119 *538:121 8 
21 *538:121 *538:123 63.5307 
22 *538:123 *538:133 38.7304 
23 *538:133 *538:137 23.1317 
24 *538:137 *538:139 56.4144 
25 *538:139 *538:145 17.8163 
26 *538:145 *538:147 74.7993 
27 *538:147 *538:153 18.8037 
28 *538:153 *538:155 54.375 
29 *538:155 *538:161 32.1131 
30 *538:161 *538:169 40.3514 
31 *538:169 *538:171 45.9236 
32 *538:171 *538:177 28.936 
33 *538:177 *538:179 71.2779 
34 *538:179 *538:185 26.9611 
35 *538:185 *538:189 44.0636 
36 *538:189 *538:193 26.6891 
37 *538:193 *538:195 97.3364 
38 *538:195 *538:201 18.7179 
39 *538:201 *538:203 49.445 
40 *538:203 *538:217 47.7321 
41 *538:217 *538:219 89.5893 
42 *538:219 *538:227 45.5563 
43 *538:227 *538:239 47.5643 
44 *538:239 *538:245 37.2736 
45 *538:245 *538:249 20.936 
46 *538:249 *538:251 53.6707 
47 *538:251 *538:257 18.632 
48 *538:257 *538:259 331.864 
49 *538:259 *538:265 18.632 
50 *538:265 *538:267 118.465 
51 *538:267 *538:273 18.632 
52 *538:273 *538:275 267.774 
53 *538:275 *538:283 48.1141 
54 *538:283 *538:289 18.0309 
55 *538:289 *538:291 45.2193 
56 *538:291 *538:305 48.6776 
57 *538:305 *538:307 81.1379 
58 *538:307 *538:313 30.224 
59 *538:313 *538:315 1115.03 
60 *538:315 *538:321 37.2651 
61 *538:321 *538:325 37.0207 
62 *538:325 *538:329 28.0629 
63 *538:329 *538:331 82.5464 
64 *538:331 *538:339 46.9484 
65 *538:339 *538:345 19.92 
66 *538:345 *538:347 118.465 
67 *538:347 *538:353 23.784 
68 *538:353 *538:355 49.445 
69 *538:355 *538:363 48.6822 
70 *538:363 *538:371 43.2891 
71 *538:371 *538:381 49.6056 
72 *538:381 *538:385 10.7179 
73 *538:385 *538:387 64.235 
74 *538:387 *538:393 18.632 
75 *538:393 *538:395 43.1064 
76 *538:395 *538:407 42.7393 
77 *538:407 gpio_inp_dis[18] 27.7925 
*END

*D_NET *539 1.1243
*CONN
*P gpio_inp_dis[19] O
*I *921:gpio_inp_dis[19] O *D CF_CARAVEL_SOC
*CAP
1 gpio_inp_dis[19] 0.000769604
2 *921:gpio_inp_dis[19] 0.000209754
3 *539:435 0.0349646
4 *539:433 0.034195
5 *539:431 0.00394256
6 *539:429 0.00468371
7 *539:423 0.00400752
8 *539:421 0.00493039
9 *539:407 0.00583253
10 *539:405 0.00453067
11 *539:399 0.00504403
12 *539:397 0.00662359
13 *539:385 0.00334739
14 *539:375 0.00485011
15 *539:373 0.00344443
16 *539:371 0.00201111
17 *539:355 0.00827812
18 *539:353 0.00696479
19 *539:347 0.00389541
20 *539:345 0.00355978
21 *539:339 0.0047321
22 *539:337 0.00506772
23 *539:331 0.012963
24 *539:329 0.0150488
25 *539:315 0.0151926
26 *539:313 0.0127831
27 *539:307 0.0134134
28 *539:305 0.0132709
29 *539:299 0.00942596
30 *539:297 0.00956842
31 *539:291 0.019069
32 *539:289 0.0186948
33 *539:287 0.00200292
34 *539:281 0.00273721
35 *539:271 0.0106918
36 *539:269 0.0107455
37 *539:259 0.00327516
38 *539:257 0.00263845
39 *539:251 0.00241505
40 *539:249 0.00226378
41 *539:247 0.00228269
42 *539:227 0.0046782
43 *539:225 0.00275767
44 *539:219 0.00222979
45 *539:217 0.00259184
46 *539:211 0.00788097
47 *539:209 0.00833874
48 *539:205 0.00328168
49 *539:197 0.00232761
50 *539:191 0.00570476
51 *539:189 0.00547686
52 *539:187 0.00273278
53 *539:185 0.00273278
54 *539:183 0.00177036
55 *539:181 0.00177036
56 *539:179 0.00154824
57 *539:175 0.00715259
58 *539:173 0.00560435
59 *539:171 0.00264641
60 *539:169 0.00264641
61 *539:167 0.0076377
62 *539:165 0.00819482
63 *539:159 0.0357098
64 *539:157 0.0351527
65 *539:155 0.00274339
66 *539:153 0.00274339
67 *539:151 0.00365605
68 *539:133 0.00682563
69 *539:121 0.00329807
70 *539:115 0.00045737
71 *539:111 0.00275489
72 *539:105 0.00376149
73 *539:101 0.00187014
74 *539:97 0.00221815
75 *539:93 0.00336562
76 *539:87 0.00228394
77 *539:75 0.00450111
78 *539:73 0.00443669
79 *539:69 0.000686132
80 *539:63 0.00414773
81 *539:61 0.00412193
82 *539:55 0.00897366
83 *539:53 0.00940687
84 *539:43 0.00121946
85 *539:41 0.00182581
86 *539:35 0.00478028
87 *539:33 0.00524822
88 *539:23 0.00464438
89 *539:21 0.00301394
90 *539:19 0.000290039
91 *539:15 0.00307964
92 *539:13 0.0027896
93 *539:11 0.00215694
94 *539:9 0.00236669
95 *539:11 *569:18 0.00269729
96 *539:11 *696:135 0.000100733
97 *539:15 *696:129 0
98 *539:15 *760:29 0
99 *539:19 *861:11 0.00200802
100 *539:23 *551:61 0
101 *539:23 *571:23 0.00179536
102 *539:23 *696:135 0
103 *539:33 *540:16 0.000653574
104 *539:33 *696:145 0.00560857
105 *539:35 *551:35 4.21281e-05
106 *539:35 *551:43 0.00182752
107 *539:35 *562:35 0.00044458
108 *539:35 *696:147 0.00369543
109 *539:43 *858:11 0.00541556
110 *539:53 *696:163 0.000159417
111 *539:55 *571:17 0.000509057
112 *539:55 *840:19 0.00408822
113 *539:61 *826:43 7.60385e-05
114 *539:63 gpio_out[39] 0.0042423
115 *539:63 *541:35 9.13368e-06
116 *539:73 *826:31 0.00287915
117 *539:75 *826:31 0.00942683
118 *539:87 *541:53 9.67775e-05
119 *539:93 *693:183 0.00981982
120 *539:93 *739:116 0.0101984
121 *539:97 *693:175 0
122 *539:97 *739:112 0
123 *539:101 *543:11 0
124 *539:101 *739:104 0.000234242
125 *539:105 *541:63 0.000757558
126 *539:111 *541:69 0.0155777
127 *539:111 *541:75 0.000641427
128 *539:111 *737:147 0.000695545
129 *539:111 *815:47 2.17681e-05
130 *539:111 *826:21 0.0015283
131 *539:115 *739:78 0.00209561
132 *539:121 *556:21 4.95487e-06
133 *539:121 *739:74 0.000510231
134 *539:133 *556:29 0
135 *539:133 *826:21 0.00265518
136 *539:133 *840:19 0.00120554
137 *539:151 *541:103 0
138 *539:151 *693:103 0.000521149
139 *539:151 *693:111 0.000147297
140 *539:151 *737:97 0.000286424
141 *539:151 *815:15 0.00166069
142 *539:151 *815:25 0
143 *539:151 *826:21 0.000103036
144 *539:151 *840:19 0.000407019
145 *539:155 *693:95 0.0136021
146 *539:155 *873:37 0.00197308
147 *539:159 *737:89 0.0129912
148 *539:159 *832:19 0.00511802
149 *539:165 *832:19 0.000804987
150 *539:167 *832:19 0.0196435
151 *539:183 *693:31 0.0101333
152 *539:183 *818:11 0.00177485
153 *539:187 *693:27 0.00753115
154 *539:187 *731:14 0.000120171
155 *539:191 *808:21 0
156 *539:219 *808:27 0
157 *539:257 *720:9 0.000733125
158 *539:257 *807:15 0.000209439
159 *539:271 *764:23 0
160 *539:287 *722:13 0.000204526
161 *539:329 *678:13 0.000613063
162 *539:421 gpio_oeb[22] 0
163 *539:423 gpio_out[22] 0
164 gpio_analog_pol[19] gpio_inp_dis[19] 0
165 gpio_analog_sel[22] *539:431 0
166 *921:gpio_in[37] *539:61 0
167 *104:35 *539:251 0
168 *104:35 *539:259 0
169 *118:115 *539:35 0
170 *118:187 *539:115 0.00223579
171 *148:17 *539:251 0
172 *212:23 *539:43 0.00120191
173 *237:23 *539:421 0.000988355
174 *238:27 *539:175 0.0144153
175 *248:19 *539:19 0.002013
176 *285:15 *539:305 0.000737324
177 *292:15 *539:43 0.00542053
178 *293:15 *539:55 0.0182388
179 *322:131 *539:11 0.00786665
180 *322:139 *539:15 0
181 *322:159 *539:41 4.45778e-05
182 *322:167 *539:55 0.0491936
183 *322:173 *539:61 0.000260718
184 *322:175 *539:63 0.0321496
185 *322:181 *539:69 0.000106498
186 *322:191 *539:75 0.0205687
187 *322:215 *539:101 0.00184087
188 *322:225 *539:111 0.015625
189 *322:245 *539:133 0.000588162
190 *322:271 *539:151 0.00815599
191 *322:273 *539:155 0.0129658
192 *322:313 *539:187 0.00441777
193 *322:317 *539:205 0
194 *322:481 *539:435 0.0247841
195 *325:69 *539:15 0.00102958
196 *325:97 *539:87 0.00116327
197 *325:133 *539:121 0.000535838
198 *325:139 *539:133 0.000174723
199 *325:145 *539:133 0.000201171
200 *325:145 *539:151 0.000152748
201 *338:63 *539:63 0.000834644
202 *338:79 *539:151 5.43961e-05
203 *362:15 *539:435 0
204 *365:15 *539:435 0
205 *366:11 *539:183 0.00535253
206 *366:15 *539:435 0.00333417
207 *369:11 *539:183 1.22948e-05
208 *386:45 *539:133 5.69491e-05
209 *386:45 *539:151 2.93059e-05
210 *386:53 *539:133 0.0159143
211 *386:81 *539:97 0.000418804
212 *386:89 *539:87 0.0011598
213 *386:89 *539:93 0
214 *386:139 *539:35 1.32939e-05
215 *386:149 *539:33 0.000237378
216 *386:155 *539:11 0
217 *386:159 *539:11 0
218 *387:11 *539:159 0.0378379
219 *387:11 *539:165 0.000483242
220 *387:11 *539:167 0
221 *397:31 *539:133 0.000967958
222 *397:31 *539:151 0.000875583
223 *397:39 *539:133 0.0144854
224 *397:49 *539:115 0.000400622
225 *397:75 *539:75 0.00133295
226 *397:79 *539:55 1.41077e-05
227 *404:11 *539:175 0
228 *419:23 *539:115 6.3562e-05
229 *419:31 *539:73 0.00112808
230 *419:79 *539:35 0.000402806
231 *419:111 *539:11 0.00123318
232 *436:23 *539:187 0
233 *444:61 *539:61 6.10512e-05
234 *444:63 *539:63 0.0321065
235 *449:51 *539:101 0.000120171
236 *450:41 *539:97 0.000158912
237 *455:21 *539:183 2.31209e-05
238 *456:11 *539:281 0
239 *456:11 *539:287 0
240 *469:11 *539:159 0
241 *472:55 *539:63 2.36641e-05
242 *474:15 *539:101 0.00267844
243 *476:19 *539:55 0.00431513
244 *530:11 *539:35 0
245 *531:12 *539:23 0
246 *532:12 *539:23 0
247 *533:14 *539:33 0.00201171
248 *533:30 *539:23 0
249 *533:30 *539:33 0.000119478
250 *535:19 *539:23 0
251 *535:27 *539:11 6.19043e-05
252 *536:11 *539:15 0
*RES
1 *921:gpio_inp_dis[19] *539:9 18.8218 
2 *539:9 *539:11 102.101 
3 *539:11 *539:13 15 
4 *539:13 *539:15 43.1064 
5 *539:15 *539:19 36.5843 
6 *539:19 *539:21 15 
7 *539:21 *539:23 51.0296 
8 *539:23 *539:33 46.3361 
9 *539:33 *539:35 107.818 
10 *539:35 *539:41 48.1043 
11 *539:41 *539:43 57.7929 
12 *539:43 *539:53 38.7829 
13 *539:53 *539:55 539.462 
14 *539:55 *539:61 26.8425 
15 *539:61 *539:63 58.7029 
16 *539:63 *539:69 26.1382 
17 *539:69 *539:73 32.0864 
18 *539:73 *539:75 227.878 
19 *539:75 *539:87 42.0343 
20 *539:87 *539:93 34.7749 
21 *539:93 *539:97 45.9575 
22 *539:97 *539:101 43.7307 
23 *539:101 *539:105 32.6189 
24 *539:105 *539:111 45.7742 
25 *539:111 *539:115 39.4429 
26 *539:115 *539:121 30.0118 
27 *539:121 *539:133 49.5608 
28 *539:133 *539:151 49.1394 
29 *539:151 *539:153 15 
30 *539:153 *539:155 150.696 
31 *539:155 *539:157 15 
32 *539:157 *539:159 1153.59 
33 *539:159 *539:165 22.475 
34 *539:165 *539:167 253.553 
35 *539:167 *539:169 15 
36 *539:169 *539:171 40.6414 
37 *539:171 *539:173 15 
38 *539:173 *539:175 186.076 
39 *539:175 *539:179 38.9664 
40 *539:179 *539:181 15 
41 *539:181 *539:183 129.029 
42 *539:183 *539:185 15 
43 *539:185 *539:187 83.9964 
44 *539:187 *539:189 15 
45 *539:189 *539:191 107.372 
46 *539:191 *539:197 16.8288 
47 *539:197 *539:205 48.2788 
48 *539:205 *539:209 12.564 
49 *539:209 *539:211 164.244 
50 *539:211 *539:217 18.632 
51 *539:217 *539:219 42.4021 
52 *539:219 *539:225 17.344 
53 *539:225 *539:227 54.375 
54 *539:227 *539:247 47.9356 
55 *539:247 *539:249 8 
56 *539:249 *539:251 50.1493 
57 *539:251 *539:257 17.344 
58 *539:257 *539:259 56.4879 
59 *539:259 *539:269 18.8709 
60 *539:269 *539:271 224.812 
61 *539:271 *539:281 22.9372 
62 *539:281 *539:287 45.3044 
63 *539:287 *539:289 8 
64 *539:289 *539:291 422.012 
65 *539:291 *539:297 17.344 
66 *539:297 *539:299 207.909 
67 *539:299 *539:305 17.344 
68 *539:305 *539:307 295.945 
69 *539:307 *539:313 17.344 
70 *539:313 *539:315 281.859 
71 *539:315 *539:329 48.4364 
72 *539:329 *539:331 278.338 
73 *539:331 *539:337 18.632 
74 *539:337 *539:339 99.4493 
75 *539:339 *539:345 17.344 
76 *539:345 *539:347 72.6864 
77 *539:347 *539:353 18.632 
78 *539:353 *539:355 143.115 
79 *539:355 *539:371 49.9301 
80 *539:371 *539:373 8 
81 *539:373 *539:375 78.3207 
82 *539:375 *539:385 47.5795 
83 *539:385 *539:397 43.2371 
84 *539:397 *539:399 107.196 
85 *539:399 *539:405 17.344 
86 *539:405 *539:407 93.815 
87 *539:407 *539:421 48.6776 
88 *539:421 *539:423 74.095 
89 *539:423 *539:429 18.632 
90 *539:429 *539:431 88.885 
91 *539:431 *539:433 8 
92 *539:433 *539:435 146.029 
93 *539:435 gpio_inp_dis[19] 24.9754 
*END

*D_NET *540 0.401396
*CONN
*P gpio_inp_dis[1] O
*I *921:gpio_inp_dis[1] O *D CF_CARAVEL_SOC
*CAP
1 gpio_inp_dis[1] 0.00574281
2 *921:gpio_inp_dis[1] 0.0394978
3 *540:38 0.0125958
4 *540:36 0.00685304
5 *540:34 0.0154048
6 *540:32 0.0155147
7 *540:26 0.000379561
8 *540:22 0.00379155
9 *540:16 0.0430197
10 *540:16 *551:15 0.00138087
11 *540:16 *551:27 0.00144419
12 *540:16 *551:43 0.00128034
13 *540:16 *551:77 0.000919729
14 *540:16 *562:17 0.000705204
15 *540:16 *562:31 0.00143899
16 *540:16 *562:43 0.0011581
17 *540:16 *562:59 0.000924931
18 *540:16 *567:12 0.000407994
19 *540:16 *569:14 0.00307077
20 *540:16 *570:10 0.00273193
21 *540:16 *571:17 0.000943482
22 *540:16 *572:14 0.000941559
23 *540:16 *696:113 0.000295555
24 *540:16 *696:145 0.000617163
25 *540:16 *696:159 0.000700922
26 *540:16 *740:163 0.000336285
27 *540:16 *826:59 0.000206249
28 *540:16 *826:71 0.000924931
29 *540:22 *741:140 0
30 *540:22 *840:19 0.006621
31 *540:26 *696:95 0.00205053
32 *540:34 *569:18 0.000729077
33 *540:34 *740:107 0.000722516
34 *540:34 *826:119 0.00680025
35 *540:38 *551:125 0.0401131
36 gpio_analog_pol[1] gpio_inp_dis[1] 0.00645539
37 gpio_analog_sel[43] *540:22 0.00164849
38 *118:23 *540:34 0.00391548
39 *118:61 *540:26 0.00205223
40 *118:93 *540:16 0.000686569
41 *118:123 *540:16 0.00175368
42 *118:143 *540:16 0.00120447
43 *245:11 *540:38 0.000814503
44 *250:11 *540:38 0.00195617
45 *256:11 *540:38 0.0284077
46 *257:11 *540:38 0.000229774
47 *280:11 *540:38 0.000119496
48 *281:9 gpio_inp_dis[1] 0.00349506
49 *296:11 *540:38 0.00407027
50 *322:89 *540:32 1.0092e-05
51 *322:115 *540:22 0.000182169
52 *322:123 *540:16 0.00158721
53 *322:159 *540:16 0.00193659
54 *336:39 *540:16 0.00054094
55 *338:33 *540:16 0.000521038
56 *338:45 *540:16 0.00200816
57 *338:63 *540:16 0.00104172
58 *346:15 *540:22 0.000875229
59 *386:119 *540:16 0.00120968
60 *386:131 *540:16 0.00143379
61 *397:91 *540:16 0.000305601
62 *397:103 *540:16 0.000847825
63 *419:59 *540:16 0.00120447
64 *419:71 *540:16 0.00143379
65 *419:87 *540:16 0.0011425
66 *419:111 *540:16 0.00122161
67 *441:11 *540:38 0.000187379
68 *476:19 *540:16 0.00089539
69 *529:9 *540:16 0.00657902
70 *529:9 *540:22 0.0170287
71 *530:19 *540:16 0.0011425
72 *530:35 *540:16 0.00105153
73 *531:12 *540:16 0.00304936
74 *531:16 *540:22 0.00344538
75 *532:12 *540:16 0.00311286
76 *532:32 *540:34 0.0472968
77 *533:14 *540:16 0.000555301
78 *533:30 *540:16 0.000398702
79 *535:19 *540:16 0.000242349
80 *535:33 *540:16 0.00158031
81 *535:57 *540:22 0.000975159
82 *536:11 *540:16 0.00191874
83 *536:35 *540:34 0.00540067
84 *536:51 *540:34 0.00200785
85 *536:63 *540:34 0.00321013
86 *537:10 *540:16 0.00256811
87 *537:14 *540:22 0.00344538
88 *537:24 *540:34 7.37658e-05
89 *537:26 *540:34 0
90 *539:33 *540:16 0.000653574
*RES
1 *921:gpio_inp_dis[1] *540:16 41.7448 
2 *540:16 *540:22 43.9099 
3 *540:22 *540:26 37.5371 
4 *540:26 *540:32 31.5536 
5 *540:32 *540:34 592.346 
6 *540:34 *540:36 15 
7 *540:36 *540:38 515.858 
8 *540:38 gpio_inp_dis[1] 26.8636 
*END

*D_NET *541 1.11297
*CONN
*P gpio_inp_dis[20] O
*I *921:gpio_inp_dis[20] O *D CF_CARAVEL_SOC
*CAP
1 gpio_inp_dis[20] 0.000134032
2 *921:gpio_inp_dis[20] 0.00506511
3 *541:135 0.138013
4 *541:133 0.137879
5 *541:131 0.0302412
6 *541:129 0.0302412
7 *541:127 0.00257789
8 *541:125 0.00321005
9 *541:119 0.00145986
10 *541:115 0.00655181
11 *541:113 0.00572411
12 *541:111 0.0440923
13 *541:109 0.0440923
14 *541:107 0.00515901
15 *541:105 0.00515901
16 *541:103 0.00252852
17 *541:95 0.00307391
18 *541:89 0.00102918
19 *541:85 0.00266601
20 *541:81 0.00257296
21 *541:75 0.00109571
22 *541:69 0.00296782
23 *541:63 0.00497526
24 *541:61 0.00271242
25 *541:59 0.00154655
26 *541:57 0.00154655
27 *541:55 0.0030911
28 *541:53 0.00428138
29 *541:43 0.0041317
30 *541:41 0.00309158
31 *541:35 0.00806805
32 *541:33 0.00812035
33 *541:27 0.0151144
34 *541:25 0.0149119
35 *541:23 0.00288847
36 *541:21 0.00288847
37 *541:19 0.00167193
38 *541:17 0.00167193
39 *541:15 0.00303194
40 *541:13 0.00303194
41 *541:11 0.00506511
42 *541:11 *740:163 0.0078624
43 *541:15 *740:167 0.00362061
44 *541:19 *546:13 0.0080776
45 *541:19 *564:13 0.00028017
46 *541:27 *556:11 0
47 *541:27 *567:12 0.000374372
48 *541:27 *567:14 0.00971207
49 *541:27 *569:14 0.00247534
50 *541:27 *572:16 0.0114185
51 *541:35 gpio_out[39] 0.000835161
52 *541:35 *826:31 0.00981475
53 *541:59 *825:23 0.0015442
54 *541:59 *844:13 0.00274652
55 *541:69 *815:47 0.0156675
56 *541:69 *826:21 0.00174137
57 *541:75 *693:133 0.00236004
58 *541:75 *693:137 0
59 *541:75 *737:147 0.000448105
60 *541:81 *693:125 0.00117347
61 *541:81 *739:74 1.33927e-05
62 *541:85 *693:121 0.0147862
63 *541:85 *737:135 0.0154877
64 *541:85 *826:21 0.00173548
65 *541:85 *873:21 0
66 *541:89 *739:68 0.000773016
67 *541:89 *873:23 0
68 *541:95 *556:37 0.000244447
69 *541:95 *840:19 0.000326996
70 *541:107 *693:95 0.000603959
71 *541:107 *749:21 4.67488e-05
72 *541:107 *815:15 0.000961457
73 *541:107 *824:17 9.41704e-05
74 *541:107 *841:21 9.41704e-05
75 *541:107 *847:36 5.56279e-05
76 *541:111 *690:23 0.00684853
77 *541:111 *820:11 0.0323704
78 *541:119 *752:11 0.000112617
79 *541:127 *542:47 0.00140071
80 *541:127 *737:17 0.00516397
81 *541:127 *737:27 0
82 *541:131 *693:19 0.0269363
83 *541:131 *716:11 0.000317461
84 gpio_analog_pol[20] gpio_inp_dis[20] 0
85 gpio_analog_pol[20] *541:135 0
86 gpio_analog_pol[38] *541:55 0
87 gpio_analog_sel[42] *541:15 0
88 *118:113 *541:23 0
89 *118:161 *541:41 2.24608e-05
90 *118:163 *541:43 0.0235184
91 *118:171 *541:53 0.00526928
92 *118:187 *541:75 0.0023602
93 *118:187 *541:95 2.1819e-05
94 *145:19 *541:135 0
95 *160:23 *541:131 0.0183693
96 *163:23 *541:131 0
97 *206:51 *541:127 0
98 *293:15 *541:95 0.0020648
99 *301:17 *541:19 0.000345478
100 *322:175 *541:35 0.00928201
101 *322:199 *541:53 1.00446e-05
102 *322:219 *541:63 0.000745903
103 *322:225 *541:69 4.67767e-05
104 *322:245 *541:85 0
105 *322:273 *541:107 0.00795723
106 *322:297 *541:115 0
107 *325:57 *541:11 0.000978956
108 *325:83 *541:35 0.0162599
109 *325:87 *541:43 0.0234331
110 *325:107 *541:63 0
111 *325:133 *541:81 0.00068418
112 *325:139 *541:89 0.000690681
113 *325:145 *541:95 0.00196938
114 *335:25 *541:19 0.00197104
115 *335:25 *541:59 0.000554801
116 *335:43 *541:95 0.000669467
117 *335:49 *541:103 0.0162747
118 *338:33 *541:11 0
119 *338:45 *541:27 0.00119213
120 *338:63 *541:27 0.00155876
121 *338:63 *541:35 0.00075715
122 *338:79 *541:103 0.00872661
123 *386:97 *541:41 7.2909e-05
124 *386:99 *541:35 0.00538391
125 *392:19 *541:111 0.00777151
126 *397:75 *541:53 0.00504313
127 *402:11 *541:111 0.086387
128 *419:15 *541:103 6.48346e-06
129 *419:21 *541:95 6.36827e-05
130 *419:37 *541:41 9.34501e-05
131 *444:55 *541:27 0.062394
132 *448:39 *541:75 9.95346e-05
133 *449:13 *541:119 0
134 *450:13 *541:119 0.00196514
135 *453:49 *541:59 0.00862146
136 *454:17 *541:127 0.0114162
137 *464:11 *541:111 0
138 *465:11 *541:111 0
139 *472:55 *541:35 0
140 *477:11 *541:19 0.000718568
141 *529:9 *541:27 0.000793681
142 *531:12 *541:27 0.00162515
143 *533:42 *541:11 0.0017987
144 *533:42 *541:15 0
145 *539:63 *541:35 9.13368e-06
146 *539:87 *541:53 9.67775e-05
147 *539:105 *541:63 0.000757558
148 *539:111 *541:69 0.0155777
149 *539:111 *541:75 0.000641427
150 *539:151 *541:103 0
*RES
1 *921:gpio_inp_dis[20] *541:11 49.3236 
2 *541:11 *541:13 8 
3 *541:13 *541:15 58.7768 
4 *541:15 *541:17 15 
5 *541:17 *541:19 86.3786 
6 *541:19 *541:21 15 
7 *541:21 *541:23 40.9936 
8 *541:23 *541:25 15 
9 *541:25 *541:27 683.344 
10 *541:27 *541:33 26.8425 
11 *541:33 *541:35 63.168 
12 *541:35 *541:41 26.8425 
13 *541:41 *541:43 258.369 
14 *541:43 *541:53 44.258 
15 *541:53 *541:55 45.3954 
16 *541:55 *541:57 15 
17 *541:57 *541:59 92.0957 
18 *541:59 *541:61 15 
19 *541:61 *541:63 46.8039 
20 *541:63 *541:69 44.7355 
21 *541:69 *541:75 49.9968 
22 *541:75 *541:81 38.4632 
23 *541:81 *541:85 37.3365 
24 *541:85 *541:89 30.8154 
25 *541:89 *541:95 46.5375 
26 *541:95 *541:103 48.1139 
27 *541:103 *541:105 15 
28 *541:105 *541:107 122.111 
29 *541:107 *541:109 15 
30 *541:109 *541:111 1586.2 
31 *541:111 *541:113 15 
32 *541:113 *541:115 86.855 
33 *541:115 *541:119 40.4993 
34 *541:119 *541:125 40.15 
35 *541:125 *541:127 146.284 
36 *541:127 *541:129 15 
37 *541:129 *541:131 886.779 
38 *541:131 *541:133 15 
39 *541:133 *541:135 3116.79 
40 *541:135 gpio_inp_dis[20] 1.86429 
*END

*D_NET *542 1.16224
*CONN
*P gpio_inp_dis[21] O
*I *921:gpio_inp_dis[21] O *D CF_CARAVEL_SOC
*CAP
1 gpio_inp_dis[21] 0.000134032
2 *921:gpio_inp_dis[21] 0.00229523
3 *542:55 0.117475
4 *542:53 0.117341
5 *542:51 0.0107123
6 *542:49 0.0107123
7 *542:47 0.0215517
8 *542:45 0.0218914
9 *542:39 0.0092037
10 *542:37 0.00942989
11 *542:31 0.0185851
12 *542:29 0.0182544
13 *542:23 0.00865039
14 *542:21 0.00920896
15 *542:15 0.00654093
16 *542:13 0.00574718
17 *542:11 0.0280258
18 *542:9 0.030321
19 *542:11 *544:13 0.210827
20 *542:11 *570:22 0.0072852
21 *542:11 *760:31 0.000364883
22 *542:11 *868:11 0.0388921
23 *542:15 *559:27 0
24 *542:15 *781:19 0.00307644
25 *542:15 *838:23 0.000140304
26 *542:15 *839:219 0.00228516
27 *542:15 *840:25 1.11421e-05
28 *542:15 *840:27 0.0116592
29 *542:15 *842:15 0.00211427
30 *542:15 *860:15 0
31 *542:15 *860:19 0
32 *542:21 *921:mask_rev[0] 0
33 *542:21 *921:mask_rev[1] 0.000250046
34 *542:23 *785:11 0.0104168
35 *542:23 *804:11 0.00173265
36 *542:23 *853:23 0.0129644
37 *542:29 *793:9 0
38 *542:29 *804:9 0.000321314
39 *542:31 *764:11 0.00909795
40 *542:31 *786:11 0.00192584
41 *542:31 *796:11 0
42 *542:39 *758:9 0.00273872
43 *542:39 *831:27 0.00839046
44 *542:47 *543:39 0.00558381
45 *542:47 *737:17 0.00164777
46 *542:47 *756:6 0.0308665
47 *542:51 *720:9 0.00339609
48 *542:51 *807:15 0
49 *542:55 *670:7 0
50 gpio_analog_pol[21] gpio_inp_dis[21] 0
51 gpio_analog_pol[21] *542:55 0
52 *103:15 *542:51 0
53 *146:25 *542:55 0
54 *336:47 *542:11 0.176027
55 *353:31 *542:11 0.00968348
56 *374:9 *542:45 5.66092e-05
57 *376:9 *542:45 0
58 *397:11 *542:23 0.00221851
59 *399:11 *542:31 0.00109851
60 *407:11 *542:31 0.0192521
61 *430:11 *542:23 0.000110158
62 *431:11 *542:23 0.0393106
63 *432:11 *542:23 0.000295125
64 *434:11 *542:23 0
65 *449:13 *542:39 0.000574661
66 *450:13 *542:39 0
67 *454:13 *542:51 0.0613318
68 *455:9 *542:51 0.0383113
69 *465:21 *542:15 0
70 *536:19 *542:9 0
71 *537:10 *542:9 0
72 *538:39 *542:9 0.00050012
73 *541:127 *542:47 0.00140071
*RES
1 *921:gpio_inp_dis[21] *542:9 49.4582 
2 *542:9 *542:11 2251.27 
3 *542:11 *542:13 15 
4 *542:13 *542:15 194.704 
5 *542:15 *542:21 18.1168 
6 *542:21 *542:23 535.402 
7 *542:23 *542:29 16.8288 
8 *542:29 *542:31 586.639 
9 *542:31 *542:37 38.7207 
10 *542:37 *542:39 236.257 
11 *542:39 *542:45 16.8717 
12 *542:45 *542:47 127.116 
13 *542:47 *542:49 8 
14 *542:49 *542:51 112.155 
15 *542:51 *542:53 8 
16 *542:53 *542:55 2658.12 
17 *542:55 gpio_inp_dis[21] 1.86429 
*END

*D_NET *543 1.11099
*CONN
*P gpio_inp_dis[22] O
*I *921:gpio_inp_dis[22] O *D CF_CARAVEL_SOC
*CAP
1 gpio_inp_dis[22] 0.00441491
2 *921:gpio_inp_dis[22] 0.00128557
3 *543:49 0.00444213
4 *543:47 0.0844546
5 *543:45 0.0844274
6 *543:43 0.00557293
7 *543:41 0.00557293
8 *543:39 0.0276443
9 *543:37 0.0300845
10 *543:31 0.017468
11 *543:29 0.0152005
12 *543:23 0.0322261
13 *543:21 0.0321334
14 *543:11 0.0597692
15 *543:9 0.0609748
16 *543:11 *771:27 0.215498
17 *543:21 *861:27 7.45617e-05
18 *543:23 *558:25 0.00687744
19 *543:23 *749:11 0.00398609
20 *543:23 *771:11 0.00528008
21 *543:23 *824:11 0.00997326
22 *543:23 *826:11 0
23 *543:23 *855:23 0.00515774
24 *543:23 *861:27 0.00571281
25 *543:29 *817:9 7.63411e-05
26 *543:31 *687:19 0.0040504
27 *543:31 *732:10 0.00633577
28 *543:31 *737:65 0.0194603
29 *543:31 *766:11 0.00592045
30 *543:39 *756:6 0
31 *543:43 *720:9 0.0284634
32 *543:43 *807:15 0
33 *543:47 *709:7 0.0841458
34 gpio_analog_en[33] *543:37 0.000111108
35 gpio_analog_pol[22] gpio_inp_dis[22] 0
36 gpio_analog_pol[22] *543:47 0
37 *165:23 *543:11 0.010409
38 *206:57 *543:37 0
39 *248:35 *543:31 0
40 *292:25 *543:21 8.66462e-05
41 *296:23 *543:11 0.0071617
42 *322:215 *543:11 0
43 *357:19 *543:31 0
44 *364:27 *543:23 0.026102
45 *364:27 *543:31 0.000416277
46 *375:19 *543:31 0.00780442
47 *388:11 *543:21 7.23298e-05
48 *388:11 *543:23 0.0059172
49 *413:11 *543:23 0.00512279
50 *418:11 *543:23 0.0252087
51 *418:11 *543:31 0.00247056
52 *425:11 *543:23 0.012394
53 *434:23 *543:11 0.013604
54 *435:11 *543:23 0
55 *448:21 *543:23 0
56 *449:21 *543:31 0
57 *453:41 *543:31 0
58 *454:17 *543:39 0.0104975
59 *454:23 *543:37 0.00139374
60 *455:9 *543:43 0.0347235
61 *455:13 *543:39 0.00762386
62 *455:19 *543:37 0.000744956
63 *456:31 *543:11 0.00018352
64 *468:11 *543:31 0.0392464
65 *470:15 *543:11 0.0273349
66 *470:15 *543:21 9.0213e-05
67 *474:15 *543:11 0
68 *539:101 *543:11 0
69 *542:47 *543:39 0.00558381
*RES
1 *921:gpio_inp_dis[22] *543:9 31.8511 
2 *543:9 *543:11 2311.3 
3 *543:11 *543:21 32.2102 
4 *543:21 *543:23 167.1 
5 *543:23 *543:29 16.3565 
6 *543:29 *543:31 707.952 
7 *543:31 *543:37 22.8824 
8 *543:37 *543:39 109.219 
9 *543:39 *543:41 8 
10 *543:41 *543:43 63.3827 
11 *543:43 *543:45 8 
12 *543:45 *543:47 2559.56 
13 *543:47 *543:49 0.621429 
14 *543:49 gpio_inp_dis[22] 98.6311 
*END

*D_NET *544 1.12558
*CONN
*P gpio_inp_dis[23] O
*I *921:gpio_inp_dis[23] O *D CF_CARAVEL_SOC
*CAP
1 gpio_inp_dis[23] 0.00229409
2 *921:gpio_inp_dis[23] 0.00225135
3 *544:33 0.131183
4 *544:31 0.128888
5 *544:29 0.00271482
6 *544:27 0.00271482
7 *544:25 0.00200522
8 *544:23 0.00200522
9 *544:21 0.00324057
10 *544:19 0.00324057
11 *544:17 0.0364017
12 *544:15 0.0364017
13 *544:13 0.0305029
14 *544:11 0.0327543
15 *544:11 *839:45 0.00010853
16 *544:13 *553:13 0.218986
17 *544:13 *570:22 0.00369703
18 *544:13 *749:27 0
19 *544:13 *841:11 0.046694
20 *544:17 *736:39 0
21 *544:17 *779:11 0.00684651
22 *544:17 *788:11 0.0436923
23 *544:25 *836:11 0.00220882
24 *544:29 *735:21 0.0016225
25 *544:33 *693:25 0
26 gpio_analog_pol[23] gpio_inp_dis[23] 0
27 *119:27 *544:17 0.000500538
28 *148:17 *544:33 0
29 *206:51 *544:25 4.84171e-05
30 *207:51 *544:17 0.0565345
31 *294:27 *544:17 0
32 *322:285 *544:17 0.0336905
33 *322:377 *544:33 0.0164064
34 *353:31 *544:13 0.000194504
35 *367:11 *544:17 0.010392
36 *375:27 *544:25 0.0123565
37 *411:11 *544:17 0.0189471
38 *437:31 *544:29 0
39 *446:25 *544:17 0
40 *455:25 *544:13 0
41 *456:15 *544:29 0.00859979
42 *456:23 *544:21 0.00438316
43 *472:27 *544:25 0.0122429
44 *542:11 *544:13 0.210827
*RES
1 *921:gpio_inp_dis[23] *544:11 47.8218 
2 *544:11 *544:13 2382.76 
3 *544:13 *544:15 15 
4 *544:15 *544:17 1634.09 
5 *544:17 *544:19 15 
6 *544:19 *544:21 64.4629 
7 *544:21 *544:23 15 
8 *544:23 *544:25 157.905 
9 *544:25 *544:27 15 
10 *544:27 *544:29 92.0957 
11 *544:29 *544:31 15 
12 *544:31 *544:33 3076.35 
13 *544:33 gpio_inp_dis[23] 49.8489 
*END

*D_NET *545 1.23149
*CONN
*P gpio_inp_dis[24] O
*I *921:gpio_inp_dis[24] O *D CF_CARAVEL_SOC
*CAP
1 gpio_inp_dis[24] 0.00461536
2 *921:gpio_inp_dis[24] 0.00134541
3 *545:15 0.105794
4 *545:13 0.101179
5 *545:11 0.0375714
6 *545:9 0.0389168
7 *545:9 *557:17 0.000161255
8 *545:11 *554:13 0.225313
9 *545:11 *852:19 0.0116218
10 *545:15 *724:17 0.00432741
11 *545:15 *817:11 0.01038
12 gpio_analog_pol[24] gpio_inp_dis[24] 0
13 gpio_analog_pol[43] *545:9 0
14 gpio_analog_sel[24] gpio_inp_dis[24] 0
15 *164:35 *545:11 0.0383254
16 *237:23 gpio_inp_dis[24] 0
17 *238:15 *545:11 0.00608516
18 *249:25 *545:11 0.000100139
19 *253:15 *545:11 0.0228763
20 *296:21 *545:9 4.89546e-05
21 *336:67 *545:15 0.108723
22 *338:71 *545:11 0.0114516
23 *366:11 *545:15 0
24 *369:11 *545:15 0.0253278
25 *383:11 *545:15 0.000868717
26 *417:11 *545:15 0.00490877
27 *426:11 *545:15 0.00396649
28 *437:11 *545:15 0.00181887
29 *457:11 *545:15 0.370862
30 *461:23 *545:11 0.0948975
*RES
1 *921:gpio_inp_dis[24] *545:9 34.9996 
2 *545:9 *545:11 2425.64 
3 *545:11 *545:13 15 
4 *545:13 *545:15 4727.13 
5 *545:15 gpio_inp_dis[24] 18.9545 
*END

*D_NET *546 0.955246
*CONN
*P gpio_inp_dis[25] O
*I *921:gpio_inp_dis[25] O *D CF_CARAVEL_SOC
*CAP
1 gpio_inp_dis[25] 0.00411143
2 *921:gpio_inp_dis[25] 0.00279974
3 *546:25 0.144911
4 *546:23 0.144682
5 *546:13 0.0490832
6 *546:11 0.0452013
7 *546:9 0.00279974
8 *546:9 gpio_vtrip_sel[43] 0
9 *546:13 *552:13 0.225097
10 *546:13 *560:19 0.0138383
11 *546:13 *564:13 0.000247367
12 *546:13 *565:13 0.00624986
13 *546:13 *784:13 0.0332027
14 *546:23 *549:23 0
15 *546:23 *552:23 0.000192521
16 *546:23 *785:15 0
17 *546:23 *825:23 0.000383919
18 *546:23 *853:17 0
19 *546:25 *693:91 0
20 *546:25 *761:11 0.0100492
21 *546:25 *813:11 0
22 *546:25 *814:19 0.0144409
23 *546:25 *816:25 0.000596536
24 *546:25 *832:27 0.0241353
25 *546:25 *873:49 0.11078
26 *150:31 gpio_inp_dis[25] 0
27 *248:29 *546:23 0.000387597
28 *250:33 *546:23 0.00330832
29 *284:59 *546:25 0
30 *284:67 *546:25 0.0057642
31 *301:17 *546:13 0.000128867
32 *335:25 *546:13 0.0104371
33 *345:15 *546:13 0.00321651
34 *398:15 *546:25 0.00133515
35 *398:19 *546:25 0
36 *409:11 *546:25 0
37 *412:11 *546:25 0
38 *422:11 *546:25 0.0115637
39 *422:27 *546:25 0.000823326
40 *428:21 *546:23 0.000171676
41 *446:27 *546:23 0.000214439
42 *447:21 *546:23 0.000379423
43 *453:49 *546:13 0.000537758
44 *454:53 *546:13 0.0699709
45 *472:15 *546:25 0
46 *477:11 *546:13 0.00612639
47 *541:19 *546:13 0.0080776
*RES
1 *921:gpio_inp_dis[25] *546:9 39.8646 
2 *546:9 *546:11 15 
3 *546:11 *546:13 2404.2 
4 *546:13 *546:23 44.9961 
5 *546:23 *546:25 3873.01 
6 *546:25 gpio_inp_dis[25] 17.0057 
*END

*D_NET *547 1.03469
*CONN
*P gpio_inp_dis[26] O
*I *921:gpio_inp_dis[26] O *D CF_CARAVEL_SOC
*CAP
1 gpio_inp_dis[26] 0.00111842
2 *921:gpio_inp_dis[26] 0.0012357
3 *547:25 0.105113
4 *547:23 0.106573
5 *547:13 0.0379266
6 *547:11 0.0365846
7 *547:13 *555:13 0.0168645
8 *547:13 *838:11 0.0419804
9 *547:23 *559:27 5.27114e-06
10 *547:25 *557:31 0
11 *547:25 *693:55 0.00370346
12 *547:25 *810:11 0.0158189
13 gpio_analog_pol[26] gpio_inp_dis[26] 0
14 gpio_dm0[26] gpio_inp_dis[26] 0
15 *119:15 *547:13 0.084086
16 *289:23 *547:13 0.025981
17 *325:27 *547:11 0.000805174
18 *325:167 *547:25 0
19 *336:19 *547:11 0.00182695
20 *336:67 *547:23 0.00010982
21 *378:11 *547:25 0.0210637
22 *445:23 *547:13 0.00560244
23 *447:17 *547:25 0
24 *455:25 *547:13 3.72835e-05
25 *461:11 *547:25 0.2499
26 *461:21 *547:23 0.0011013
27 *462:21 *547:23 0.00101052
28 *465:23 *547:13 0.102017
29 *472:11 *547:23 0.00113824
30 *481:15 *547:13 0.173091
*RES
1 *921:gpio_inp_dis[26] *547:11 42.5396 
2 *547:11 *547:13 2495.2 
3 *547:13 *547:23 41.9222 
4 *547:23 *547:25 3632.15 
5 *547:25 gpio_inp_dis[26] 10.4836 
*END

*D_NET *548 0.97829
*CONN
*P gpio_inp_dis[27] O
*I *921:gpio_inp_dis[27] O *D CF_CARAVEL_SOC
*CAP
1 gpio_inp_dis[27] 0.00149315
2 *921:gpio_inp_dis[27] 0.00108974
3 *548:23 0.0969712
4 *548:21 0.0994247
5 *548:11 0.0421864
6 *548:9 0.0393295
7 *548:11 *550:11 0
8 *548:11 *842:11 0.00838149
9 *548:21 *557:27 0.0010676
10 *548:23 gpio_vtrip_sel[33] 0.000277438
11 *548:23 *693:39 0.00203023
12 *548:23 *811:11 0.0157429
13 gpio_analog_en[32] *548:23 7.74897e-05
14 gpio_analog_pol[27] gpio_inp_dis[27] 0.000443566
15 gpio_analog_pol[30] *548:23 0.000277438
16 gpio_analog_sel[29] *548:23 0.000277438
17 gpio_analog_sel[32] *548:23 0.000277445
18 gpio_dm0[32] *548:23 0.000164186
19 gpio_dm2[28] *548:23 0.000169974
20 gpio_dm2[34] *548:23 0.000387076
21 gpio_dm2[37] *548:23 0.000441895
22 gpio_holdover[27] *548:23 0.000169974
23 gpio_ib_mode_sel[35] *548:23 0.000387076
24 *165:15 *548:11 0.00820803
25 *256:15 *548:11 0.0134895
26 *292:15 *548:11 4.51416e-05
27 *293:25 *548:21 0.000919325
28 *295:15 *548:11 0.0015183
29 *299:23 *548:11 0.00445359
30 *325:71 *548:11 0.0718678
31 *338:19 *548:11 0.020561
32 *381:11 *548:23 0.00586473
33 *381:15 *548:23 0.0129485
34 *428:17 *548:11 0.000387879
35 *431:15 *548:11 0.0247338
36 *447:17 *548:23 0
37 *452:15 *548:11 0.00344186
38 *456:31 *548:11 7.36693e-05
39 *460:23 *548:11 0.0505356
40 *462:11 *548:23 0.231573
41 *466:15 *548:21 0.00245384
42 *468:27 *548:11 6.18635e-05
43 *468:29 *548:11 0.00498902
44 *469:15 *548:21 0.00121439
45 *479:15 *548:11 0.00899026
46 *484:15 *548:11 0.198891
*RES
1 *921:gpio_inp_dis[27] *548:9 28.6818 
2 *548:9 *548:11 2493.3 
3 *548:11 *548:21 45.7602 
4 *548:21 *548:23 3396.21 
5 *548:23 gpio_inp_dis[27] 11.4356 
*END

*D_NET *549 1.15275
*CONN
*P gpio_inp_dis[28] O
*I *921:gpio_inp_dis[28] O *D CF_CARAVEL_SOC
*CAP
1 gpio_inp_dis[28] 0.00308525
2 *921:gpio_inp_dis[28] 0.00334623
3 *549:25 0.0563533
4 *549:23 0.0552501
5 *549:13 0.033738
6 *549:11 0.0317559
7 *549:9 0.00334623
8 *549:13 *692:27 0.00885119
9 *549:13 *693:193 0.0101462
10 *549:13 *697:115 0.00108765
11 *549:13 *698:27 0.00192305
12 *549:13 *739:140 0.000346987
13 *549:13 *741:168 0.00338537
14 *549:13 *824:23 0.0119756
15 *549:13 *848:11 0.0153222
16 *549:13 *865:11 0.00644834
17 *549:13 *867:11 0.223338
18 *549:23 *848:23 0
19 gpio_analog_pol[28] gpio_inp_dis[28] 0
20 gpio_dm0[43] *549:13 0.000433743
21 *207:31 *549:13 0.176675
22 *238:27 *549:25 0.247052
23 *251:25 *549:23 0.000341812
24 *252:15 *549:13 0.00716879
25 *284:39 *549:13 0.0246954
26 *284:49 *549:23 0.00439979
27 *297:22 *549:13 0.00379285
28 *385:15 *549:13 0.00117119
29 *387:15 *549:13 0.00165925
30 *387:15 *549:23 1.0267e-05
31 *402:11 *549:25 0
32 *464:11 *549:25 0.215646
33 *546:23 *549:23 0
*RES
1 *921:gpio_inp_dis[28] *549:9 48.3161 
2 *549:9 *549:11 15 
3 *549:11 *549:13 2538.08 
4 *549:13 *549:23 40.8484 
5 *549:23 *549:25 3206.76 
6 *549:25 gpio_inp_dis[28] 14.5231 
*END

*D_NET *550 0.921077
*CONN
*P gpio_inp_dis[29] O
*I *921:gpio_inp_dis[29] O *D CF_CARAVEL_SOC
*CAP
1 gpio_inp_dis[29] 0.00252675
2 *921:gpio_inp_dis[29] 0.000792845
3 *550:27 0.00351094
4 *550:25 0.00101169
5 *550:23 0.0428396
6 *550:21 0.0481053
7 *550:11 0.0579353
8 *550:9 0.0534351
9 *550:11 *737:127 0.000104089
10 *550:11 *815:39 0.00289785
11 *550:11 *815:49 0.0394018
12 *550:11 *839:197 0.00303827
13 *550:11 *839:205 0.000147655
14 *550:11 *839:215 0.00434657
15 *550:11 *840:11 0.0111966
16 *550:11 *846:13 0.114642
17 *550:11 *858:11 0.00626671
18 *550:21 *557:27 0.00031192
19 *550:21 *771:23 0
20 *550:21 *846:39 0.000352264
21 *550:23 *812:11 0.0145075
22 *550:27 *812:11 0.00404018
23 gpio_analog_pol[29] gpio_inp_dis[29] 0
24 gpio_dm0[29] gpio_inp_dis[29] 0
25 *154:13 gpio_inp_dis[29] 0
26 *289:35 *550:23 0.194982
27 *292:15 *550:11 0.000316714
28 *325:155 *550:21 0
29 *386:25 *550:21 0
30 *430:23 *550:11 0.0850374
31 *451:25 *550:11 0.000137796
32 *457:21 *550:21 0.0013655
33 *458:21 *550:21 0.00149028
34 *460:11 *550:23 0.22436
35 *460:11 *550:27 0.00197662
36 *548:11 *550:11 0
*RES
1 *921:gpio_inp_dis[29] *550:9 25.1604 
2 *550:9 *550:11 2547.61 
3 *550:11 *550:21 49.7795 
4 *550:21 *550:23 2888.38 
5 *550:23 *550:25 0.621429 
6 *550:25 *550:27 52.3036 
7 *550:27 gpio_inp_dis[29] 13.2388 
*END

*D_NET *551 0.434792
*CONN
*P gpio_inp_dis[2] O
*I *921:gpio_inp_dis[2] O *D CF_CARAVEL_SOC
*CAP
1 gpio_inp_dis[2] 0.00588723
2 *921:gpio_inp_dis[2] 0.00241115
3 *551:125 0.0157604
4 *551:123 0.00987312
5 *551:121 0.0152526
6 *551:119 0.0153848
7 *551:111 0.00141026
8 *551:109 0.00127813
9 *551:107 0.0011151
10 *551:95 0.00253331
11 *551:93 0.00141821
12 *551:91 0.00112687
13 *551:79 0.00242291
14 *551:77 0.00305811
15 *551:69 0.00214168
16 *551:61 0.000609466
17 *551:51 0.00161024
18 *551:49 0.00147678
19 *551:43 0.00387696
20 *551:35 0.00450548
21 *551:33 0.000816587
22 *551:27 0.00408741
23 *551:19 0.00439826
24 *551:15 0.00281366
25 *551:15 *562:17 0.00485489
26 *551:19 *562:23 0
27 *551:27 *562:23 9.79368e-05
28 *551:27 *562:31 2.17681e-05
29 *551:27 *696:159 0
30 *551:33 *562:31 2.33476e-05
31 *551:35 *696:147 0.00183316
32 *551:43 *562:43 0.0119869
33 *551:43 *826:59 0.00186973
34 *551:49 *562:49 1.15883e-05
35 *551:49 *826:59 1.1644e-05
36 *551:51 *826:63 0.00403904
37 *551:69 *562:51 0.00182704
38 *551:69 *696:119 9.88574e-06
39 *551:79 *562:79 0.000108579
40 *551:79 *696:103 0.00288701
41 *551:91 *562:89 4.36401e-06
42 *551:91 *740:141 8.21456e-06
43 *551:95 *740:123 0.000877721
44 *551:107 *562:105 0.00774395
45 *551:107 *826:117 4.42495e-05
46 *551:111 *562:109 0.00964555
47 *551:121 *696:71 0.00265424
48 *551:121 *696:81 0.000604237
49 *551:121 *741:120 0
50 gpio_analog_en[2] gpio_inp_dis[2] 0.00348806
51 gpio_analog_pol[2] gpio_inp_dis[2] 0.00190356
52 gpio_analog_sel[43] *551:121 0.00349792
53 gpio_dm0[2] gpio_inp_dis[2] 0.00420468
54 *118:135 *551:19 0.00205314
55 *118:143 *551:15 0.000993226
56 *223:17 gpio_inp_dis[2] 0.000569678
57 *245:11 *551:125 0.000814503
58 *250:11 *551:125 0.00188133
59 *279:11 *551:125 0.00133771
60 *280:11 *551:125 0.00848601
61 *281:11 gpio_inp_dis[2] 0.000210065
62 *305:11 gpio_inp_dis[2] 0
63 *316:11 *551:125 0.00172776
64 *321:9 gpio_inp_dis[2] 0.00118666
65 *322:19 *551:125 0.0217663
66 *322:47 *551:121 0.00601068
67 *322:59 *551:121 0.000616686
68 *322:105 *551:95 0.00129263
69 *338:45 *551:15 0.00144451
70 *338:63 *551:15 0
71 *339:11 *551:125 0.0091407
72 *386:139 *551:35 0.00175308
73 *386:155 *551:69 0.000889602
74 *397:91 *551:43 2.77015e-05
75 *397:91 *551:49 7.23207e-05
76 *397:125 *551:79 0.00106614
77 *397:133 *551:91 0.00864716
78 *397:147 *551:107 0.00734519
79 *397:173 *551:121 0.00511221
80 *408:61 *551:91 0.00860752
81 *408:75 *551:107 1.36509e-05
82 *419:63 *551:19 0.00119282
83 *419:71 *551:27 0.0130607
84 *419:77 *551:33 1.98354e-05
85 *419:79 *551:35 0.0048346
86 *419:87 *551:43 1.38134e-05
87 *419:103 *551:69 0.000306332
88 *419:111 *551:69 2.24608e-05
89 *419:111 *551:77 4.55635e-05
90 *419:117 *551:77 2.805e-05
91 *419:131 *551:91 2.24903e-05
92 *419:135 *551:95 0.00507082
93 *419:139 *551:95 0.00217688
94 *419:155 *551:107 0.000235771
95 *419:159 *551:111 2.02872e-05
96 *419:173 *551:119 6.25829e-05
97 *419:173 *551:121 1.4344e-05
98 *419:177 *551:121 0.00227299
99 *419:193 *551:121 0.00304487
100 *441:11 *551:125 0.018773
101 *530:19 *551:43 9.47182e-05
102 *530:25 *551:49 0.000104454
103 *530:35 *551:69 9.18156e-06
104 *530:35 *551:77 0.0100354
105 *530:41 *551:77 3.04012e-05
106 *530:43 *551:79 0.00741793
107 *530:43 *551:91 0.000728715
108 *530:53 *551:91 0.000901448
109 *530:55 *551:95 2.23336e-05
110 *530:77 *551:111 1.21972e-05
111 *530:89 *551:119 1.28726e-05
112 *530:89 *551:121 2.24814e-05
113 *530:93 *551:121 0.00038178
114 *530:105 *551:121 0.00430027
115 *531:12 *551:43 0
116 *532:12 *551:43 0
117 *533:14 *551:43 0
118 *533:30 *551:51 0.000568119
119 *533:30 *551:61 0.000182581
120 *533:70 *551:95 0.00746921
121 *533:110 *551:121 0.00287158
122 *535:33 *551:77 0.010113
123 *535:33 *551:79 0.000981511
124 *535:37 *551:79 1.41077e-05
125 *535:57 *551:91 0.0016713
126 *535:93 *551:107 0.00142425
127 *535:95 *551:111 0.00973068
128 *535:109 *551:119 8.37392e-05
129 *535:109 *551:121 0.00639465
130 *535:113 *551:121 0.000215788
131 *535:117 *551:121 0.0031349
132 *537:46 *551:121 0.000244389
133 *537:56 *551:121 0
134 *537:58 *551:121 0.00263597
135 *537:70 *551:121 0.000610606
136 *538:67 *551:121 0.00155083
137 *539:23 *551:61 0
138 *539:35 *551:35 4.21281e-05
139 *539:35 *551:43 0.00182752
140 *540:16 *551:15 0.00138087
141 *540:16 *551:27 0.00144419
142 *540:16 *551:43 0.00128034
143 *540:16 *551:77 0.000919729
144 *540:38 *551:125 0.0401131
*RES
1 *921:gpio_inp_dis[2] *551:15 38.4763 
2 *551:15 *551:19 38.9664 
3 *551:19 *551:27 49.6271 
4 *551:27 *551:33 24.7296 
5 *551:33 *551:35 53.9814 
6 *551:35 *551:43 46.3295 
7 *551:43 *551:49 25.0818 
8 *551:49 *551:51 44.4529 
9 *551:51 *551:61 35.2614 
10 *551:61 *551:69 44.3046 
11 *551:69 *551:77 42.7144 
12 *551:77 *551:79 81.6143 
13 *551:79 *551:91 47.4117 
14 *551:91 *551:93 15 
15 *551:93 *551:95 99.2421 
16 *551:95 *551:107 45.8661 
17 *551:107 *551:109 15 
18 *551:109 *551:111 106.865 
19 *551:111 *551:119 25.4754 
20 *551:119 *551:121 74.1589 
21 *551:121 *551:123 8 
22 *551:123 *551:125 738.941 
23 *551:125 gpio_inp_dis[2] 48.4712 
*END

*D_NET *552 1.08826
*CONN
*P gpio_inp_dis[30] O
*I *921:gpio_inp_dis[30] O *D CF_CARAVEL_SOC
*CAP
1 gpio_inp_dis[30] 0.00565313
2 *921:gpio_inp_dis[30] 0.00272456
3 *552:25 0.0578868
4 *552:23 0.0533464
5 *552:13 0.031681
6 *552:11 0.0305683
7 *552:9 0.00272456
8 *552:13 *564:13 0.000201858
9 *552:13 *565:13 0.0083442
10 *552:13 *784:13 0.0286709
11 *552:23 *785:15 4.36401e-06
12 *552:23 *862:21 0.000416966
13 *552:25 *735:23 0.00485877
14 *552:25 *737:81 0.029463
15 *552:25 *760:11 0
16 *552:25 *815:11 0.000232605
17 *552:25 *848:23 0.00117028
18 gpio_analog_pol[30] gpio_inp_dis[30] 0.00029045
19 *112:31 gpio_inp_dis[30] 0
20 *156:15 gpio_inp_dis[30] 0.00589752
21 *247:19 *552:25 0
22 *248:19 *552:13 0.240816
23 *248:29 *552:23 0.00177692
24 *293:27 *552:25 0
25 *301:17 *552:13 0.000113998
26 *325:23 *552:13 0.0129584
27 *345:15 *552:13 0.00172907
28 *363:11 *552:25 0
29 *374:11 *552:25 0.00330764
30 *415:11 *552:25 0.168811
31 *419:11 *552:25 0.00546297
32 *421:11 *552:25 0.0273262
33 *428:21 *552:23 1.05658e-05
34 *436:11 *552:25 0.00166384
35 *467:11 *552:25 0.129438
36 *477:11 *552:13 0.00541951
37 *546:13 *552:13 0.225097
38 *546:23 *552:23 0.000192521
*RES
1 *921:gpio_inp_dis[30] *552:9 39.5125 
2 *552:9 *552:11 15 
3 *552:11 *552:13 2575.24 
4 *552:13 *552:23 36.4432 
5 *552:23 *552:25 2753.2 
6 *552:25 gpio_inp_dis[30] 23.2479 
*END

*D_NET *553 0.890527
*CONN
*P gpio_inp_dis[31] O
*I *921:gpio_inp_dis[31] O *D CF_CARAVEL_SOC
*CAP
1 gpio_inp_dis[31] 0.000124256
2 *921:gpio_inp_dis[31] 0.00221313
3 *553:25 0.0804721
4 *553:23 0.0803478
5 *553:21 0.0052262
6 *553:13 0.0377871
7 *553:11 0.034774
8 *553:13 *570:22 0.00925213
9 *553:13 *749:27 0
10 *553:13 *841:11 0.0449127
11 *553:21 *825:21 2.33476e-05
12 *553:25 gpio_slow_sel[33] 0.000693942
13 gpio_analog_pol[31] gpio_inp_dis[31] 0.00015149
14 gpio_dm0[31] *553:25 0.00200608
15 gpio_dm0[34] *553:25 0.000438506
16 *117:43 *553:25 0.0464928
17 *207:39 *553:13 1.47709e-05
18 *289:33 *553:21 0.000284262
19 *290:19 *553:25 0.00353115
20 *353:29 *553:21 0.002023
21 *435:23 *553:13 0.243936
22 *459:13 *553:25 0.0705278
23 *462:21 *553:21 0
24 *465:21 *553:21 0.00630808
25 *544:13 *553:13 0.218986
*RES
1 *921:gpio_inp_dis[31] *553:11 47.4696 
2 *553:11 *553:13 2613.36 
3 *553:13 *553:21 42.2677 
4 *553:21 *553:23 8 
5 *553:23 *553:25 2524.07 
6 *553:25 gpio_inp_dis[31] 8.3864 
*END

*D_NET *554 0.9199
*CONN
*P gpio_inp_dis[32] O
*I *921:gpio_inp_dis[32] O *D CF_CARAVEL_SOC
*CAP
1 gpio_inp_dis[32] 0.00205895
2 *921:gpio_inp_dis[32] 0.00135936
3 *554:25 0.0324554
4 *554:23 0.0338292
5 *554:13 0.038442
6 *554:11 0.0363687
7 *554:13 *559:19 0.246533
8 *554:13 *825:17 4.67488e-05
9 *554:13 *829:27 1.89135e-05
10 *554:13 *852:19 0.0100736
11 *554:13 *857:21 2.66596e-05
12 *554:23 *559:27 0.000367916
13 *554:25 *811:11 0.0738546
14 *554:25 *873:57 0.00121861
15 *164:35 *554:13 0.00599141
16 *249:25 *554:23 0.000817711
17 *250:35 *554:23 0
18 *253:15 *554:13 0.0242999
19 *325:159 *554:25 0.136457
20 *338:71 *554:13 0.0132227
21 *386:207 *554:13 0.00125849
22 *387:11 *554:23 3.83492e-05
23 *390:21 *554:23 0.00146971
24 *410:11 *554:25 0
25 *459:23 *554:23 0
26 *462:11 *554:25 0.0343783
27 *545:11 *554:13 0.225313
*RES
1 *921:gpio_inp_dis[32] *554:11 34.7925 
2 *554:11 *554:13 2682.91 
3 *554:13 *554:23 42.231 
4 *554:23 *554:25 1846.08 
5 *554:25 gpio_inp_dis[32] 12.0964 
*END

*D_NET *555 0.911831
*CONN
*P gpio_inp_dis[33] O
*I *921:gpio_inp_dis[33] O *D CF_CARAVEL_SOC
*CAP
1 gpio_inp_dis[33] 0.00855614
2 *921:gpio_inp_dis[33] 0.00183923
3 *555:17 0.0291055
4 *555:15 0.0205494
5 *555:13 0.0360462
6 *555:11 0.0378854
7 *555:13 *558:13 0.0163591
8 *555:13 *828:15 0.0309455
9 *555:13 *837:11 0.0045678
10 *555:17 *556:43 0.108053
11 *555:17 *755:11 0.0387387
12 *555:17 *809:11 0.00469653
13 *555:17 *827:11 0.0782756
14 *555:17 *857:15 0.000602852
15 gpio_analog_pol[33] gpio_inp_dis[33] 0
16 *292:27 *555:17 0.0186898
17 *297:14 *555:13 0.0142971
18 *353:19 *555:17 0
19 *357:15 *555:17 0.00168822
20 *361:11 *555:17 0.000252083
21 *364:39 *555:13 0.000229239
22 *370:11 *555:17 0.00896442
23 *416:11 *555:17 0.00151434
24 *438:19 *555:17 0.00579183
25 *445:23 *555:13 0.205624
26 *458:11 *555:17 0
27 *483:23 *555:13 0.221695
28 *547:13 *555:13 0.0168645
*RES
1 *921:gpio_inp_dis[33] *555:11 41.4832 
2 *555:11 *555:13 2698.64 
3 *555:13 *555:15 15 
4 *555:15 *555:17 1631.8 
5 *555:17 gpio_inp_dis[33] 24.6815 
*END

*D_NET *556 0.689613
*CONN
*P gpio_inp_dis[34] O
*I *921:gpio_inp_dis[34] O *D CF_CARAVEL_SOC
*CAP
1 gpio_inp_dis[34] 0.00774794
2 *921:gpio_inp_dis[34] 0.000267122
3 *556:52 7.29615e-06
4 *556:43 0.0378427
5 *556:41 0.0341544
6 *556:37 0.00461503
7 *556:29 0.00438747
8 *556:21 0.00640552
9 *556:11 0.0630581
10 *556:9 0.0607445
11 *556:11 *557:11 0.0175739
12 *556:11 *567:14 0.000425406
13 *556:11 *568:11 0.022205
14 *556:11 *570:14 0.00636467
15 *556:11 *840:19 0.00957513
16 *556:21 *737:147 8.84148e-05
17 *556:21 *739:74 2.46036e-05
18 *556:21 *826:21 0.000795974
19 *556:21 *840:19 0.00267223
20 *556:29 *826:21 0.0012869
21 *556:29 *840:19 0.00206444
22 *556:37 *693:111 2.47128e-05
23 *556:41 *826:21 0.00530751
24 *556:43 *809:11 0.0404173
25 gpio_analog_pol[34] *556:52 0
26 gpio_analog_sel[34] gpio_inp_dis[34] 6.66938e-05
27 *921:gpio_in[10] *556:21 0.00148198
28 *292:27 *556:43 0.00881195
29 *293:15 *556:11 0
30 *322:235 *556:21 0.000807095
31 *325:139 *556:29 0
32 *325:155 *556:41 0.0171629
33 *386:25 *556:41 0.0222684
34 *396:9 gpio_inp_dis[34] 0.00425626
35 *397:31 *556:29 0.00219656
36 *397:31 *556:37 0.000245746
37 *397:31 *556:41 5.92604e-05
38 *397:39 *556:21 3.45862e-05
39 *397:39 *556:29 0
40 *397:79 *556:11 0.113498
41 *416:11 *556:43 0.00782527
42 *419:15 *556:41 0.00296642
43 *419:21 *556:37 0.000242225
44 *419:23 *556:11 0.0331857
45 *419:23 *556:37 0.00148856
46 *444:55 *556:11 0
47 *444:71 *556:11 0.00035932
48 *458:11 *556:43 0
49 *476:19 *556:11 0.00140257
50 *529:9 *556:11 0.0200171
51 *531:16 *556:11 0.00239173
52 *536:19 *556:11 0.00126805
53 *537:14 *556:11 0.0072999
54 *538:11 *556:11 0.0016571
55 *538:27 *556:11 0.00183603
56 *538:33 *556:11 0.000424426
57 *539:121 *556:21 4.95487e-06
58 *539:133 *556:29 0
59 *541:27 *556:11 0
60 *541:95 *556:37 0.000244447
61 *555:17 *556:43 0.108053
*RES
1 *921:gpio_inp_dis[34] *556:9 17.7654 
2 *556:9 *556:11 2313.21 
3 *556:11 *556:21 37.6252 
4 *556:21 *556:29 41.2889 
5 *556:29 *556:37 42.9582 
6 *556:37 *556:41 49.8731 
7 *556:41 *556:43 1374.91 
8 *556:43 gpio_inp_dis[34] 25.5467 
9 gpio_inp_dis[34] *556:52 0.0819512 
*END

*D_NET *557 0.609402
*CONN
*P gpio_inp_dis[35] O
*I *921:gpio_inp_dis[35] O *D CF_CARAVEL_SOC
*CAP
1 gpio_inp_dis[35] 0.000773869
2 *921:gpio_inp_dis[35] 0.000231563
3 *557:31 0.0387263
4 *557:29 0.0379524
5 *557:27 0.00670293
6 *557:19 0.0496702
7 *557:17 0.0432543
8 *557:11 0.00600465
9 *557:9 0.00594917
10 *557:11 *559:11 0.000337633
11 *557:11 *560:11 0.00135925
12 *557:11 *568:11 0.0341742
13 *557:19 *866:17 0.000367064
14 *557:27 *793:25 0.00214479
15 *557:27 *851:15 2.90913e-05
16 *293:15 *557:11 0
17 *293:15 *557:19 0.000778197
18 *293:25 *557:27 0.000333031
19 *341:18 *557:19 0.019657
20 *408:21 *557:27 0.0020615
21 *428:11 *557:27 0.000140486
22 *441:15 *557:19 0.00409884
23 *441:19 *557:19 0.00390457
24 *442:15 *557:19 0.10317
25 *443:31 *557:19 0.0382724
26 *457:21 *557:27 0.000731247
27 *458:23 *557:19 0.0830396
28 *463:15 *557:19 0.00213432
29 *466:11 *557:31 0.0447517
30 *467:15 *557:19 0.0145641
31 *467:15 *557:27 0.000380707
32 *471:27 *557:19 0.00737153
33 *529:9 *557:11 0.00502749
34 *534:11 *557:19 0.0321936
35 *545:9 *557:17 0.000161255
36 *547:25 *557:31 0
37 *548:21 *557:27 0.0010676
38 *550:21 *557:27 0.00031192
39 *556:11 *557:11 0.0175739
*RES
1 *921:gpio_inp_dis[35] *557:9 17.0611 
2 *557:9 *557:11 375.094 
3 *557:11 *557:17 35.075 
4 *557:17 *557:19 2366.09 
5 *557:19 *557:27 44.6295 
6 *557:27 *557:29 8 
7 *557:29 *557:31 1164.33 
8 *557:31 gpio_inp_dis[35] 9.78547 
*END

*D_NET *558 0.809918
*CONN
*P gpio_inp_dis[36] O
*I *921:gpio_inp_dis[36] O *D CF_CARAVEL_SOC
*CAP
1 gpio_inp_dis[36] 0.00823546
2 *921:gpio_inp_dis[36] 0.00177233
3 *558:25 0.0216032
4 *558:23 0.0137292
5 *558:13 0.0352765
6 *558:11 0.0366873
7 gpio_inp_dis[36] *820:9 0.00164793
8 gpio_inp_dis[36] *821:13 0
9 gpio_inp_dis[36] *832:15 0
10 *558:13 *827:19 0.0259175
11 *558:13 *828:15 0.00402396
12 *558:23 *825:21 4.19894e-05
13 *558:25 *824:11 0.0050937
14 *558:25 *824:19 0.00239643
15 *558:25 *855:23 0.0257915
16 *558:25 *859:23 1.26108e-05
17 *558:25 *861:27 0.00151322
18 gpio_analog_pol[36] gpio_inp_dis[36] 0
19 gpio_dm0[36] gpio_inp_dis[36] 0
20 *294:23 *558:23 0.000993717
21 *297:14 *558:13 0.0247691
22 *364:37 *558:25 0.00103547
23 *364:39 *558:13 0.0145802
24 *413:11 *558:25 0.015667
25 *418:11 *558:25 0.00492623
26 *468:11 *558:25 0.0741501
27 *472:11 *558:23 0.000993717
28 *482:15 *558:13 0.234496
29 *483:23 *558:13 0.231327
30 *543:23 *558:25 0.00687744
31 *555:13 *558:13 0.0163591
*RES
1 *921:gpio_inp_dis[36] *558:11 40.7789 
2 *558:11 *558:13 2784.39 
3 *558:13 *558:23 34.3226 
4 *558:23 *558:25 958.678 
5 *558:25 gpio_inp_dis[36] 26.2569 
*END

*D_NET *559 0.758214
*CONN
*P gpio_inp_dis[37] O
*I *921:gpio_inp_dis[37] O *D CF_CARAVEL_SOC
*CAP
1 gpio_inp_dis[37] 0.00041086
2 *921:gpio_inp_dis[37] 0.000249338
3 *559:38 0
4 *559:31 0.0220089
5 *559:29 0.021598
6 *559:27 0.00607347
7 *559:19 0.0408857
8 *559:17 0.0354784
9 *559:11 0.00322608
10 *559:9 0.0028093
11 *559:11 *560:11 0.00761266
12 *559:17 *697:111 0.00125911
13 *559:17 *740:83 0.0012569
14 *559:19 *847:16 0.00337774
15 *559:27 *852:25 0.000700055
16 *559:27 *860:15 0.000120462
17 gpio_analog_pol[37] gpio_inp_dis[37] 5.97119e-05
18 *209:15 *559:19 0.0296769
19 *238:25 *559:27 0.00262843
20 *249:25 *559:27 0.00600825
21 *293:15 *559:11 0
22 *294:15 *559:19 0.235922
23 *338:71 *559:19 0.0212536
24 *339:23 *559:27 0.000333774
25 *386:207 *559:19 0.00415726
26 *429:19 *559:27 0.00144921
27 *459:13 *559:31 0
28 *461:21 *559:27 0.00229419
29 *466:11 *559:31 0.0563345
30 *474:15 *559:19 0.00218954
31 *529:9 *559:11 0.00159626
32 *542:15 *559:27 0
33 *547:23 *559:27 5.27114e-06
34 *554:13 *559:19 0.246533
35 *554:23 *559:27 0.000367916
36 *557:11 *559:11 0.000337633
*RES
1 *921:gpio_inp_dis[37] *559:9 17.7654 
2 *559:9 *559:11 90.19 
3 *559:11 *559:17 48.1043 
4 *559:17 *559:19 2712.45 
5 *559:19 *559:27 45.823 
6 *559:27 *559:29 8 
7 *559:29 *559:31 733.306 
8 *559:31 gpio_inp_dis[37] 8.9296 
9 gpio_inp_dis[37] *559:38 0.0589474 
*END

*D_NET *560 0.449323
*CONN
*P gpio_inp_dis[38] O
*I *921:gpio_inp_dis[38] O *D CF_CARAVEL_SOC
*CAP
1 gpio_inp_dis[38] 0.00062371
2 *921:gpio_inp_dis[38] 0.000170311
3 *560:27 0.0349763
4 *560:25 0.0346283
5 *560:19 0.00933744
6 *560:17 0.00906177
7 *560:15 0.00274911
8 *560:13 0.00274911
9 *560:11 0.00220752
10 *560:9 0.00237783
11 *560:9 *741:122 0
12 *560:11 *561:12 0.0002138
13 *560:11 *568:11 0.00534939
14 *560:27 *785:27 0.0239255
15 *560:27 *786:23 0.0279509
16 *560:27 *829:35 0.007954
17 *560:27 *859:11 0.0224675
18 gpio_analog_pol[38] gpio_inp_dis[38] 0
19 gpio_analog_sel[42] *560:25 0.000367547
20 gpio_holdover[42] *560:25 0
21 *252:15 *560:27 0.0525802
22 *284:15 *560:19 0.0304518
23 *293:15 *560:11 0
24 *300:19 *560:19 0.014949
25 *300:27 *560:27 0.0298184
26 *301:17 *560:19 0.0127201
27 *335:25 *560:19 0.000476303
28 *345:15 *560:19 0.0337887
29 *433:10 *560:27 0.0627056
30 *433:20 *560:27 0.000190845
31 *478:9 *560:27 0.000404801
32 *529:9 *560:11 0.00131744
33 *546:13 *560:19 0.0138383
34 *557:11 *560:11 0.00135925
35 *559:11 *560:11 0.00761266
*RES
1 *921:gpio_inp_dis[38] *560:9 16.9368 
2 *560:9 *560:11 118.299 
3 *560:11 *560:13 15 
4 *560:13 *560:15 39.585 
5 *560:15 *560:17 15 
6 *560:17 *560:19 625.219 
7 *560:19 *560:25 28.2511 
8 *560:25 *560:27 257.313 
9 *560:27 gpio_inp_dis[38] 16.9175 
*END

*D_NET *561 0.42714
*CONN
*P gpio_inp_dis[39] O
*I *921:gpio_inp_dis[39] O *D CF_CARAVEL_SOC
*CAP
1 gpio_inp_dis[39] 0.000772338
2 *921:gpio_inp_dis[39] 0.00116315
3 *561:18 0.0290126
4 *561:16 0.0311528
5 *561:12 0.00407564
6 *561:12 *567:14 0.00091658
7 *561:12 *568:11 0.00107843
8 *561:12 *740:79 0.00627216
9 *561:18 *563:14 0.123295
10 *561:18 *566:13 0.0421946
11 *561:18 *783:15 0.0243885
12 *561:18 *804:23 0.0312578
13 *561:18 *844:13 0.000139191
14 gpio_analog_pol[39] gpio_inp_dis[39] 0
15 gpio_analog_sel[43] *561:12 0.00157594
16 *250:23 *561:18 0.0268924
17 *300:19 *561:18 0.00332027
18 *335:25 *561:18 0.00219657
19 *345:23 *561:18 0.000643665
20 *433:10 *561:18 0.012809
21 *477:11 *561:18 0.000730314
22 *478:9 *561:18 0.0788551
23 *529:9 *561:12 0.00418437
24 *560:11 *561:12 0.0002138
*RES
1 *921:gpio_inp_dis[39] *561:12 28.5309 
2 *561:12 *561:16 49.6979 
3 *561:16 *561:18 284.103 
4 *561:18 gpio_inp_dis[39] 19.5275 
*END

*D_NET *562 0.475734
*CONN
*P gpio_inp_dis[3] O
*I *921:gpio_inp_dis[3] O *D CF_CARAVEL_SOC
*CAP
1 gpio_inp_dis[3] 0.00668378
2 *921:gpio_inp_dis[3] 0.00114653
3 *562:123 0.0203656
4 *562:121 0.0136818
5 *562:119 0.00809284
6 *562:117 0.00842842
7 *562:109 0.00160899
8 *562:107 0.00127341
9 *562:105 0.00110345
10 *562:91 0.00243785
11 *562:89 0.00290872
12 *562:79 0.00214147
13 *562:73 0.000686287
14 *562:67 0.0016357
15 *562:65 0.00158442
16 *562:59 0.00189297
17 *562:51 0.00324135
18 *562:49 0.00145877
19 *562:43 0.00196958
20 *562:35 0.00367154
21 *562:33 0.0017445
22 *562:31 0.00154027
23 *562:23 0.0026773
24 *562:17 0.00228356
25 *562:23 *826:47 0.000274382
26 *562:31 *696:159 0
27 *562:51 *696:119 1.21972e-05
28 *562:59 *696:119 0.000962975
29 *562:59 *696:129 3.35885e-06
30 *562:59 *826:71 0.0101563
31 *562:65 *826:77 2.11066e-05
32 *562:67 *826:79 0.00452077
33 *562:79 *696:103 0.000314596
34 *562:79 *740:145 0.00162347
35 *562:89 *741:160 0.00429092
36 *562:91 *741:140 0.00113177
37 *562:105 *826:117 0.00766826
38 *562:117 *696:93 0
39 *562:117 *826:119 0.000119224
40 *562:119 *572:26 9.91747e-05
41 *562:119 *696:89 0.000124457
42 *562:123 *727:15 0.0163426
43 gpio_analog_en[3] gpio_inp_dis[3] 0
44 gpio_analog_pol[3] gpio_inp_dis[3] 0.00186832
45 gpio_analog_sel[43] *562:119 0.00341212
46 gpio_dm0[3] gpio_inp_dis[3] 0
47 *90:11 *562:123 0.000370099
48 *98:9 gpio_inp_dis[3] 0.000244354
49 *118:23 *562:119 0.0103021
50 *118:115 *562:35 0
51 *118:129 *562:23 7.57281e-06
52 *118:135 *562:23 0.000260432
53 *118:143 *562:17 0.00147204
54 *144:11 *562:123 0.00127477
55 *223:11 *562:123 0.00375348
56 *247:11 *562:123 0.00152175
57 *308:11 *562:123 0.000195307
58 *336:39 *562:59 6.75548e-06
59 *336:39 *562:73 0.000233851
60 *338:25 *562:73 0.000232912
61 *386:131 *562:23 4.79458e-06
62 *386:131 *562:31 0.013035
63 *386:137 *562:31 5.79413e-06
64 *386:155 *562:51 0.000550542
65 *397:109 *562:65 2.66291e-05
66 *397:133 *562:89 0.00866693
67 *397:147 *562:105 2.17671e-05
68 *397:159 *562:117 0
69 *397:171 *562:117 6.84987e-06
70 *408:61 *562:89 1.76364e-05
71 *408:63 *562:91 2.02872e-05
72 *408:95 *562:117 3.89477e-05
73 *408:97 *562:119 0.0425162
74 *419:71 *562:23 4.94435e-05
75 *419:71 *562:31 0.0130781
76 *419:77 *562:31 4.82774e-05
77 *419:79 *562:35 0.00254075
78 *419:87 *562:43 0.0120669
79 *419:117 *562:65 4.51887e-05
80 *419:131 *562:89 7.14539e-05
81 *419:135 *562:91 0.00284727
82 *419:139 *562:91 0.0038434
83 *419:155 *562:105 2.24608e-05
84 *419:159 *562:109 0.00969071
85 *419:173 *562:117 0.000100176
86 *430:27 *562:123 0.0726869
87 *444:51 *562:89 0
88 *445:19 *562:123 0.0318103
89 *529:9 *562:119 0
90 *530:11 *562:35 0
91 *530:25 *562:49 2.05503e-05
92 *530:27 *562:51 0.0058198
93 *530:35 *562:59 3.33144e-05
94 *530:55 *562:91 0.00881433
95 *530:69 *562:105 0.000127077
96 *530:75 *562:105 5.79413e-06
97 *530:77 *562:109 2.18506e-05
98 *532:12 *562:43 0
99 *533:48 *562:65 1.96391e-05
100 *533:68 *562:89 2.95119e-05
101 *533:92 *562:105 8.66845e-05
102 *533:94 *562:109 1.21972e-05
103 *535:33 *562:59 0.0102025
104 *535:33 *562:67 0.000385652
105 *535:37 *562:79 0.00192441
106 *535:57 *562:79 2.11066e-05
107 *535:57 *562:89 0.00238538
108 *535:65 *562:89 2.37336e-05
109 *535:65 *562:91 0.000268074
110 *535:75 *562:105 2.58697e-05
111 *535:93 *562:105 0.00179582
112 *535:95 *562:109 2.18506e-05
113 *536:29 *562:89 0
114 *536:59 *562:117 3.28227e-05
115 *536:63 *562:119 0.0207602
116 *537:26 *562:105 0.00100503
117 *539:35 *562:35 0.00044458
118 *540:16 *562:17 0.000705204
119 *540:16 *562:31 0.00143899
120 *540:16 *562:43 0.0011581
121 *540:16 *562:59 0.000924931
122 *551:15 *562:17 0.00485489
123 *551:19 *562:23 0
124 *551:27 *562:23 9.79368e-05
125 *551:27 *562:31 2.17681e-05
126 *551:33 *562:31 2.33476e-05
127 *551:43 *562:43 0.0119869
128 *551:49 *562:49 1.15883e-05
129 *551:69 *562:51 0.00182704
130 *551:79 *562:79 0.000108579
131 *551:91 *562:89 4.36401e-06
132 *551:107 *562:105 0.00774395
133 *551:111 *562:109 0.00964555
*RES
1 *921:gpio_inp_dis[3] *562:17 44.8376 
2 *562:17 *562:23 43.8861 
3 *562:23 *562:31 41.2186 
4 *562:31 *562:33 15 
5 *562:33 *562:35 53.9814 
6 *562:35 *562:43 45.8828 
7 *562:43 *562:49 23.6732 
8 *562:49 *562:51 64.4629 
9 *562:51 *562:59 42.534 
10 *562:59 *562:65 24.3775 
11 *562:65 *562:67 49.6936 
12 *562:67 *562:73 33.3143 
13 *562:73 *562:79 46.9104 
14 *562:79 *562:89 49.4611 
15 *562:89 *562:91 97.3364 
16 *562:91 *562:105 48.7808 
17 *562:105 *562:107 15 
18 *562:107 *562:109 106.865 
19 *562:109 *562:117 28.5411 
20 *562:117 *562:119 78.3664 
21 *562:119 *562:121 8 
22 *562:121 *562:123 979.102 
23 *562:123 gpio_inp_dis[3] 23.2199 
*END

*D_NET *563 0.356356
*CONN
*P gpio_inp_dis[40] O
*I *921:gpio_inp_dis[40] O *D CF_CARAVEL_SOC
*CAP
1 gpio_inp_dis[40] 0.000710223
2 *921:gpio_inp_dis[40] 0.000422544
3 *563:14 0.0238951
4 *563:12 0.0260567
5 *563:8 0.00329429
6 *563:8 *567:14 0.000565236
7 *563:8 *568:11 0.000644296
8 *563:8 *740:79 0.00308008
9 *563:14 *564:13 0.102906
10 *563:14 *566:13 0.00338408
11 *563:14 *695:67 0.00221225
12 *563:14 *804:23 0.000623136
13 *563:14 *844:13 0.0273416
14 gpio_analog_pol[40] gpio_inp_dis[40] 0.000181366
15 gpio_analog_sel[43] *563:8 0.000696729
16 *250:23 *563:14 0.000719416
17 *335:25 *563:14 0.015432
18 *476:11 *563:14 0.0113762
19 *477:11 *563:14 0.00783747
20 *529:9 *563:8 0.00168209
21 *561:18 *563:14 0.123295
*RES
1 *921:gpio_inp_dis[40] *563:8 21.5944 
2 *563:8 *563:12 49.6979 
3 *563:12 *563:14 245.978 
4 *563:14 gpio_inp_dis[40] 19.4446 
*END

*D_NET *564 0.28108
*CONN
*P gpio_inp_dis[41] O
*I *921:gpio_inp_dis[41] O *D CF_CARAVEL_SOC
*CAP
1 gpio_inp_dis[41] 0.000899307
2 *921:gpio_inp_dis[41] 0.00282351
3 *564:13 0.0203337
4 *564:11 0.0222579
5 *564:13 *566:13 0.00177293
6 *564:13 *844:13 0.00118705
7 gpio_analog_pol[41] gpio_inp_dis[41] 0
8 *284:15 *564:13 0.00969918
9 *300:19 *564:13 0.0113079
10 *301:17 *564:13 0.0835879
11 *477:11 *564:13 0.0235752
12 *541:19 *564:13 0.00028017
13 *546:13 *564:13 0.000247367
14 *552:13 *564:13 0.000201858
15 *563:14 *564:13 0.102906
*RES
1 *921:gpio_inp_dis[41] *564:11 49.4493 
2 *564:11 *564:13 206.394 
3 *564:13 gpio_inp_dis[41] 21.2675 
*END

*D_NET *565 0.225229
*CONN
*P gpio_inp_dis[42] O
*I *921:gpio_inp_dis[42] O *D CF_CARAVEL_SOC
*CAP
1 gpio_inp_dis[42] 0.000808658
2 *921:gpio_inp_dis[42] 0.00271258
3 *565:13 0.018403
4 *565:11 0.0203069
5 *565:13 *740:87 0.00158762
6 *565:13 *843:11 0.00569699
7 gpio_analog_pol[42] gpio_inp_dis[42] 0.000216189
8 *248:19 *565:13 0.00406226
9 *301:17 *565:13 0.0854791
10 *302:21 *565:13 0.0599348
11 *325:23 *565:13 0.0113515
12 *433:16 gpio_inp_dis[42] 7.48273e-05
13 *546:13 *565:13 0.00624986
14 *552:13 *565:13 0.0083442
*RES
1 *921:gpio_inp_dis[42] *565:11 48.0407 
2 *565:11 *565:13 161.743 
3 *565:13 gpio_inp_dis[42] 21.2675 
*END

*D_NET *566 0.109927
*CONN
*P gpio_inp_dis[43] O
*I *921:gpio_inp_dis[43] O *D CF_CARAVEL_SOC
*CAP
1 gpio_inp_dis[43] 0.00059934
2 *921:gpio_inp_dis[43] 0.00205497
3 *566:13 0.0203738
4 *566:11 0.0197744
5 *566:9 0.00205497
6 *566:9 *837:9 0.0011543
7 *566:9 *866:13 0.00257101
8 *566:13 *804:23 0.00213838
9 gpio_analog_pol[43] gpio_inp_dis[43] 0
10 gpio_analog_sel[43] *566:13 5.81413e-05
11 *250:23 *566:13 0.00189165
12 *252:15 *566:13 0.00842932
13 *301:17 *566:13 0.00147524
14 *561:18 *566:13 0.0421946
15 *563:14 *566:13 0.00338408
16 *564:13 *566:13 0.00177293
*RES
1 *921:gpio_inp_dis[43] *566:9 43.5621 
2 *566:9 *566:11 8 
3 *566:11 *566:13 116.749 
4 *566:13 gpio_inp_dis[43] 17.4354 
*END

*D_NET *567 0.464005
*CONN
*P gpio_inp_dis[4] O
*I *921:gpio_inp_dis[4] O *D CF_CARAVEL_SOC
*CAP
1 gpio_inp_dis[4] 0.0051998
2 *921:gpio_inp_dis[4] 0.000387853
3 *567:18 0.0391496
4 *567:16 0.0339498
5 *567:14 0.017471
6 *567:12 0.0178589
7 *567:14 *568:11 0.125496
8 *567:14 *572:16 0.108433
9 *567:14 *740:79 0.00461086
10 *567:14 *826:127 0
11 gpio_analog_pol[4] gpio_inp_dis[4] 0.000813821
12 *93:11 *567:18 0.020758
13 *130:11 *567:18 0.00154284
14 *144:19 *567:18 0.00711865
15 *184:9 gpio_inp_dis[4] 0.00477802
16 *207:19 *567:18 0
17 *223:19 *567:18 0
18 *246:11 *567:18 0
19 *254:11 *567:18 0.00378941
20 *338:45 *567:12 0.00180568
21 *342:11 *567:18 0.00405899
22 *444:35 *567:14 0.00164087
23 *529:9 *567:12 0.000761049
24 *529:9 *567:14 0.00522697
25 *530:113 *567:18 0.0390661
26 *531:12 *567:14 0.00306814
27 *536:29 *567:14 0.00185121
28 *537:10 *567:14 0.00276762
29 *540:16 *567:12 0.000407994
30 *541:27 *567:12 0.000374372
31 *541:27 *567:14 0.00971207
32 *556:11 *567:14 0.000425406
33 *561:12 *567:14 0.00091658
34 *563:8 *567:14 0.000565236
*RES
1 *921:gpio_inp_dis[4] *567:12 35.0264 
2 *567:12 *567:14 1392.27 
3 *567:14 *567:16 15 
4 *567:16 *567:18 1219.44 
5 *567:18 gpio_inp_dis[4] 21.5548 
*END

*D_NET *568 0.469883
*CONN
*P gpio_inp_dis[5] O
*I *921:gpio_inp_dis[5] O *D CF_CARAVEL_SOC
*CAP
1 gpio_inp_dis[5] 0.00467926
2 *921:gpio_inp_dis[5] 9.50071e-05
3 *568:15 0.0394156
4 *568:13 0.0347363
5 *568:11 0.0247703
6 *568:9 0.0248653
7 gpio_inp_dis[5] *782:47 8.03328e-05
8 *568:11 *569:14 0.00246665
9 *568:11 *740:79 0.00397355
10 *568:11 *826:127 0
11 gpio_analog_en[5] gpio_inp_dis[5] 0
12 gpio_analog_pol[5] gpio_inp_dis[5] 0.00297294
13 gpio_dm0[5] gpio_inp_dis[5] 3.76422e-06
14 *129:11 *568:15 0.00286193
15 *132:11 *568:15 0.0405076
16 *137:9 gpio_inp_dis[5] 0.000175321
17 *176:11 *568:15 0.00011563
18 *182:17 gpio_inp_dis[5] 0.000197039
19 *260:19 *568:15 0
20 *266:11 *568:15 0.0061771
21 *281:11 gpio_inp_dis[5] 0.000132588
22 *293:15 *568:11 0
23 *312:19 *568:15 0.0139424
24 *375:43 *568:15 0.00160433
25 *419:197 *568:15 0.0608915
26 *444:35 *568:11 0.00137939
27 *529:9 *568:11 0.00459671
28 *531:12 *568:11 0.00264884
29 *532:36 *568:15 0.00014615
30 *535:121 *568:15 0
31 *536:19 *568:11 0.000710607
32 *536:29 *568:11 0.0015442
33 *537:10 *568:11 0.00230179
34 *538:11 *568:11 0.00294398
35 *556:11 *568:11 0.022205
36 *557:11 *568:11 0.0341742
37 *560:11 *568:11 0.00534939
38 *561:12 *568:11 0.00107843
39 *563:8 *568:11 0.000644296
40 *567:14 *568:11 0.125496
*RES
1 *921:gpio_inp_dis[5] *568:9 16.5846 
2 *568:9 *568:11 1391.79 
3 *568:11 *568:13 15 
4 *568:13 *568:15 1448.68 
5 *568:15 gpio_inp_dis[5] 38.7274 
*END

*D_NET *569 0.582611
*CONN
*P gpio_inp_dis[6] O
*I *921:gpio_inp_dis[6] O *D CF_CARAVEL_SOC
*CAP
1 gpio_inp_dis[6] 0.00700625
2 *921:gpio_inp_dis[6] 0.00317549
3 *569:22 0.0280226
4 *569:20 0.0210163
5 *569:18 0.0185562
6 *569:16 0.0185562
7 *569:14 0.00317549
8 gpio_inp_dis[6] *782:29 0.000221355
9 *569:14 *570:10 0.0101896
10 *569:14 *572:14 0.000173094
11 *569:18 *696:95 0.0359138
12 *569:18 *696:135 0.00138485
13 *569:18 *740:123 0
14 *569:18 *826:47 0.00628134
15 *569:18 *826:127 0.0345073
16 *569:22 *570:26 0.131928
17 *569:22 *572:28 0.00235425
18 *569:22 *661:19 0.106601
19 *569:22 *698:23 0.0132919
20 gpio_analog_en[6] gpio_inp_dis[6] 0
21 gpio_analog_pol[6] gpio_inp_dis[6] 0.0041527
22 gpio_dm0[6] gpio_inp_dis[6] 0
23 *92:11 *569:22 0.00616126
24 *118:23 *569:18 0.00463061
25 *118:39 *569:18 0.00258515
26 *118:115 *569:18 1.79538e-05
27 *118:123 *569:14 0
28 *219:11 gpio_inp_dis[6] 0
29 *281:11 gpio_inp_dis[6] 5.11247e-05
30 *336:31 *569:18 0.00538163
31 *337:33 gpio_inp_dis[6] 1.07218e-05
32 *338:35 *569:18 0.0273185
33 *386:155 *569:18 0
34 *397:135 *569:18 0
35 *443:19 *569:22 0.00522687
36 *444:35 *569:18 0.000563976
37 *529:9 *569:14 0.00510531
38 *530:11 *569:14 0
39 *532:16 *569:18 0.00181968
40 *532:32 *569:18 0.0486031
41 *533:52 *569:18 0
42 *533:54 *569:18 0
43 *536:35 *569:18 0.0147338
44 *536:63 *569:18 0.00245493
45 *539:11 *569:18 0.00269729
46 *540:16 *569:14 0.00307077
47 *540:34 *569:18 0.000729077
48 *541:27 *569:14 0.00247534
49 *568:11 *569:14 0.00246665
*RES
1 *921:gpio_inp_dis[6] *569:14 46.8283 
2 *569:14 *569:16 15 
3 *569:16 *569:18 1189.79 
4 *569:18 *569:20 15 
5 *569:20 *569:22 1681.45 
6 *569:22 gpio_inp_dis[6] 41.983 
*END

*D_NET *570 0.700224
*CONN
*P gpio_inp_dis[7] O
*I *921:gpio_inp_dis[7] O *D CF_CARAVEL_SOC
*CAP
1 gpio_inp_dis[7] 0.00691979
2 *921:gpio_inp_dis[7] 0.00252167
3 *570:26 0.0544162
4 *570:24 0.0474964
5 *570:22 0.0157448
6 *570:20 0.0157448
7 *570:18 0.00223813
8 *570:14 0.00695169
9 *570:12 0.00471356
10 *570:10 0.00252167
11 *570:10 *572:14 0.00336404
12 *570:10 *696:159 0.000157468
13 *570:14 *571:17 0.000188564
14 *570:14 *571:19 0.016065
15 *570:22 *760:31 0.0835919
16 *570:22 *868:11 0.0174109
17 *570:26 *572:26 0.000158753
18 *570:26 *572:28 0.000457952
19 *570:26 *661:19 0.000296708
20 *570:26 *698:23 0.000815312
21 *570:26 *745:15 0.00453529
22 gpio_analog_pol[7] gpio_inp_dis[7] 0.00152365
23 *92:11 *570:26 0.0213779
24 *102:19 *570:26 0
25 *118:123 *570:10 0
26 *140:53 *570:26 0.00170037
27 *293:15 *570:14 7.2538e-05
28 *322:159 *570:14 0.00343199
29 *322:163 *570:14 0.000470327
30 *335:13 *570:26 0.0349774
31 *397:79 *570:14 0.00645908
32 *435:23 *570:22 0.0107376
33 *443:11 *570:26 0.139834
34 *443:19 *570:26 0.00965616
35 *529:9 *570:14 0.000368865
36 *531:16 *570:14 0.0100821
37 *536:11 *570:14 0.0017728
38 *540:16 *570:10 0.00273193
39 *542:11 *570:22 0.0072852
40 *544:13 *570:22 0.00369703
41 *553:13 *570:22 0.00925213
42 *556:11 *570:14 0.00636467
43 *569:14 *570:10 0.0101896
44 *569:22 *570:26 0.131928
*RES
1 *921:gpio_inp_dis[7] *570:10 37.9648 
2 *570:10 *570:12 15 
3 *570:12 *570:14 298.866 
4 *570:14 *570:18 46.1336 
5 *570:18 *570:20 15 
6 *570:20 *570:22 893.449 
7 *570:22 *570:24 15 
8 *570:24 *570:26 2634 
9 *570:26 gpio_inp_dis[7] 25.0716 
*END

*D_NET *571 0.720005
*CONN
*P gpio_inp_dis[8] O
*I *921:gpio_inp_dis[8] O *D CF_CARAVEL_SOC
*CAP
1 gpio_inp_dis[8] 0.00246422
2 *921:gpio_inp_dis[8] 0.00161373
3 *571:39 0.0465142
4 *571:37 0.0440499
5 *571:35 0.00417151
6 *571:33 0.00417151
7 *571:31 0.0160255
8 *571:29 0.0160255
9 *571:27 0.0153528
10 *571:25 0.0153528
11 *571:23 0.00148222
12 *571:19 0.00440945
13 *571:17 0.00454097
14 *571:17 *840:19 0.00357972
15 *571:19 *840:19 0.000101624
16 *571:27 *749:27 0.0522717
17 gpio_analog_pol[8] gpio_inp_dis[8] 0.000347523
18 *119:15 *571:27 0.000857309
19 *167:19 *571:27 0.0164832
20 *206:43 *571:39 0.000926332
21 *208:21 *571:27 0.0906072
22 *220:11 *571:39 0.000412944
23 *261:11 *571:39 0.0465112
24 *265:13 *571:31 0.00114118
25 *283:11 *571:39 0
26 *284:11 *571:31 0
27 *289:23 *571:27 0.000346866
28 *293:15 *571:19 0.00566775
29 *309:11 *571:31 0.000483734
30 *314:19 *571:31 0
31 *320:13 *571:31 0.00117585
32 *322:153 *571:23 0
33 *322:159 *571:19 0.00343545
34 *322:163 *571:19 0.000707122
35 *322:167 *571:17 0.000500783
36 *327:63 *571:39 0.0891732
37 *336:11 *571:31 0
38 *347:11 *571:39 0.0120329
39 *351:11 *571:31 0.00443306
40 *391:51 *571:39 0.00333274
41 *394:29 *571:39 8.06801e-05
42 *436:27 *571:39 0.0205089
43 *474:11 *571:31 0.0758391
44 *479:11 *571:31 0.0856235
45 *480:11 *571:31 0.000255128
46 *529:9 *571:17 0.00749227
47 *539:23 *571:23 0.00179536
48 *539:55 *571:17 0.000509057
49 *540:16 *571:17 0.000943482
50 *570:14 *571:17 0.000188564
51 *570:14 *571:19 0.016065
*RES
1 *921:gpio_inp_dis[8] *571:17 48.9419 
2 *571:17 *571:19 175.947 
3 *571:19 *571:23 41.2036 
4 *571:23 *571:25 15 
5 *571:25 *571:27 1001.6 
6 *571:27 *571:29 15 
7 *571:29 *571:31 1108.69 
8 *571:31 *571:33 15 
9 *571:33 *571:35 64.4629 
10 *571:35 *571:37 15 
11 *571:37 *571:39 1758.22 
12 *571:39 gpio_inp_dis[8] 13.8081 
*END

*D_NET *572 0.74462
*CONN
*P gpio_inp_dis[9] O
*I *921:gpio_inp_dis[9] O *D CF_CARAVEL_SOC
*CAP
1 gpio_inp_dis[9] 0.00654423
2 *921:gpio_inp_dis[9] 0.000775521
3 *572:28 0.0905894
4 *572:26 0.0843252
5 *572:16 0.014683
6 *572:14 0.0151785
7 *572:14 *696:159 0.00102303
8 *572:16 *740:79 0.00650037
9 *572:16 *826:127 0
10 *572:28 *661:19 0.000796956
11 *572:28 *672:15 0.0109498
12 *572:28 *683:15 0.00984789
13 *572:28 *698:23 0.0051399
14 gpio_analog_en[9] gpio_inp_dis[9] 0
15 gpio_analog_pol[9] gpio_inp_dis[9] 0.000240543
16 gpio_dm0[9] gpio_inp_dis[9] 0
17 *92:11 *572:28 0.0656417
18 *102:11 *572:28 0.0479191
19 *102:19 *572:28 0.0013141
20 *106:19 *572:28 0.00890345
21 *110:19 *572:28 0.0909118
22 *119:11 *572:28 0.00728666
23 *125:15 *572:16 0.0906388
24 *140:39 *572:28 0.000125494
25 *221:13 *572:28 0
26 *226:11 *572:28 0.00890477
27 *335:13 *572:26 0.000161448
28 *350:11 *572:28 0
29 *443:19 *572:28 0.025486
30 *444:35 *572:16 0.0016326
31 *444:55 *572:16 0.00349553
32 *483:19 *572:28 0.00802245
33 *529:9 *572:16 0.00369545
34 *529:9 *572:26 0
35 *531:12 *572:16 0.00187625
36 *536:29 *572:16 0.00184292
37 *537:10 *572:16 0.00276762
38 *540:16 *572:14 0.000941559
39 *541:27 *572:16 0.0114185
40 *562:119 *572:26 9.91747e-05
41 *567:14 *572:16 0.108433
42 *569:14 *572:14 0.000173094
43 *569:22 *572:28 0.00235425
44 *570:10 *572:14 0.00336404
45 *570:26 *572:26 0.000158753
46 *570:26 *572:28 0.000457952
*RES
1 *921:gpio_inp_dis[9] *572:14 39.8426 
2 *572:14 *572:16 1189.31 
3 *572:16 *572:26 33.6959 
4 *572:26 *572:28 552.978 
5 *572:28 gpio_inp_dis[9] 24.1215 
*END

*D_NET *661 0.562432
*CONN
*P gpio_oeb[0] O
*I *921:gpio_oeb[0] O *D CF_CARAVEL_SOC
*CAP
1 gpio_oeb[0] 0.00679788
2 *921:gpio_oeb[0] 0.00110886
3 *661:19 0.0250618
4 *661:17 0.0182639
5 *661:15 0.0326928
6 *661:13 0.0338017
7 *661:15 *672:11 0.142475
8 *661:15 *687:11 4.37813e-05
9 *661:19 *672:15 0.00957427
10 *661:19 *698:23 0.0547877
11 *661:19 *743:15 0.0397732
12 *661:19 *745:15 0.00411232
13 gpio_ib_mode_sel[0] gpio_oeb[0] 0
14 *92:11 *661:19 0.00578711
15 *116:61 *661:13 7.45617e-05
16 *116:63 *661:13 6.92544e-05
17 *117:39 *661:13 0.00282982
18 *117:39 *661:15 0.0685605
19 *140:53 *661:19 0.00169815
20 *160:23 *661:13 0.00135259
21 *160:23 *661:15 0.000414036
22 *205:53 *661:15 0.000832887
23 *247:9 gpio_oeb[0] 0.000321131
24 *443:19 *661:19 0.00430338
25 *569:22 *661:19 0.106601
26 *570:26 *661:19 0.000296708
27 *572:28 *661:19 0.000796956
*RES
1 *921:gpio_oeb[0] *661:13 22.9033 
2 *661:13 *661:15 271.352 
3 *661:15 *661:17 8 
4 *661:17 *661:19 1441.11 
5 *661:19 gpio_oeb[0] 24.002 
*END

*D_NET *662 0.527261
*CONN
*P gpio_oeb[10] O
*I *920:count_oeb[2] O *D counter_macro
*CAP
1 gpio_oeb[10] 0.0001199
2 *920:count_oeb[2] 1.36105e-05
3 *662:11 0.0848991
4 *662:9 0.0847792
5 *662:7 0.0495287
6 *662:5 0.0495424
7 *398:23 *662:11 0.258379
*RES
1 *920:count_oeb[2] *662:5 0.310714 
2 *662:5 *662:7 1117.85 
3 *662:7 *662:9 8 
4 *662:9 *662:11 473.366 
5 *662:11 gpio_oeb[10] 0.460133 
*END

*D_NET *663 0.384733
*CONN
*P gpio_oeb[11] O
*I *920:count_oeb[3] O *D counter_macro
*CAP
1 gpio_oeb[11] 1.67811e-05
2 *920:count_oeb[3] 1.36105e-05
3 *663:11 0.132438
4 *663:9 0.132421
5 *663:7 0.0599148
6 *663:5 0.0599284
7 *663:11 *723:21 0
8 gpio_ib_mode_sel[11] *663:11 0
9 *274:239 *663:11 0
10 *399:23 *663:11 0
*RES
1 *920:count_oeb[3] *663:5 0.310714 
2 *663:5 *663:7 1353.08 
3 *663:7 *663:9 8 
4 *663:9 *663:11 471.048 
5 *663:11 gpio_oeb[11] 0.0644 
*END

*D_NET *664 0.561598
*CONN
*P gpio_oeb[12] O
*I *920:count_oeb[4] O *D counter_macro
*CAP
1 gpio_oeb[12] 0.00349751
2 *920:count_oeb[4] 1.36105e-05
3 *664:11 0.0842478
4 *664:9 0.0807503
5 *664:7 0.0700503
6 *664:5 0.0700639
7 *326:35 *664:11 0
8 *400:23 gpio_oeb[12] 0.000779826
9 *400:23 *664:11 0.252194
*RES
1 *920:count_oeb[4] *664:5 0.310714 
2 *664:5 *664:7 1581.97 
3 *664:7 *664:9 8 
4 *664:9 *664:11 461.117 
5 *664:11 gpio_oeb[12] 8.53533 
*END

*D_NET *665 0.441941
*CONN
*P gpio_oeb[13] O
*I *920:count_oeb[5] O *D counter_macro
*CAP
1 gpio_oeb[13] 0.000108226
2 *920:count_oeb[5] 1.36105e-05
3 *665:11 0.130101
4 *665:9 0.129993
5 *665:7 0.0904017
6 *665:5 0.0904153
7 gpio_ib_mode_sel[13] *665:11 0.000493844
8 *140:329 *665:11 0.000414594
9 *401:15 *665:11 0
*RES
1 *920:count_oeb[5] *665:5 0.310714 
2 *665:5 *665:7 2046.09 
3 *665:7 *665:9 8 
4 *665:9 *665:11 466.411 
5 *665:11 gpio_oeb[13] 0.415333 
*END

*D_NET *666 0.630299
*CONN
*P gpio_oeb[14] O
*I *920:count_oeb[6] O *D counter_macro
*CAP
1 gpio_oeb[14] 0.00370411
2 *920:count_oeb[6] 1.36105e-05
3 *666:11 0.0858387
4 *666:9 0.0821346
5 *666:7 0.110612
6 *666:5 0.110626
7 *666:11 *798:23 0.00532646
8 gpio_ib_mode_sel[14] gpio_oeb[14] 0.000368873
9 *281:31 *666:11 0.231675
*RES
1 *920:count_oeb[6] *666:5 0.310714 
2 *666:5 *666:7 2505.29 
3 *666:7 *666:9 8 
4 *666:9 *666:11 456.48 
5 *666:11 gpio_oeb[14] 8.6324 
*END

*D_NET *667 0.464103
*CONN
*P gpio_oeb[15] O
*I *920:count_oeb[7] O *D counter_macro
*CAP
1 gpio_oeb[15] 9.62404e-05
2 *920:count_oeb[7] 1.36105e-05
3 *667:15 0.108295
4 *667:13 0.108199
5 *667:11 0.114933
6 *667:9 0.114933
7 *667:7 0.00880952
8 *667:5 0.00882313
9 *667:7 *806:19 0
10 *667:11 *668:11 0
11 gpio_ib_mode_sel[15] gpio_oeb[15] 0
12 *140:131 *667:15 0
13 *403:19 *667:15 0
14 *537:134 *667:15 0
*RES
1 *920:count_oeb[7] *667:5 0.310714 
2 *667:5 *667:7 198.049 
3 *667:7 *667:9 8 
4 *667:9 *667:11 416.509 
5 *667:11 *667:13 8 
6 *667:13 *667:15 2459.51 
7 *667:15 gpio_oeb[15] 1.86429 
*END

*D_NET *668 0.410764
*CONN
*P gpio_oeb[16] O
*I *920:count_oeb[8] O *D counter_macro
*CAP
1 gpio_oeb[16] 0.108065
2 *920:count_oeb[8] 1.36105e-05
3 *668:13 0.108065
4 *668:11 0.0881855
5 *668:9 0.0881855
6 *668:7 0.00911801
7 *668:5 0.00913162
8 *668:11 *669:11 0
9 gpio_ib_mode_sel[16] gpio_oeb[16] 0
10 *667:11 *668:11 0
*RES
1 *920:count_oeb[8] *668:5 0.310714 
2 *668:5 *668:7 205.092 
3 *668:7 *668:9 8 
4 *668:9 *668:11 319.137 
5 *668:11 *668:13 8 
6 *668:13 gpio_oeb[16] 2453.8 
*END

*D_NET *669 0.383003
*CONN
*P gpio_oeb[17] O
*I *920:count_oeb[9] O *D counter_macro
*CAP
1 gpio_oeb[17] 0.10779
2 *920:count_oeb[9] 1.36105e-05
3 *669:13 0.10779
4 *669:11 0.0742524
5 *669:9 0.0742524
6 *669:7 0.00944577
7 *669:5 0.00945938
8 *669:11 *671:11 0
9 gpio_ib_mode_sel[17] gpio_oeb[17] 0
10 *190:19 *669:7 0
11 *668:11 *669:11 0
*RES
1 *920:count_oeb[9] *669:5 0.310714 
2 *669:5 *669:7 212.135 
3 *669:7 *669:9 8 
4 *669:9 *669:11 268.819 
5 *669:11 *669:13 8 
6 *669:13 gpio_oeb[17] 2446.76 
*END

*D_NET *670 0.345735
*CONN
*P gpio_oeb[18] O
*I *920:count_oeb[10] O *D counter_macro
*CAP
1 gpio_oeb[18] 0.0032217
2 *920:count_oeb[10] 1.36105e-05
3 *670:13 0.0032217
4 *670:11 0.050531
5 *670:9 0.050531
6 *670:7 0.0830279
7 *670:5 0.0830416
8 *670:11 *673:11 0
9 gpio_ib_mode_sel[18] gpio_oeb[18] 0
10 *146:25 *670:7 0.0721463
11 *234:19 *670:7 0
12 *542:55 *670:7 0
*RES
1 *920:count_oeb[10] *670:5 0.310714 
2 *670:5 *670:7 2584.87 
3 *670:7 *670:9 8 
4 *670:9 *670:11 183.467 
5 *670:11 *670:13 8 
6 *670:13 gpio_oeb[18] 74.0225 
*END

*D_NET *671 0.283088
*CONN
*P gpio_oeb[19] O
*I *920:count_oeb[11] O *D counter_macro
*CAP
1 gpio_oeb[19] 0.107498
2 *920:count_oeb[11] 1.36105e-05
3 *671:13 0.107498
4 *671:11 0.0239488
5 *671:9 0.0239488
6 *671:7 0.00805411
7 *671:5 0.00806772
8 *671:11 *685:21 0
9 gpio_ib_mode_sel[19] gpio_oeb[19] 0
10 *278:19 *671:7 0.00405855
11 *669:11 *671:11 0
*RES
1 *920:count_oeb[11] *671:5 0.310714 
2 *671:5 *671:7 219.178 
3 *671:7 *671:9 8 
4 *671:9 *671:11 86.0944 
5 *671:11 *671:13 8 
6 *671:13 gpio_oeb[19] 2439.72 
*END

*D_NET *672 0.531855
*CONN
*P gpio_oeb[1] O
*I *921:gpio_oeb[1] O *D CF_CARAVEL_SOC
*CAP
1 gpio_oeb[1] 0.00733934
2 *921:gpio_oeb[1] 0.000504072
3 *672:15 0.0290651
4 *672:13 0.0217258
5 *672:11 0.0259273
6 *672:9 0.0264313
7 *672:11 *683:11 0.139277
8 *672:11 *687:11 0.0016242
9 *672:15 *683:15 0.0389921
10 *672:15 *698:23 0.0362696
11 *672:15 *743:15 0.0397749
12 gpio_ib_mode_sel[1] gpio_oeb[1] 0
13 *116:55 *672:11 0.000620976
14 *140:39 *672:15 0.00129497
15 *160:21 *672:9 0
16 *205:53 *672:11 9.21034e-06
17 *483:19 *672:15 0
18 *572:28 *672:15 0.0109498
19 *661:15 *672:11 0.142475
20 *661:19 *672:15 0.00957427
*RES
1 *921:gpio_oeb[1] *672:9 16.9279 
2 *672:9 *672:11 270.45 
3 *672:11 *672:13 8 
4 *672:13 *672:15 1204.47 
5 *672:15 gpio_oeb[1] 24.2783 
*END

*D_NET *673 0.254867
*CONN
*P gpio_oeb[20] O
*I *920:count_oeb[12] O *D counter_macro
*CAP
1 gpio_oeb[20] 0.000134032
2 *920:count_oeb[12] 1.36105e-05
3 *673:15 0.00362283
4 *673:13 0.0034888
5 *673:11 0.00990789
6 *673:7 0.123797
7 *673:5 0.113903
8 gpio_ib_mode_sel[20] gpio_oeb[20] 0
9 gpio_ib_mode_sel[20] *673:15 0
10 *454:9 *673:7 0
11 *670:11 *673:11 0
*RES
1 *920:count_oeb[12] *673:5 0.310714 
2 *673:5 *673:7 2577.83 
3 *673:7 *673:11 43.6907 
4 *673:11 *673:13 8 
5 *673:13 *673:15 79.7293 
6 *673:15 gpio_oeb[20] 1.86429 
*END

*D_NET *674 0.243126
*CONN
*P gpio_oeb[21] O
*I *920:count_oeb[13] O *D counter_macro
*CAP
1 gpio_oeb[21] 0.000134032
2 *920:count_oeb[13] 1.36105e-05
3 *674:15 0.103922
4 *674:13 0.107785
5 *674:7 0.0176279
6 *674:5 0.0136442
7 *674:13 *680:13 0
8 gpio_ib_mode_sel[21] gpio_oeb[21] 0
9 gpio_ib_mode_sel[21] *674:15 0
*RES
1 *920:count_oeb[13] *674:5 0.310714 
2 *674:5 *674:7 305.101 
3 *674:7 *674:13 30.7392 
4 *674:13 *674:15 2352.46 
5 *674:15 gpio_oeb[21] 1.86429 
*END

*D_NET *675 0.340353
*CONN
*P gpio_oeb[22] O
*I *920:count_oeb[14] O *D counter_macro
*CAP
1 gpio_oeb[22] 0.0967945
2 *920:count_oeb[14] 1.36105e-05
3 *675:13 0.0967945
4 *675:11 0.0116664
5 *675:9 0.0116664
6 *675:7 0.00388873
7 *675:5 0.00390234
8 gpio_oeb[22] *706:7 0.0801351
9 *675:11 *758:13 0.0354914
10 gpio_ib_mode_sel[22] gpio_oeb[22] 0
11 *279:15 *675:11 0
12 *539:421 gpio_oeb[22] 0
*RES
1 *920:count_oeb[14] *675:5 0.310714 
2 *675:5 *675:7 84.6593 
3 *675:7 *675:9 8 
4 *675:9 *675:11 65.0571 
5 *675:11 *675:13 8 
6 *675:13 gpio_oeb[22] 2574.24 
*END

*D_NET *676 0.303861
*CONN
*P gpio_oeb[23] O
*I *920:count_oeb[15] O *D counter_macro
*CAP
1 gpio_oeb[23] 0.00231853
2 *920:count_oeb[15] 1.36105e-05
3 *676:15 0.11064
4 *676:13 0.108321
5 *676:11 0.031569
6 *676:9 0.031569
7 *676:7 0.00348874
8 *676:5 0.00350235
9 *676:11 *758:13 0
10 *278:15 *676:11 0.00511717
11 *322:349 *676:15 0.00732086
*RES
1 *920:count_oeb[15] *676:5 0.310714 
2 *676:5 *676:7 77.6164 
3 *676:7 *676:9 8 
4 *676:9 *676:11 115.375 
5 *676:11 *676:13 8 
6 *676:13 *676:15 2532.82 
7 *676:15 gpio_oeb[23] 49.8489 
*END

*D_NET *677 0.518596
*CONN
*P gpio_oeb[24] O
*I *921:gpio_oeb[24] O *D CF_CARAVEL_SOC
*CAP
1 gpio_oeb[24] 0.0113878
2 *921:gpio_oeb[24] 1.28542e-05
3 *677:15 0.103416
4 *677:13 0.0920283
5 *677:11 0.115021
6 *677:9 0.115021
7 *677:7 0.0340826
8 *677:5 0.0340955
9 gpio_oeb[24] *809:19 0
10 gpio_ib_mode_sel[24] gpio_oeb[24] 0
11 *322:341 *677:15 0.0135303
12 *413:26 gpio_oeb[24] 0
13 *538:259 *677:7 0
*RES
1 *921:gpio_oeb[24] *677:5 0.310714 
2 *677:5 *677:7 757.252 
3 *677:7 *677:9 8 
4 *677:9 *677:11 415.393 
5 *677:11 *677:13 8 
6 *677:13 *677:15 2155.26 
7 *677:15 gpio_oeb[24] 40.3951 
*END

*D_NET *678 0.436843
*CONN
*P gpio_oeb[25] O
*I *921:gpio_oeb[25] O *D CF_CARAVEL_SOC
*CAP
1 gpio_oeb[25] 0.00325836
2 *921:gpio_oeb[25] 9.40544e-05
3 *678:13 0.128577
4 *678:11 0.125319
5 *678:9 0.0892091
6 *678:7 0.0893031
7 gpio_ib_mode_sel[25] gpio_oeb[25] 0.000469351
8 *404:11 gpio_oeb[25] 0
9 *410:11 gpio_oeb[25] 0
10 *539:329 *678:13 0.000613063
*RES
1 *921:gpio_oeb[25] *678:7 1.86429 
2 *678:7 *678:9 2006.66 
3 *678:9 *678:11 8 
4 *678:11 *678:13 448.623 
5 *678:13 gpio_oeb[25] 47.9077 
*END

*D_NET *679 0.547143
*CONN
*P gpio_oeb[26] O
*I *921:gpio_oeb[26] O *D CF_CARAVEL_SOC
*CAP
1 gpio_oeb[26] 0.01235
2 *921:gpio_oeb[26] 9.62324e-05
3 *679:19 0.01235
4 *679:17 0.0591847
5 *679:15 0.0591847
6 *679:13 0.074753
7 *679:11 0.074753
8 *679:9 0.021733
9 *679:7 0.0218293
10 gpio_oeb[26] gpio_vtrip_sel[26] 0
11 gpio_oeb[26] *795:23 0.000328112
12 *679:13 *720:9 0
13 *679:13 *807:15 0.00774654
14 gpio_dm0[16] *679:9 0
15 gpio_ib_mode_sel[26] gpio_oeb[26] 5.61421e-05
16 *102:23 *679:13 0.176317
17 *147:17 *679:13 0.0146497
18 *280:27 *679:17 0
19 *286:29 *679:9 0
20 *324:15 *679:13 0
21 *399:23 gpio_oeb[26] 0.011811
*RES
1 *921:gpio_oeb[26] *679:7 1.86429 
2 *679:7 *679:9 472.016 
3 *679:9 *679:11 8 
4 *679:11 *679:13 416.252 
5 *679:13 *679:15 8 
6 *679:15 *679:17 1340.4 
7 *679:17 *679:19 8 
8 *679:19 gpio_oeb[26] 43.3169 
*END

*D_NET *680 0.416691
*CONN
*P gpio_oeb[27] O
*I *921:gpio_oeb[27] O *D CF_CARAVEL_SOC
*CAP
1 gpio_oeb[27] 0.00918344
2 *921:gpio_oeb[27] 9.40544e-05
3 *680:17 0.0436189
4 *680:15 0.0344354
5 *680:13 0.12092
6 *680:11 0.12092
7 *680:9 0.0349318
8 *680:7 0.0350258
9 gpio_ib_mode_sel[27] gpio_oeb[27] 0.000618331
10 *322:333 *680:17 0.00539677
11 *398:23 gpio_oeb[27] 0.0114252
12 *402:11 gpio_oeb[27] 0.000120707
13 *674:13 *680:13 0
*RES
1 *921:gpio_oeb[27] *680:7 1.86429 
2 *680:7 *680:9 776.972 
3 *680:9 *680:11 8 
4 *680:11 *680:13 435.314 
5 *680:13 *680:15 8 
6 *680:15 *680:17 805.848 
7 *680:17 gpio_oeb[27] 39.3833 
*END

*D_NET *681 0.390711
*CONN
*P gpio_oeb[28] O
*I *921:gpio_oeb[28] O *D CF_CARAVEL_SOC
*CAP
1 gpio_oeb[28] 0.00353977
2 *921:gpio_oeb[28] 9.40544e-05
3 *681:21 0.13407
4 *681:19 0.13053
5 *681:17 0.057747
6 *681:15 0.0578518
7 *681:9 0.00309193
8 *681:7 0.00308119
9 gpio_ib_mode_sel[28] gpio_oeb[28] 0
10 gpio_ib_mode_sel[28] *681:21 0
11 *197:15 gpio_oeb[28] 0
12 *197:15 *681:21 0
13 *202:27 *681:15 0.000548002
14 *316:15 *681:15 0.000158056
15 *538:239 *681:17 0
*RES
1 *921:gpio_oeb[28] *681:7 1.86429 
2 *681:7 *681:9 52.9664 
3 *681:9 *681:15 17.0005 
4 *681:15 *681:17 1307.3 
5 *681:17 *681:19 8 
6 *681:19 *681:21 464.38 
7 *681:21 gpio_oeb[28] 7.29027 
*END

*D_NET *682 0.374301
*CONN
*P gpio_oeb[29] O
*I *921:gpio_oeb[29] O *D CF_CARAVEL_SOC
*CAP
1 gpio_oeb[29] 0.00125882
2 *921:gpio_oeb[29] 1.28542e-05
3 *682:11 0.13597
4 *682:9 0.134711
5 *682:7 0.0508376
6 *682:5 0.0508504
7 gpio_oeb[29] *810:11 9.9606e-05
8 gpio_ib_mode_sel[29] gpio_oeb[29] 0.000225106
9 gpio_ib_mode_sel[29] *682:11 0
10 *446:11 gpio_oeb[29] 0.000335862
11 *538:219 *682:7 0
*RES
1 *921:gpio_oeb[29] *682:5 0.310714 
2 *682:5 *682:7 1136.16 
3 *682:7 *682:9 8 
4 *682:9 *682:11 475.5 
5 *682:11 gpio_oeb[29] 23.0634 
*END

*D_NET *683 0.504141
*CONN
*P gpio_oeb[2] O
*I *921:gpio_oeb[2] O *D CF_CARAVEL_SOC
*CAP
1 gpio_oeb[2] 0.00773453
2 *921:gpio_oeb[2] 0.000466637
3 *683:15 0.0309885
4 *683:13 0.023254
5 *683:11 0.0291356
6 *683:9 0.0296023
7 *683:11 *687:11 0.101146
8 *683:11 *688:11 0.00151459
9 *683:11 *693:19 0.000442438
10 *683:11 *744:11 0.00978378
11 *95:17 *683:11 0
12 *102:19 *683:15 0.00402528
13 *110:11 *683:15 0
14 *116:55 *683:11 0.025383
15 *119:11 *683:15 0.00174564
16 *139:17 *683:11 0
17 *140:39 *683:15 0.00129274
18 *150:11 *683:15 0.00183012
19 *160:15 *683:11 0.00710297
20 *205:53 *683:11 0
21 *206:15 *683:15 0.000600469
22 *288:47 *683:15 0.00130167
23 *392:31 *683:11 0.0292966
24 *483:19 *683:15 0.00937761
25 *572:28 *683:15 0.00984789
26 *672:11 *683:11 0.139277
27 *672:15 *683:15 0.0389921
*RES
1 *921:gpio_oeb[2] *683:9 16.2236 
2 *683:9 *683:11 264.439 
3 *683:11 *683:13 8 
4 *683:13 *683:15 968.538 
5 *683:15 gpio_oeb[2] 24.5023 
*END

*D_NET *684 0.358965
*CONN
*P gpio_oeb[30] O
*I *921:gpio_oeb[30] O *D CF_CARAVEL_SOC
*CAP
1 gpio_oeb[30] 0.0035947
2 *921:gpio_oeb[30] 9.40544e-05
3 *684:21 0.0586358
4 *684:19 0.0550411
5 *684:17 0.0299236
6 *684:15 0.0299236
7 *684:13 0.0793895
8 *684:11 0.0793895
9 *684:9 0.0110518
10 *684:7 0.0111459
11 *684:21 *768:17 0
12 *684:21 *813:17 0
13 gpio_ib_mode_sel[30] gpio_oeb[30] 0.000594136
14 *323:15 *684:21 0
15 *402:11 gpio_oeb[30] 0.000181083
*RES
1 *921:gpio_oeb[30] *684:7 1.86429 
2 *684:7 *684:9 233.968 
3 *684:9 *684:11 8 
4 *684:11 *684:13 288.997 
5 *684:13 *684:15 8 
6 *684:15 *684:17 676.259 
7 *684:17 *684:19 8 
8 *684:19 *684:21 188.748 
9 *684:21 gpio_oeb[30] 7.76067 
*END

*D_NET *685 0.347366
*CONN
*P gpio_oeb[31] O
*I *921:gpio_oeb[31] O *D CF_CARAVEL_SOC
*CAP
1 gpio_oeb[31] 0.00375496
2 *921:gpio_oeb[31] 9.40544e-05
3 *685:21 0.139629
4 *685:19 0.135875
5 *685:17 0.0264431
6 *685:15 0.0265956
7 *685:9 0.00313962
8 *685:7 0.00308119
9 gpio_ib_mode_sel[31] gpio_oeb[31] 0
10 *202:27 *685:15 0.000831972
11 *316:15 *685:15 0.000241161
12 *538:195 *685:17 0.00768037
13 *671:11 *685:21 0
*RES
1 *921:gpio_oeb[31] *685:7 1.86429 
2 *685:7 *685:9 52.9664 
3 *685:9 *685:15 17.5157 
4 *685:15 *685:17 635.411 
5 *685:17 *685:19 8 
6 *685:19 *685:21 482.412 
7 *685:21 gpio_oeb[31] 7.42467 
*END

*D_NET *686 0.453396
*CONN
*P gpio_oeb[32] O
*I *921:gpio_oeb[32] O *D CF_CARAVEL_SOC
*CAP
1 gpio_oeb[32] 6.64508e-05
2 *921:gpio_oeb[32] 0.0020159
3 *686:11 0.0645962
4 *686:9 0.0665457
5 *686:11 *801:15 0.0334016
6 *686:11 *802:15 0
7 *686:11 *803:15 0.000613045
8 gpio_ib_mode_sel[32] *686:11 0.00108825
9 *230:25 *686:11 0.0234249
10 *244:15 *686:11 0
11 *277:23 *686:11 0.169665
12 *286:31 *686:11 0.0172583
13 *403:15 *686:11 0.07472
*RES
1 *921:gpio_oeb[32] *686:9 41.8057 
2 *686:9 *686:11 496.209 
3 *686:11 gpio_oeb[32] 0.236133 
*END

*D_NET *687 0.630276
*CONN
*P gpio_oeb[33] O
*I *921:gpio_oeb[33] O *D CF_CARAVEL_SOC
*CAP
1 gpio_oeb[33] 0.00757661
2 *921:gpio_oeb[33] 0.000388697
3 *687:19 0.0125433
4 *687:17 0.00685131
5 *687:11 0.0510884
6 *687:9 0.0495925
7 gpio_oeb[33] gpio_vtrip_sel[33] 0.00384424
8 gpio_oeb[33] *736:37 0.00063857
9 *687:11 *688:11 0.252753
10 *687:11 *693:19 0.0228965
11 *687:17 *688:11 0.000650456
12 *687:19 *732:10 0.0148899
13 *687:19 *766:11 0.00189586
14 *687:19 *787:11 0.00024327
15 gpio_ib_mode_sel[33] gpio_oeb[33] 0.000668436
16 *115:27 *687:17 0.00214078
17 *116:63 *687:17 0.000273639
18 *117:39 *687:17 2.74633e-05
19 *160:15 *687:11 0.0192235
20 *160:23 *687:11 0.073327
21 *160:23 *687:17 0.00106301
22 *284:57 gpio_oeb[33] 0
23 *291:23 *687:17 0.00049939
24 *357:19 *687:19 0
25 *393:15 *687:17 0.000335951
26 *543:31 *687:19 0.0040504
27 *661:15 *687:11 4.37813e-05
28 *672:11 *687:11 0.0016242
29 *683:11 *687:11 0.101146
*RES
1 *921:gpio_oeb[33] *687:9 14.5664 
2 *687:9 *687:11 478.033 
3 *687:11 *687:17 15.3229 
4 *687:17 *687:19 197.345 
5 *687:19 gpio_oeb[33] 25.6549 
*END

*D_NET *688 0.833162
*CONN
*P gpio_oeb[34] O
*I *921:gpio_oeb[34] O *D CF_CARAVEL_SOC
*CAP
1 gpio_oeb[34] 0.00608834
2 *921:gpio_oeb[34] 0.000366777
3 *688:15 0.0113563
4 *688:13 0.00526796
5 *688:11 0.0493064
6 *688:9 0.0496731
7 *688:11 *693:19 0.0234386
8 *688:11 *705:17 1.13839e-05
9 *688:11 *716:11 0.05235
10 *688:11 *736:21 0.00303228
11 *688:11 *737:9 0.000756931
12 *688:11 *744:11 0.238291
13 *688:15 *733:10 0.0321372
14 *688:15 *753:11 0.0326697
15 gpio_ib_mode_sel[34] gpio_oeb[34] 0.00239849
16 *115:15 *688:11 0.00272429
17 *115:27 *688:11 0.00213703
18 *160:15 *688:11 0.000422465
19 *163:23 *688:11 0.00373763
20 *163:31 *688:11 0.00355195
21 *291:15 *688:11 0.00323589
22 *291:23 *688:11 0.000518929
23 *365:11 *688:15 0
24 *392:9 gpio_oeb[34] 0.00134885
25 *393:23 *688:11 0.0453455
26 *420:11 *688:15 0.00435632
27 *424:18 gpio_oeb[34] 1.68715e-05
28 *437:31 *688:11 0.00370414
29 *683:11 *688:11 0.00151459
30 *687:11 *688:11 0.252753
31 *687:17 *688:11 0.000650456
*RES
1 *921:gpio_oeb[34] *688:9 14.815 
2 *688:9 *688:11 494.991 
3 *688:11 *688:13 8 
4 *688:13 *688:15 417.082 
5 *688:15 gpio_oeb[34] 21.9169 
*END

*D_NET *689 0.667105
*CONN
*P gpio_oeb[35] O
*I *921:gpio_oeb[35] O *D CF_CARAVEL_SOC
*CAP
1 gpio_oeb[35] 0.00553626
2 *921:gpio_oeb[35] 0.00100434
3 *689:15 0.0155357
4 *689:13 0.00999943
5 *689:11 0.0543005
6 *689:9 0.0553048
7 gpio_oeb[35] gpio_vtrip_sel[35] 0.000636406
8 *689:11 *691:11 0.00142539
9 *689:11 *705:23 0.0228308
10 *689:11 *705:33 4.62763e-05
11 *689:11 *745:11 0.130726
12 *689:11 *764:21 0.0126207
13 *689:11 *782:15 0.00382574
14 *689:15 *734:15 0.0489411
15 *689:15 *762:11 0.000406472
16 *689:15 *833:11 0.048724
17 gpio_ib_mode_sel[35] gpio_oeb[35] 0.00190024
18 *98:15 *689:11 0.0216044
19 *99:15 *689:11 0.0215994
20 *101:15 *689:11 0.0283112
21 *114:23 *689:11 0.130591
22 *141:25 *689:11 0.0139397
23 *142:15 *689:11 0.00592947
24 *193:57 *689:11 0.000517264
25 *286:31 *689:11 0.00168967
26 *407:17 *689:11 0.0008372
27 *407:19 *689:11 0.0275567
28 *440:19 *689:15 0.000764506
*RES
1 *921:gpio_oeb[35] *689:9 24.675 
2 *689:9 *689:11 502.462 
3 *689:11 *689:13 8 
4 *689:13 *689:15 650.201 
5 *689:15 gpio_oeb[35] 20.7111 
*END

*D_NET *690 0.809558
*CONN
*P gpio_oeb[36] O
*I *921:gpio_oeb[36] O *D CF_CARAVEL_SOC
*CAP
1 gpio_oeb[36] 0.00240994
2 *921:gpio_oeb[36] 0.000228754
3 *690:30 0
4 *690:23 0.0167057
5 *690:21 0.0193374
6 *690:11 0.0369424
7 *690:9 0.0321295
8 *690:11 *699:6 0.0230402
9 *690:11 *733:6 0.0254841
10 *690:11 *739:6 0.00312322
11 *690:11 *740:11 0.000409807
12 *690:11 *741:6 0.00374787
13 *690:21 *733:6 0.000143863
14 *690:21 *735:21 0.00342037
15 *690:21 *736:21 0.000937516
16 *690:23 *772:11 0.0423522
17 *690:23 *820:11 0.0323725
18 gpio_ib_mode_sel[36] gpio_oeb[36] 0.00300414
19 *162:15 *690:11 0.259509
20 *162:25 *690:21 0.00519838
21 *163:31 *690:21 5.95885e-05
22 *204:33 *690:11 0.258869
23 *204:41 *690:21 0.000385269
24 *392:19 *690:23 0.0205907
25 *449:13 *690:21 0
26 *450:13 *690:21 0.00020667
27 *456:15 *690:11 1.46455e-05
28 *464:11 *690:23 0.0120856
29 *541:111 *690:23 0.00684853
*RES
1 *921:gpio_oeb[36] *690:9 17.0611 
2 *690:9 *690:11 2768.2 
3 *690:11 *690:21 49.6415 
4 *690:21 *690:23 862.191 
5 *690:23 gpio_oeb[36] 14.1675 
6 gpio_oeb[36] *690:30 0.0908108 
*END

*D_NET *691 0.86586
*CONN
*P gpio_oeb[37] O
*I *921:gpio_oeb[37] O *D CF_CARAVEL_SOC
*CAP
1 gpio_oeb[37] 0.00216692
2 *921:gpio_oeb[37] 0.000870996
3 *691:15 0.0218791
4 *691:13 0.0197122
5 *691:11 0.0415923
6 *691:9 0.0424633
7 *691:11 *705:23 0.0344944
8 *691:11 *745:11 0.253731
9 *691:11 *782:15 0
10 *691:11 *832:37 0.0031607
11 *691:11 *832:39 6.62996e-05
12 *691:15 *789:19 0.0434111
13 *691:15 *812:11 0.0689517
14 gpio_ib_mode_sel[37] gpio_oeb[37] 0.00111025
15 *117:39 *691:11 8.74359e-06
16 *141:25 *691:11 0.0133092
17 *193:57 *691:11 5.10545e-05
18 *193:61 *691:11 0.000842496
19 *203:15 *691:11 0.280064
20 *205:53 *691:11 0.000419067
21 *205:57 *691:15 0.00076359
22 *286:31 *691:11 0.00218301
23 *289:35 *691:15 0.00792825
24 *404:11 *691:15 0.0118552
25 *407:17 *691:11 0.00168516
26 *407:19 *691:11 0.0116499
27 *422:27 *691:11 4.8098e-05
28 *427:18 gpio_oeb[37] 1.68715e-05
29 *689:11 *691:11 0.00142539
*RES
1 *921:gpio_oeb[37] *691:9 22.5621 
2 *691:9 *691:11 522.211 
3 *691:11 *691:13 8 
4 *691:13 *691:15 1096.01 
5 *691:15 gpio_oeb[37] 13.2369 
*END

*D_NET *692 0.802828
*CONN
*P gpio_oeb[38] O
*I *921:gpio_oeb[38] O *D CF_CARAVEL_SOC
*CAP
1 gpio_oeb[38] 0.00027051
2 *921:gpio_oeb[38] 0.000425196
3 *692:35 0.047496
4 *692:33 0.0473357
5 *692:27 0.0129139
6 *692:25 0.0128037
7 *692:23 0.0336231
8 *692:21 0.0338882
9 *692:15 0.0113737
10 *692:13 0.0111086
11 *692:11 0.0101782
12 *692:9 0.0106034
13 *692:9 *740:17 0.000275127
14 *692:11 *698:13 0.00940431
15 *692:11 *833:23 0.00379823
16 *692:27 *697:115 0.00554369
17 *692:27 *698:27 0.00648864
18 *692:27 *848:11 0.0572928
19 *692:27 *857:11 0.000885588
20 *692:27 *860:11 0.000537823
21 *692:27 *863:11 0.000160936
22 *692:27 *867:11 0.0274916
23 *692:33 gpio_oeb[43] 0
24 *692:35 *693:193 0.0214086
25 *692:35 *695:75 0.0394657
26 *692:35 *697:115 0.0268695
27 *692:35 *740:171 0.00457194
28 *692:35 *741:168 0.000757196
29 *692:35 *742:120 0.00156864
30 *692:35 *848:11 0.00936766
31 *692:35 *857:11 0.0332627
32 *692:35 *863:11 0.0286361
33 gpio_analog_en[38] *692:35 0.000197568
34 gpio_ib_mode_sel[38] gpio_oeb[38] 0
35 gpio_ib_mode_sel[43] *692:33 0
36 *120:15 *692:35 0.0230794
37 *159:15 *692:11 0.00614879
38 *161:15 *692:11 0.0117167
39 *165:11 *692:15 0.00850061
40 *165:11 *692:23 0
41 *169:11 *692:23 0
42 *183:15 *692:11 0
43 *195:11 *692:15 0.0369124
44 *202:25 *692:11 3.1036e-05
45 *204:25 *692:11 0.000130115
46 *207:31 *692:35 0.00794802
47 *222:19 *692:23 0
48 *241:11 *692:23 0
49 *251:15 *692:27 0
50 *251:15 *692:35 0.000126533
51 *252:15 *692:35 0.0119324
52 *267:23 *692:23 0.00669532
53 *274:125 *692:11 0.000124476
54 *277:11 *692:15 0.0541704
55 *284:23 *692:35 0.0330223
56 *297:22 *692:35 0.0314407
57 *313:11 *692:23 0.0126153
58 *385:15 *692:35 0.00151494
59 *387:23 *692:35 0.0143146
60 *445:11 *692:23 0.00129728
61 *531:28 *692:23 0.0202124
62 *538:43 *692:35 0.00203868
63 *549:13 *692:27 0.00885119
*RES
1 *921:gpio_oeb[38] *692:9 14.1107 
2 *692:9 *692:11 50.0304 
3 *692:11 *692:13 8 
4 *692:13 *692:15 698.972 
5 *692:15 *692:21 33.9564 
6 *692:21 *692:23 1101.65 
7 *692:23 *692:25 15 
8 *692:25 *692:27 712.406 
9 *692:27 *692:33 24.3775 
10 *692:33 *692:35 305.741 
11 *692:35 gpio_oeb[38] 12.6918 
*END

*D_NET *693 1.10188
*CONN
*P gpio_oeb[39] O
*I *921:gpio_oeb[39] O *D CF_CARAVEL_SOC
*CAP
1 gpio_oeb[39] 0.000355603
2 *921:gpio_oeb[39] 0.000122198
3 *693:193 0.0104501
4 *693:191 0.0100945
5 *693:189 0.00355543
6 *693:187 0.00486648
7 *693:183 0.00473204
8 *693:175 0.00421861
9 *693:169 0.00236304
10 *693:163 0.00503298
11 *693:143 0.0117586
12 *693:137 0.00936032
13 *693:133 0.00157249
14 *693:125 0.00110859
15 *693:121 0.00492984
16 *693:117 0.00509011
17 *693:111 0.00171298
18 *693:109 0.00163099
19 *693:103 0.00194518
20 *693:95 0.00793974
21 *693:93 0.00667823
22 *693:91 0.0332042
23 *693:89 0.0337697
24 *693:83 0.00530622
25 *693:81 0.00478899
26 *693:79 0.00355414
27 *693:77 0.00442889
28 *693:71 0.00375515
29 *693:69 0.00354515
30 *693:63 0.00244778
31 *693:61 0.0017348
32 *693:59 0.00137536
33 *693:55 0.00278038
34 *693:53 0.00158646
35 *693:47 0.00358846
36 *693:45 0.00403632
37 *693:39 0.00264459
38 *693:37 0.00201529
39 *693:35 0.00218749
40 *693:33 0.00218749
41 *693:31 0.00158047
42 *693:29 0.00158047
43 *693:27 0.00723479
44 *693:25 0.00806332
45 *693:19 0.0465605
46 *693:17 0.0461706
47 *693:11 0.00231447
48 *693:9 0.00199804
49 *693:11 *699:6 0.000191477
50 *693:11 *741:6 0.00195139
51 *693:11 *742:6 0.000122949
52 *693:19 *716:11 0.00486438
53 *693:27 *731:14 0.000534852
54 *693:27 *808:23 0
55 *693:27 *833:23 0.00300478
56 *693:31 *818:11 0.00203535
57 *693:39 gpio_vtrip_sel[33] 0.000279613
58 *693:79 *763:11 0.000245476
59 *693:91 *823:11 0.00225887
60 *693:91 *873:49 0
61 *693:95 *781:17 0.000218476
62 *693:95 *829:21 9.66585e-05
63 *693:95 *855:21 0.000219101
64 *693:95 *873:37 0.00158758
65 *693:103 *737:97 0.000274677
66 *693:103 *737:103 0.00806974
67 *693:109 *739:58 0
68 *693:121 *826:21 0.00153262
69 *693:121 *873:21 0
70 *693:133 *840:19 0.000373033
71 *693:143 *737:151 0
72 *693:143 *739:92 0
73 *693:163 *739:92 0.000106678
74 *693:163 *815:47 0.000120579
75 *693:163 *852:11 0.000270413
76 *693:169 *739:112 0.000400968
77 *693:183 *737:191 0.00614522
78 *693:183 *739:116 0.0011083
79 *693:187 gpio_out[39] 0.000403904
80 *693:189 *826:27 0
81 *693:189 *839:187 0
82 *693:193 *848:11 0.00822293
83 *693:193 *867:11 0.00878831
84 gpio_ib_mode_sel[39] gpio_oeb[39] 0
85 *921:gpio_in[6] *693:117 0
86 *97:15 *693:11 0.00380454
87 *116:55 *693:19 0.00111356
88 *118:179 *693:169 0.000361247
89 *118:183 *693:133 0.00019557
90 *118:187 *693:111 0.000819252
91 *118:187 *693:133 2.18506e-05
92 *118:201 *693:109 0.000503326
93 *160:15 *693:19 0.111494
94 *204:33 *693:11 0.0105517
95 *207:31 *693:193 0.00949521
96 *238:27 *693:63 0.00436351
97 *252:15 *693:193 0.000938094
98 *293:15 *693:133 0.00283371
99 *293:15 *693:169 0.000515322
100 *297:22 *693:193 0.00504301
101 *322:209 *693:169 0.000410924
102 *322:225 *693:163 0.000133218
103 *322:271 *693:103 0.00745026
104 *322:273 *693:95 0.000136495
105 *322:305 *693:35 0.00120253
106 *322:313 *693:27 0.000375177
107 *325:97 *693:183 0
108 *325:117 *693:163 0
109 *325:125 *693:143 0
110 *325:133 *693:125 9.2467e-06
111 *325:145 *693:111 0.000912746
112 *325:147 *693:111 7.51453e-06
113 *338:77 *693:109 0
114 *339:23 *693:163 0.000720364
115 *364:39 *693:163 0.000247067
116 *369:11 *693:31 0.0106503
117 *381:11 *693:39 0.000159777
118 *383:11 *693:79 0.00157253
119 *385:15 *693:193 0.0463501
120 *386:73 *693:163 0.000577768
121 *386:89 *693:183 0
122 *393:23 *693:19 0.240448
123 *397:31 *693:111 0.000226155
124 *397:31 *693:117 0
125 *397:75 *693:187 0.00365981
126 *398:19 *693:91 0.0165465
127 *404:11 *693:63 0
128 *409:11 *693:71 0.0150978
129 *412:11 *693:91 0.00551252
130 *419:23 *693:111 0.00313049
131 *422:11 *693:91 0.000758571
132 *444:71 *693:169 0.000204154
133 *446:19 *693:79 0
134 *446:19 *693:83 0
135 *447:17 *693:39 0
136 *448:39 *693:137 0
137 *449:51 *693:169 0
138 *455:21 *693:31 0.000262106
139 *455:21 *693:79 0.0100071
140 *455:21 *693:83 0.00176046
141 *457:11 *693:91 0
142 *466:11 *693:47 0.00228212
143 *466:11 *693:55 0
144 *470:11 *693:83 0.00335889
145 *472:11 *693:163 0.00146008
146 *472:15 *693:71 0.0151
147 *472:55 *693:187 0
148 *539:93 *693:183 0.00981982
149 *539:97 *693:175 0
150 *539:151 *693:103 0.000521149
151 *539:151 *693:111 0.000147297
152 *539:155 *693:95 0.0136021
153 *539:183 *693:31 0.0101333
154 *539:187 *693:27 0.00753115
155 *541:75 *693:133 0.00236004
156 *541:75 *693:137 0
157 *541:81 *693:125 0.00117347
158 *541:85 *693:121 0.0147862
159 *541:107 *693:95 0.000603959
160 *541:131 *693:19 0.0269363
161 *544:33 *693:25 0
162 *546:25 *693:91 0
163 *547:25 *693:55 0.00370346
164 *548:23 *693:39 0.00203023
165 *549:13 *693:193 0.0101462
166 *556:37 *693:111 2.47128e-05
167 *683:11 *693:19 0.000442438
168 *687:11 *693:19 0.0228965
169 *688:11 *693:19 0.0234386
170 *692:35 *693:193 0.0214086
*RES
1 *921:gpio_oeb[39] *693:9 17.0611 
2 *693:9 *693:11 112.582 
3 *693:11 *693:17 37.1879 
4 *693:17 *693:19 2658.62 
5 *693:19 *693:25 43.5264 
6 *693:25 *693:27 166.895 
7 *693:27 *693:29 15 
8 *693:29 *693:31 135.368 
9 *693:31 *693:33 15 
10 *693:33 *693:35 38.2593 
11 *693:35 *693:37 15 
12 *693:37 *693:39 59.305 
13 *693:39 *693:45 40.15 
14 *693:45 *693:47 98.3929 
15 *693:47 *693:53 33.48 
16 *693:53 *693:55 47.6843 
17 *693:55 *693:59 36.5843 
18 *693:59 *693:61 15 
19 *693:61 *693:63 56.4879 
20 *693:63 *693:69 40.6264 
21 *693:69 *693:71 194.528 
22 *693:71 *693:77 44.4379 
23 *693:77 *693:79 127.196 
24 *693:79 *693:81 1.09786 
25 *693:81 *693:83 146.709 
26 *693:83 *693:89 38.7207 
27 *693:89 *693:91 877.685 
28 *693:91 *693:93 15 
29 *693:93 *693:95 180.235 
30 *693:95 *693:103 42.3545 
31 *693:103 *693:109 38.1111 
32 *693:109 *693:111 42.0707 
33 *693:111 *693:117 38.1111 
34 *693:117 *693:121 34.8464 
35 *693:121 *693:125 31.5196 
36 *693:125 *693:133 47.4593 
37 *693:133 *693:137 29.0975 
38 *693:137 *693:143 45.6242 
39 *693:143 *693:163 42.4235 
40 *693:163 *693:169 46.5996 
41 *693:169 *693:175 38.4632 
42 *693:175 *693:183 47.081 
43 *693:183 *693:187 15.0971 
44 *693:187 *693:189 51.5579 
45 *693:189 *693:191 8 
46 *693:191 *693:193 91.1605 
47 *693:193 gpio_oeb[39] 13.3132 
*END

*D_NET *694 0.499254
*CONN
*P gpio_oeb[3] O
*I *921:gpio_oeb[3] O *D CF_CARAVEL_SOC
*CAP
1 gpio_oeb[3] 0.0073832
2 *921:gpio_oeb[3] 0
3 *694:10 0.0181576
4 *694:8 0.0107744
5 *694:6 0.0283025
6 *694:4 0.0283025
7 *694:6 *699:6 0.132356
8 *694:6 *727:11 0.0288393
9 *694:6 *738:11 0.00355723
10 *694:6 *740:11 0.114835
11 *694:6 *741:6 0.00162808
12 *694:6 *743:11 0.00288881
13 *694:10 *727:15 4.15283e-06
14 *694:10 *738:15 0.0566553
15 gpio_ib_mode_sel[3] gpio_oeb[3] 0
16 *90:11 *694:10 0.00332178
17 *157:37 *694:6 0.000556843
18 *161:15 *694:6 0.00303574
19 *162:15 *694:6 0.0205871
20 *183:15 *694:6 0.000377966
21 *241:11 gpio_oeb[3] 0.00013058
22 *247:11 *694:10 0.0294218
23 *267:23 gpio_oeb[3] 0.000130552
24 *274:61 *694:10 0.000473
25 *315:25 *694:6 0.00307895
26 *333:17 *694:6 0.000115938
27 *391:29 *694:10 0.00167396
28 *436:23 *694:6 0.00266546
*RES
1 *921:gpio_oeb[3] *694:4 8 
2 *694:4 *694:6 259.846 
3 *694:6 *694:8 8 
4 *694:8 *694:10 723.446 
5 *694:10 gpio_oeb[3] 23.5503 
*END

*D_NET *695 0.514472
*CONN
*P gpio_oeb[40] O
*I *921:gpio_oeb[40] O *D CF_CARAVEL_SOC
*CAP
1 gpio_oeb[40] 0.000129929
2 *921:gpio_oeb[40] 0.00244609
3 *695:75 0.0212013
4 *695:73 0.0217303
5 *695:67 0.0021737
6 *695:65 0.0015148
7 *695:63 0.00739439
8 *695:61 0.0138772
9 *695:55 0.0407526
10 *695:53 0.0342697
11 *695:51 0.00338605
12 *695:35 0.017907
13 *695:33 0.0152366
14 *695:27 0.00734159
15 *695:25 0.00869475
16 *695:13 0.00451481
17 *695:13 *740:21 0.00404503
18 *695:13 *789:23 0
19 *695:25 *696:21 0
20 *695:25 *742:32 0.000990969
21 *695:27 *740:23 0.00925273
22 *695:33 *740:29 0.000296884
23 *695:35 *696:31 0.00150716
24 *695:35 *740:57 0.00810131
25 *695:35 *741:60 0
26 *695:51 *696:31 0.000905981
27 *695:51 *696:35 0.000162498
28 *695:51 *741:60 0
29 *695:51 *741:74 0.000994656
30 *695:51 *742:80 0.000794495
31 *695:55 *696:43 0
32 *695:55 *741:98 0.00326376
33 *695:55 *741:108 0
34 *695:55 *742:94 5.06299e-05
35 *695:55 *742:96 0
36 *695:61 *696:59 0
37 *695:61 *742:114 0
38 *695:63 *696:59 0
39 *695:63 *697:103 0.00722048
40 *695:67 *844:13 0.0121094
41 *695:75 *742:120 0.0319183
42 *120:15 *695:75 0.111622
43 *251:15 *695:75 0.0231131
44 *300:19 *695:67 0.0121069
45 *533:130 *695:51 0.000303681
46 *533:130 *695:55 0.000161156
47 *533:144 *695:51 0.00102744
48 *533:156 *695:35 0
49 *533:178 *695:35 0
50 *536:81 *695:55 0.00280348
51 *536:107 *695:51 0.000172002
52 *536:119 *695:35 0.00422828
53 *536:119 *695:51 0.00173559
54 *537:78 *695:63 0.000402474
55 *537:86 *695:51 0.00113517
56 *537:86 *695:55 0
57 *537:102 *695:35 0
58 *537:114 *695:27 0.00115645
59 *538:79 *695:55 0.00401291
60 *538:95 *695:55 0.0244418
61 *538:119 *695:55 0.000130344
62 *538:145 *695:25 5.6192e-05
63 *563:14 *695:67 0.00221225
64 *692:35 *695:75 0.0394657
*RES
1 *921:gpio_oeb[40] *695:13 35.813 
2 *695:13 *695:25 45.4865 
3 *695:25 *695:27 221.995 
4 *695:27 *695:33 18.4173 
5 *695:33 *695:35 74.5808 
6 *695:35 *695:51 42.6704 
7 *695:51 *695:53 8 
8 *695:53 *695:55 155.295 
9 *695:55 *695:61 37.9091 
10 *695:61 *695:63 177.801 
11 *695:63 *695:65 15 
12 *695:65 *695:67 129.257 
13 *695:67 *695:73 32.8289 
14 *695:73 *695:75 210.601 
15 *695:75 gpio_oeb[40] 10.2889 
*END

*D_NET *696 0.411615
*CONN
*P gpio_oeb[41] O
*I *921:gpio_oeb[41] O *D CF_CARAVEL_SOC
*CAP
1 gpio_oeb[41] 0.00262139
2 *921:gpio_oeb[41] 0.00235071
3 *696:163 0.0040551
4 *696:159 0.00331449
5 *696:147 0.00376076
6 *696:145 0.0028948
7 *696:135 0.00233628
8 *696:129 0.00173824
9 *696:119 0.00274228
10 *696:117 0.00259006
11 *696:113 0.00219972
12 *696:103 0.00299723
13 *696:101 0.00126821
14 *696:95 0.00605126
15 *696:93 0.00602423
16 *696:89 0.000854187
17 *696:81 0.00240395
18 *696:71 0.00320352
19 *696:69 0.00147464
20 *696:67 0.00420165
21 *696:65 0.00469739
22 *696:59 0.00686074
23 *696:53 0.00746095
24 *696:43 0.023436
25 *696:41 0.023801
26 *696:35 0.0126056
27 *696:33 0.0112009
28 *696:31 0.0165922
29 *696:29 0.017078
30 *696:23 0.00581995
31 *696:21 0.00701915
32 *696:13 0.00409202
33 *696:13 *742:24 7.16251e-05
34 *696:13 *742:32 0
35 *696:21 *742:32 0
36 *696:23 *697:11 0.0151808
37 *696:31 *740:57 0.00807811
38 *696:31 *741:72 0.00079591
39 *696:35 *741:72 0.000324126
40 *696:43 *697:85 0.0024349
41 *696:43 *697:87 0
42 *696:43 *741:108 0.00169364
43 *696:67 *741:122 0.000431061
44 *696:89 *826:119 0.000598728
45 *696:95 *740:95 0.00264481
46 *696:103 *740:145 7.44161e-06
47 *696:103 *740:147 0.00352867
48 *696:119 *826:63 5.50106e-05
49 *696:129 *740:167 0
50 *696:129 *826:71 2.24608e-05
51 *696:159 *826:47 0.000525841
52 *118:39 *696:95 0.00291651
53 *118:55 *696:95 0.0021063
54 *118:61 *696:95 0.000374774
55 *118:75 *696:95 0.00726227
56 *118:93 *696:101 0.000103046
57 *118:93 *696:113 0.00104194
58 *118:123 *696:159 0.000265536
59 *125:15 *696:95 0.000149867
60 *322:59 *696:81 0.00200751
61 *322:139 *696:129 4.4382e-05
62 *325:57 *696:101 0
63 *338:33 *696:113 0.000905829
64 *386:139 *696:147 0.0111168
65 *386:149 *696:145 0.000183518
66 *386:155 *696:119 0
67 *386:155 *696:135 0
68 *386:159 *696:119 0.00150515
69 *397:103 *696:113 0
70 *397:103 *696:129 0.000172204
71 *397:109 *696:113 4.53306e-05
72 *408:95 *696:89 0.000313255
73 *419:87 *696:145 3.41333e-06
74 *419:87 *696:147 0.00210333
75 *419:111 *696:129 1.43225e-05
76 *444:23 *696:95 9.8971e-06
77 *444:35 *696:95 0.00069907
78 *444:51 *696:95 0.000998039
79 *530:19 *696:145 0.000751334
80 *530:27 *696:119 6.17437e-06
81 *530:35 *696:129 1.6873e-05
82 *530:41 *696:113 8.51333e-05
83 *530:43 *696:103 2.812e-05
84 *530:77 *696:89 0
85 *532:16 *696:95 0.00402631
86 *533:14 *696:145 4.35362e-05
87 *533:30 *696:145 0.00197549
88 *533:34 *696:119 2.4754e-05
89 *533:42 *696:113 0.00226619
90 *533:42 *696:129 3.52303e-05
91 *533:48 *696:113 0
92 *533:52 *696:103 0.000492178
93 *533:110 *696:71 0.0119205
94 *533:122 *696:53 0.000149504
95 *533:178 *696:23 0.000494127
96 *535:27 *696:129 0.000124169
97 *535:27 *696:135 0
98 *535:33 *696:103 0.000850155
99 *535:113 *696:71 0.000137698
100 *536:65 *696:59 0
101 *536:71 *696:59 0
102 *536:79 *696:53 0.00215909
103 *536:89 *696:35 0.0274119
104 *536:119 *696:31 0.004049
105 *537:46 *696:89 0.000245485
106 *537:56 *696:81 0.00591237
107 *537:58 *696:71 0.0115779
108 *537:70 *696:67 0.000908429
109 *537:78 *696:59 5.747e-05
110 *537:84 *696:65 6.18433e-05
111 *537:100 *696:31 0.00163257
112 *537:118 *696:21 0
113 *539:11 *696:135 0.000100733
114 *539:15 *696:129 0
115 *539:23 *696:135 0
116 *539:33 *696:145 0.00560857
117 *539:35 *696:147 0.00369543
118 *539:53 *696:163 0.000159417
119 *540:16 *696:113 0.000295555
120 *540:16 *696:145 0.000617163
121 *540:16 *696:159 0.000700922
122 *540:26 *696:95 0.00205053
123 *551:27 *696:159 0
124 *551:35 *696:147 0.00183316
125 *551:69 *696:119 9.88574e-06
126 *551:79 *696:103 0.00288701
127 *551:121 *696:71 0.00265424
128 *551:121 *696:81 0.000604237
129 *562:31 *696:159 0
130 *562:51 *696:119 1.21972e-05
131 *562:59 *696:119 0.000962975
132 *562:59 *696:129 3.35885e-06
133 *562:79 *696:103 0.000314596
134 *562:117 *696:93 0
135 *562:119 *696:89 0.000124457
136 *569:18 *696:95 0.0359138
137 *569:18 *696:135 0.00138485
138 *570:10 *696:159 0.000157468
139 *572:14 *696:159 0.00102303
140 *695:25 *696:21 0
141 *695:35 *696:31 0.00150716
142 *695:51 *696:31 0.000905981
143 *695:51 *696:35 0.000162498
144 *695:55 *696:43 0
145 *695:61 *696:59 0
146 *695:63 *696:59 0
*RES
1 *921:gpio_oeb[41] *696:13 49.5735 
2 *696:13 *696:21 34.8724 
3 *696:21 *696:23 192.415 
4 *696:23 *696:29 17.988 
5 *696:29 *696:31 87.6587 
6 *696:31 *696:33 0.227733 
7 *696:33 *696:35 67.6928 
8 *696:35 *696:41 20.8645 
9 *696:41 *696:43 91.448 
10 *696:43 *696:53 48.3093 
11 *696:53 *696:59 49.2168 
12 *696:59 *696:65 17.7733 
13 *696:65 *696:67 97.1604 
14 *696:67 *696:69 15 
15 *696:69 *696:71 130.686 
16 *696:71 *696:81 45.0221 
17 *696:81 *696:89 48.9432 
18 *696:89 *696:93 17.61 
19 *696:93 *696:95 394.151 
20 *696:95 *696:101 34.3707 
21 *696:101 *696:103 57.7929 
22 *696:103 *696:113 46.1393 
23 *696:113 *696:117 20.2511 
24 *696:117 *696:119 58.2693 
25 *696:119 *696:129 39.4871 
26 *696:129 *696:135 49.8932 
27 *696:135 *696:145 44.1461 
28 *696:145 *696:147 121.634 
29 *696:147 *696:159 44.5145 
30 *696:159 *696:163 22.4336 
31 *696:163 gpio_oeb[41] 37.8554 
*END

*D_NET *697 0.40466
*CONN
*P gpio_oeb[42] O
*I *921:gpio_oeb[42] O *D CF_CARAVEL_SOC
*CAP
1 gpio_oeb[42] 0.000351474
2 *921:gpio_oeb[42] 0.00124081
3 *697:115 0.0112068
4 *697:113 0.0108553
5 *697:111 0.00295279
6 *697:109 0.00529207
7 *697:103 0.00369507
8 *697:101 0.00637557
9 *697:95 0.0101252
10 *697:93 0.0058663
11 *697:87 0.0185772
12 *697:85 0.0221958
13 *697:75 0.0138252
14 *697:73 0.0119937
15 *697:61 0.00506117
16 *697:47 0.00447017
17 *697:45 0.00254902
18 *697:39 0.00632958
19 *697:37 0.00760619
20 *697:27 0.00332268
21 *697:11 0.0126564
22 *697:9 0.0124431
23 *697:11 *740:31 0
24 *697:27 *740:47 0.0011344
25 *697:37 *742:46 0.000143258
26 *697:37 *742:52 3.57972e-05
27 *697:39 *741:26 0
28 *697:45 *741:32 0
29 *697:47 *741:34 0.0045629
30 *697:47 *742:52 0.00131096
31 *697:61 *741:46 0.00104769
32 *697:61 *742:64 0.00583028
33 *697:73 *741:74 0.000141976
34 *697:73 *742:80 0.00018317
35 *697:73 *742:94 0.00115065
36 *697:75 *741:74 0.00982239
37 *697:75 *742:94 0.000117159
38 *697:85 *741:88 0.00215738
39 *697:85 *742:96 0.000107068
40 *697:95 *742:108 0.00210474
41 *697:109 *740:79 0.013456
42 *697:111 *740:83 0.000656306
43 *697:115 *698:27 0.029468
44 *697:115 *741:126 0.0259197
45 *697:115 *741:168 0.014248
46 *697:115 *742:120 0.00183558
47 *697:115 *848:11 0.0110942
48 *697:115 *857:11 0.000668004
49 *697:115 *863:11 0.000771217
50 *697:115 *867:11 0.000962153
51 gpio_analog_sel[43] *697:109 0.00226639
52 gpio_dm0[43] *697:115 0.00217736
53 *118:23 *697:109 0.00173676
54 *125:15 *697:109 0.0023172
55 *207:31 *697:115 0.00406728
56 *252:15 *697:115 0.00240953
57 *322:39 *697:109 0.000257471
58 *529:9 *697:109 1.96267e-05
59 *533:114 *697:103 0.00606943
60 *533:120 *697:101 0
61 *533:122 *697:87 0
62 *533:144 *697:73 0.00126577
63 *533:156 *697:61 0.00136
64 *533:170 *697:37 0
65 *533:178 *697:11 0.00150337
66 *536:63 *697:109 0.00259369
67 *536:107 *697:61 0.00185377
68 *536:119 *697:61 0.000219122
69 *536:121 *697:47 0
70 *536:141 *697:27 3.78879e-05
71 *537:78 *697:103 0.000291305
72 *537:86 *697:61 0.000141398
73 *537:86 *697:73 0.000440671
74 *537:86 *697:75 0
75 *537:102 *697:61 0.00284302
76 *537:114 *697:27 0.000201676
77 *538:119 *697:61 0.00208183
78 *538:123 *697:61 0.00095985
79 *538:133 *697:61 2.88691e-05
80 *549:13 *697:115 0.00108765
81 *559:17 *697:111 0.00125911
82 *692:27 *697:115 0.00554369
83 *692:35 *697:115 0.0268695
84 *695:63 *697:103 0.00722048
85 *696:23 *697:11 0.0151808
86 *696:43 *697:85 0.0024349
87 *696:43 *697:87 0
*RES
1 *921:gpio_oeb[42] *697:9 24.6086 
2 *697:9 *697:11 327.12 
3 *697:11 *697:27 43.7838 
4 *697:27 *697:37 31.1997 
5 *697:37 *697:39 131.846 
6 *697:39 *697:45 18.0309 
7 *697:45 *697:47 65.6436 
8 *697:47 *697:61 48.7576 
9 *697:61 *697:73 19.7488 
10 *697:73 *697:75 54.7419 
11 *697:75 *697:85 38.2469 
12 *697:85 *697:87 67.6592 
13 *697:87 *697:93 18.5891 
14 *697:93 *697:95 114.944 
15 *697:95 *697:101 32.7141 
16 *697:101 *697:103 92.4064 
17 *697:103 *697:109 40.6139 
18 *697:109 *697:111 50.1493 
19 *697:111 *697:113 8 
20 *697:113 *697:115 106.874 
21 *697:115 gpio_oeb[42] 13.6861 
*END

*D_NET *698 0.461171
*CONN
*P gpio_oeb[43] O
*I *921:gpio_oeb[43] O *D CF_CARAVEL_SOC
*CAP
1 gpio_oeb[43] 0.000432359
2 *921:gpio_oeb[43] 0.0074048
3 *698:27 0.0173358
4 *698:25 0.0169034
5 *698:23 0.0241437
6 *698:21 0.0292295
7 *698:15 0.0197343
8 *698:13 0.0220532
9 *698:13 *789:23 0.000487968
10 *698:21 gpio_vtrip_sel[3] 3.52796e-05
11 *698:27 *741:126 0.00612402
12 *698:27 *742:120 0.00195706
13 *698:27 *848:11 0.00528342
14 *698:27 *867:11 0.0109383
15 gpio_dm0[43] *698:27 0.000527996
16 *92:11 *698:23 0.000487858
17 *106:9 *698:21 0.000130752
18 *120:15 *698:27 0.00199599
19 *159:15 *698:13 0.00614478
20 *196:11 *698:15 0.0364432
21 *204:31 *698:13 0
22 *230:11 *698:15 0
23 *252:15 *698:27 0.0233472
24 *274:125 *698:13 0.00015022
25 *283:11 *698:15 0.0564867
26 *337:39 *698:13 0.000758408
27 *443:19 *698:23 0.00226884
28 *483:19 *698:23 0
29 *538:51 *698:27 0.0127776
30 *549:13 *698:27 0.00192305
31 *569:22 *698:23 0.0132919
32 *570:26 *698:23 0.000815312
33 *572:28 *698:23 0.0051399
34 *661:19 *698:23 0.0547877
35 *672:15 *698:23 0.0362696
36 *692:11 *698:13 0.00940431
37 *692:27 *698:27 0.00648864
38 *692:33 gpio_oeb[43] 0
39 *697:115 *698:27 0.029468
*RES
1 *921:gpio_oeb[43] *698:13 44.4235 
2 *698:13 *698:15 728.376 
3 *698:15 *698:21 26.9611 
4 *698:21 *698:23 1071.36 
5 *698:23 *698:25 8 
6 *698:25 *698:27 120.355 
7 *698:27 gpio_oeb[43] 14.5561 
*END

*D_NET *699 0.443876
*CONN
*P gpio_oeb[4] O
*I *921:gpio_oeb[4] O *D CF_CARAVEL_SOC
*CAP
1 gpio_oeb[4] 0.00856758
2 *921:gpio_oeb[4] 0
3 *699:10 0.0183611
4 *699:8 0.00979348
5 *699:6 0.0248148
6 *699:4 0.0248148
7 gpio_oeb[4] gpio_vtrip_sel[4] 0
8 *699:6 *700:6 0.00200585
9 *699:6 *741:6 0.112602
10 *699:6 *742:6 0.00033531
11 *699:10 *700:10 0.0106364
12 *699:10 *744:15 0.0220793
13 gpio_ib_mode_sel[4] gpio_oeb[4] 0
14 *183:15 *699:6 0.00584568
15 *204:33 *699:6 0.0242337
16 *206:19 *699:10 0.00507948
17 *314:19 *699:10 0
18 *337:19 *699:10 0
19 *352:11 *699:10 0.00474956
20 *480:11 *699:10 0.0118249
21 *534:15 *699:10 0.00254461
22 *690:11 *699:6 0.0230402
23 *693:11 *699:6 0.000191477
24 *694:6 *699:6 0.132356
*RES
1 *921:gpio_oeb[4] *699:4 8 
2 *699:4 *699:6 250.744 
3 *699:6 *699:8 8 
4 *699:8 *699:10 495.258 
5 *699:10 gpio_oeb[4] 25.7231 
*END

*D_NET *700 0.364098
*CONN
*P gpio_oeb[5] O
*I *921:gpio_oeb[5] O *D CF_CARAVEL_SOC
*CAP
1 gpio_oeb[5] 0.00885718
2 *921:gpio_oeb[5] 0
3 *700:10 0.0139281
4 *700:8 0.00507096
5 *700:6 0.0243679
6 *700:4 0.0243679
7 *700:6 *701:11 0.12495
8 *700:6 *742:6 0.110004
9 *700:10 *744:15 3.57673e-05
10 gpio_ib_mode_sel[5] gpio_oeb[5] 0.000316165
11 *97:15 *700:6 0.0161259
12 *139:17 *700:6 0.000366138
13 *183:15 *700:6 0.0122014
14 *314:19 *700:10 0.00619674
15 *337:19 *700:10 0.00163248
16 *351:11 *700:10 0.00303529
17 *699:6 *700:6 0.00200585
18 *699:10 *700:10 0.0106364
*RES
1 *921:gpio_oeb[5] *700:4 8 
2 *700:4 *700:6 244.733 
3 *700:6 *700:8 8 
4 *700:8 *700:10 261.435 
5 *700:10 gpio_oeb[5] 26.074 
*END

*D_NET *701 0.249834
*CONN
*P gpio_oeb[6] O
*I *921:gpio_oeb[6] O *D CF_CARAVEL_SOC
*CAP
1 gpio_oeb[6] 0.00826932
2 *921:gpio_oeb[6] 0.000122884
3 *701:15 0.00949792
4 *701:11 0.0381502
5 *701:9 0.0370445
6 *701:11 *744:11 0.015751
7 gpio_ib_mode_sel[6] gpio_oeb[6] 0.00321306
8 *139:17 *701:11 0.00994031
9 *241:17 gpio_oeb[6] 0
10 *280:19 *701:15 0.000262183
11 *316:11 *701:15 0.00263235
12 *483:11 *701:15 0
13 *700:6 *701:11 0.12495
*RES
1 *921:gpio_oeb[6] *701:9 10.5893 
2 *701:9 *701:11 236.705 
3 *701:11 *701:15 42.655 
4 *701:15 gpio_oeb[6] 26.7964 
*END

*D_NET *702 0.224936
*CONN
*P gpio_oeb[7] O
*I *921:gpio_oeb[7] O *D CF_CARAVEL_SOC
*CAP
1 gpio_oeb[7] 0.00013352
2 *921:gpio_oeb[7] 9.40544e-05
3 *702:13 0.0720495
4 *702:11 0.071916
5 *702:9 0.0395543
6 *702:7 0.0396484
7 *702:13 *834:15 0
8 gpio_ib_mode_sel[7] *702:13 0.000758831
9 *140:187 *702:13 0.000781176
*RES
1 *921:gpio_oeb[7] *702:7 1.86429 
2 *702:7 *702:9 881.206 
3 *702:9 *702:11 8 
4 *702:11 *702:13 249.254 
5 *702:13 gpio_oeb[7] 0.5124 
*END

*D_NET *703 0.328661
*CONN
*P gpio_oeb[8] O
*I *920:count_oeb[0] O *D counter_macro
*CAP
1 gpio_oeb[8] 4.59657e-05
2 *920:count_oeb[0] 1.36105e-05
3 *703:11 0.135384
4 *703:9 0.135338
5 *703:7 0.0289331
6 *703:5 0.0289467
7 *703:11 *835:15 0
8 gpio_ib_mode_sel[8] *703:11 0
*RES
1 *920:count_oeb[0] *703:5 0.310714 
2 *703:5 *703:7 652.314 
3 *703:7 *703:9 8 
4 *703:9 *703:11 478.003 
5 *703:11 gpio_oeb[8] 0.1764 
*END

*D_NET *704 0.354915
*CONN
*P gpio_oeb[9] O
*I *920:count_oeb[1] O *D counter_macro
*CAP
1 gpio_oeb[9] 0.00184839
2 *920:count_oeb[1] 1.36105e-05
3 *704:11 0.131863
4 *704:9 0.130015
5 *704:7 0.0390442
6 *704:5 0.0390578
7 *704:11 *836:15 0
8 gpio_ib_mode_sel[9] gpio_oeb[9] 0.000551137
9 gpio_ib_mode_sel[9] *704:11 0.0125216
10 *268:11 gpio_oeb[9] 0
11 *311:11 gpio_oeb[9] 0
*RES
1 *920:count_oeb[1] *704:5 0.310714 
2 *704:5 *704:7 881.206 
3 *704:7 *704:9 8 
4 *704:9 *704:11 471.893 
5 *704:11 gpio_oeb[9] 23.2247 
*END

*D_NET *705 1.07147
*CONN
*P gpio_out[0] O
*I *921:gpio_out[0] O *D CF_CARAVEL_SOC
*CAP
1 gpio_out[0] 0.00653055
2 *921:gpio_out[0] 0.0010928
3 *705:39 0.0249726
4 *705:37 0.0184421
5 *705:35 0.027416
6 *705:33 0.0276614
7 *705:23 0.135028
8 *705:17 0.135875
9 gpio_out[0] gpio_vtrip_sel[0] 0
10 *705:17 *736:21 4.93993e-05
11 *705:23 *745:11 0.00100137
12 *705:23 *764:21 0.00103554
13 *705:23 *831:31 0.0168356
14 *705:23 *832:39 0.0528822
15 *705:33 *745:11 4.62763e-05
16 *705:39 *716:15 0.0954527
17 gpio_dm2[0] gpio_out[0] 0
18 gpio_holdover[0] gpio_out[0] 0
19 *104:31 *705:35 0
20 *114:23 *705:23 0.0189266
21 *117:39 *705:23 0.0329351
22 *193:37 *705:35 0.0805743
23 *193:57 *705:23 0.000104046
24 *203:15 *705:23 0.044537
25 *205:53 *705:23 0.0528474
26 *205:53 *705:35 0.0155433
27 *226:11 *705:39 0.00079706
28 *246:9 gpio_out[0] 0
29 *247:11 *705:39 0
30 *283:15 *705:35 0.0065514
31 *286:31 *705:23 0.0356436
32 *308:11 *705:39 0.0144319
33 *322:317 *705:17 0
34 *392:23 *705:23 0.0391064
35 *407:19 *705:23 0.00355916
36 *442:11 *705:39 0.114421
37 *445:19 *705:39 0.00968773
38 *456:15 *705:17 0.000101159
39 *688:11 *705:17 1.13839e-05
40 *689:11 *705:23 0.0228308
41 *689:11 *705:33 4.62763e-05
42 *691:11 *705:23 0.0344944
*RES
1 *921:gpio_out[0] *705:17 23.1443 
2 *705:17 *705:23 47.5014 
3 *705:23 *705:33 34.2371 
4 *705:33 *705:35 925.369 
5 *705:35 *705:37 15 
6 *705:37 *705:39 1459.25 
7 *705:39 gpio_out[0] 23.0537 
*END

*D_NET *706 0.432797
*CONN
*P gpio_out[10] O
*I *920:count[2] O *D counter_macro
*CAP
1 gpio_out[10] 5.37483e-05
2 *920:count[2] 1.36105e-05
3 *706:11 0.143943
4 *706:9 0.14389
5 *706:7 0.0321224
6 *706:5 0.032136
7 *706:11 *794:15 0
8 gpio_dm2[10] *706:11 0
9 gpio_holdover[10] *706:11 0
10 gpio_oeb[22] *706:7 0.0801351
11 *537:188 *706:11 0.000503148
*RES
1 *920:count[2] *706:5 0.310714 
2 *706:5 *706:7 1103.06 
3 *706:7 *706:9 8 
4 *706:9 *706:11 510.461 
5 *706:11 gpio_out[10] 0.206267 
*END

*D_NET *707 0.575551
*CONN
*P gpio_out[11] O
*I *920:count[3] O *D counter_macro
*CAP
1 gpio_out[11] 0.00383516
2 *920:count[3] 1.36105e-05
3 *707:11 0.0919621
4 *707:9 0.0881269
5 *707:7 0.0588713
6 *707:5 0.0588849
7 *707:7 gpio_out[22] 0
8 gpio_holdover[11] gpio_out[11] 0.000244656
9 *355:15 gpio_out[11] 0
10 *355:15 *707:11 0.273612
*RES
1 *920:count[3] *707:5 0.310714 
2 *707:5 *707:7 1331.95 
3 *707:7 *707:9 8 
4 *707:9 *707:11 500.53 
5 *707:11 gpio_out[11] 8.6772 
*END

*D_NET *708 0.663073
*CONN
*P gpio_out[12] O
*I *920:count[4] O *D counter_macro
*CAP
1 gpio_out[12] 0.00308297
2 *920:count[4] 1.36105e-05
3 *708:11 0.0904471
4 *708:9 0.0873641
5 *708:7 0.0446908
6 *708:5 0.0447044
7 gpio_out[12] *796:15 0
8 *708:11 *796:15 0
9 gpio_analog_sel[22] *708:7 0.118469
10 gpio_holdover[12] gpio_out[12] 0.0018537
11 gpio_holdover[12] *708:11 0.272447
*RES
1 *920:count[4] *708:5 0.310714 
2 *708:5 *708:7 1567.89 
3 *708:7 *708:9 8 
4 *708:9 *708:11 498.211 
5 *708:11 gpio_out[12] 8.15453 
*END

*D_NET *709 0.484908
*CONN
*P gpio_out[13] O
*I *920:count[5] O *D counter_macro
*CAP
1 gpio_out[13] 0.139075
2 *920:count[5] 1.36105e-05
3 *709:14 0
4 *709:9 0.139075
5 *709:7 0.0612928
6 *709:5 0.0613064
7 gpio_out[13] *797:23 0
8 gpio_analog_pol[22] *709:7 0
9 gpio_dm2[13] gpio_out[13] 0
10 gpio_holdover[13] gpio_out[13] 0
11 *357:23 gpio_out[13] 0
12 *543:47 *709:7 0.0841458
*RES
1 *920:count[5] *709:5 0.310714 
2 *709:5 *709:7 2032.01 
3 *709:7 *709:9 8 
4 *709:9 gpio_out[13] 503.505 
5 gpio_out[13] *709:14 0.0908108 
*END

*D_NET *710 0.669409
*CONN
*P gpio_out[14] O
*I *920:count[6] O *D counter_macro
*CAP
1 gpio_out[14] 0.00347562
2 *920:count[6] 1.36105e-05
3 *710:11 0.0894742
4 *710:9 0.0859986
5 *710:7 0.109789
6 *710:5 0.109803
7 gpio_analog_en[22] *710:7 0
8 gpio_dm1[22] *710:7 0
9 *105:31 *710:11 0
10 *358:23 gpio_out[14] 0.000782549
11 *358:23 *710:11 0.270072
*RES
1 *920:count[6] *710:5 0.310714 
2 *710:5 *710:7 2489.79 
3 *710:7 *710:9 8 
4 *710:9 *710:11 493.575 
5 *710:11 gpio_out[14] 8.50547 
*END

*D_NET *711 0.486683
*CONN
*P gpio_out[15] O
*I *920:count[7] O *D counter_macro
*CAP
1 gpio_out[15] 9.62404e-05
2 *920:count[7] 1.36105e-05
3 *711:15 0.00555488
4 *711:13 0.00545864
5 *711:11 0.125987
6 *711:9 0.125987
7 *711:7 0.111786
8 *711:5 0.111799
9 *711:11 *712:11 0
10 gpio_holdover[15] gpio_out[15] 0
*RES
1 *920:count[7] *711:5 0.310714 
2 *711:5 *711:7 2534.87 
3 *711:7 *711:9 8 
4 *711:9 *711:11 456.437 
5 *711:11 *711:13 8 
6 *711:13 *711:15 122.691 
7 *711:15 gpio_out[15] 1.86429 
*END

*D_NET *712 0.432599
*CONN
*P gpio_out[16] O
*I *920:count[8] O *D counter_macro
*CAP
1 gpio_out[16] 0.00570171
2 *920:count[8] 1.36105e-05
3 *712:13 0.00570171
4 *712:11 0.0991138
5 *712:9 0.0991138
6 *712:7 0.11147
7 *712:5 0.111484
8 gpio_holdover[16] gpio_out[16] 0
9 *455:5 *712:7 0
10 *711:11 *712:11 0
*RES
1 *920:count[8] *712:5 0.310714 
2 *712:5 *712:7 2527.83 
3 *712:7 *712:9 8 
4 *712:9 *712:11 359.15 
5 *712:11 *712:13 8 
6 *712:13 gpio_out[16] 131.07 
*END

*D_NET *713 0.405338
*CONN
*P gpio_out[17] O
*I *920:count[9] O *D counter_macro
*CAP
1 gpio_out[17] 0.1024
2 *920:count[9] 1.36105e-05
3 *713:13 0.1024
4 *713:11 0.0854279
5 *713:9 0.0854279
6 *713:7 0.0148274
7 *713:5 0.014841
8 gpio_holdover[17] gpio_out[17] 0
9 *192:15 *713:11 0
*RES
1 *920:count[9] *713:5 0.310714 
2 *713:5 *713:7 333.976 
3 *713:7 *713:9 8 
4 *713:9 *713:11 308.833 
5 *713:11 *713:13 8 
6 *713:13 gpio_out[17] 2324.92 
*END

*D_NET *714 0.358417
*CONN
*P gpio_out[18] O
*I *920:count[10] O *D counter_macro
*CAP
1 gpio_out[18] 0.109343
2 *920:count[10] 1.36105e-05
3 *714:13 0.109343
4 *714:11 0.0619682
5 *714:9 0.0619682
6 *714:7 0.00788401
7 *714:5 0.00789762
8 gpio_holdover[18] gpio_out[18] 0
*RES
1 *920:count[10] *714:5 0.310714 
2 *714:5 *714:7 176.921 
3 *714:7 *714:9 8 
4 *714:9 *714:11 223.481 
5 *714:11 *714:13 8 
6 *714:13 gpio_out[18] 2481.98 
*END

*D_NET *715 0.310146
*CONN
*P gpio_out[19] O
*I *920:count[11] O *D counter_macro
*CAP
1 gpio_out[19] 0.1174
2 *920:count[11] 0
3 *715:8 0.1174
4 *715:6 0.030751
5 *715:4 0.030751
6 *715:6 *719:8 0.00379293
7 gpio_holdover[19] gpio_out[19] 0
8 *454:13 *715:6 0.0100504
*RES
1 *920:count[11] *715:4 8 
2 *715:4 *715:6 126.151 
3 *715:6 *715:8 8 
4 *715:8 gpio_out[19] 2661.57 
*END

*D_NET *716 0.912008
*CONN
*P gpio_out[1] O
*I *921:gpio_out[1] O *D CF_CARAVEL_SOC
*CAP
1 gpio_out[1] 0.00658759
2 *921:gpio_out[1] 0.000448086
3 *716:15 0.023037
4 *716:13 0.0164495
5 *716:11 0.0369525
6 *716:9 0.0374006
7 gpio_out[1] gpio_vtrip_sel[1] 0.000652757
8 *716:9 *808:27 0
9 *716:11 *744:11 0.00376085
10 *716:15 *727:15 0.0243502
11 *716:15 *788:55 0.00984088
12 gpio_dm2[1] gpio_out[1] 0
13 gpio_holdover[1] gpio_out[1] 0
14 *115:15 *716:11 0.000733527
15 *163:23 *716:11 0.277828
16 *247:11 *716:15 0
17 *288:9 gpio_out[1] 0
18 *291:15 *716:11 0.00120436
19 *308:11 *716:15 0.0111429
20 *393:23 *716:11 0.270039
21 *445:19 *716:15 0.038494
22 *456:15 *716:9 0.000101159
23 *541:131 *716:11 0.000317461
24 *688:11 *716:11 0.05235
25 *693:19 *716:11 0.00486438
26 *705:39 *716:15 0.0954527
*RES
1 *921:gpio_out[1] *716:9 21.9911 
2 *716:9 *716:11 3015.94 
3 *716:11 *716:13 15 
4 *716:13 *716:15 1217.33 
5 *716:15 gpio_out[1] 23.3039 
*END

*D_NET *717 0.275703
*CONN
*P gpio_out[20] O
*I *920:count[12] O *D counter_macro
*CAP
1 gpio_out[20] 0.000134032
2 *920:count[12] 1.36105e-05
3 *717:15 0.00487646
4 *717:13 0.00474242
5 *717:11 0.02052
6 *717:9 0.02052
7 *717:7 0.112441
8 *717:5 0.112455
9 gpio_holdover[20] gpio_out[20] 0
10 gpio_holdover[20] *717:15 0
*RES
1 *920:count[12] *717:5 0.310714 
2 *717:5 *717:7 2548.96 
3 *717:7 *717:9 8 
4 *717:9 *717:11 75.7045 
5 *717:11 *717:13 8 
6 *717:13 *717:15 108.605 
7 *717:15 gpio_out[20] 1.86429 
*END

*D_NET *718 0.248074
*CONN
*P gpio_out[21] O
*I *920:count[13] O *D counter_macro
*CAP
1 gpio_out[21] 0.000134032
2 *920:count[13] 1.36105e-05
3 *718:15 0.00238494
4 *718:13 0.00890694
5 *718:7 0.121638
6 *718:5 0.114996
7 gpio_holdover[21] gpio_out[21] 0
8 gpio_holdover[21] *718:15 0
*RES
1 *920:count[13] *718:5 0.310714 
2 *718:5 *718:7 2606.71 
3 *718:7 *718:13 41.3867 
4 *718:13 *718:15 50.8536 
5 *718:15 gpio_out[21] 1.86429 
*END

*D_NET *719 0.259259
*CONN
*P gpio_out[22] O
*I *920:count[14] O *D counter_macro
*CAP
1 gpio_out[22] 0.117352
2 *920:count[14] 0.00352688
3 *719:8 0.120879
4 *454:13 *719:8 0.0137082
5 *539:423 gpio_out[22] 0
6 *707:7 gpio_out[22] 0
7 *715:6 *719:8 0.00379293
*RES
1 *920:count[14] *719:8 41.0003 
2 *719:8 gpio_out[22] 2660.86 
*END

*D_NET *720 0.296361
*CONN
*P gpio_out[23] O
*I *920:count[15] O *D counter_macro
*CAP
1 gpio_out[23] 0.00230715
2 *920:count[15] 7.1726e-05
3 *720:13 0.117123
4 *720:11 0.114816
5 *720:9 0.010319
6 *720:7 0.0103907
7 *720:9 *807:15 0.00463661
8 gpio_holdover[23] gpio_out[23] 0
9 *103:15 *720:9 0.00220535
10 *147:17 *720:9 0
11 *322:359 *720:13 0
12 *322:367 *720:13 0
13 *455:9 *720:9 0.00189869
14 *539:257 *720:9 0.000733125
15 *542:51 *720:9 0.00339609
16 *543:43 *720:9 0.0284634
17 *679:13 *720:9 0
*RES
1 *920:count[15] *720:7 9.48107 
2 *720:7 *720:9 75.3181 
3 *720:9 *720:11 8 
4 *720:11 *720:13 2608.88 
5 *720:13 gpio_out[23] 49.8489 
*END

*D_NET *721 0.362041
*CONN
*P gpio_out[24] O
*I *921:gpio_out[24] O *D CF_CARAVEL_SOC
*CAP
1 gpio_out[24] 0.000314464
2 *921:gpio_out[24] 8.13957e-05
3 *721:13 0.0435508
4 *721:11 0.0432363
5 *721:9 0.12953
6 *721:7 0.129611
7 *721:13 gpio_vtrip_sel[24] 5.76344e-05
8 *721:13 *756:10 0.01566
9 gpio_ib_mode_sel[24] *721:13 0
*RES
1 *921:gpio_out[24] *721:7 1.86429 
2 *721:7 *721:9 2924.34 
3 *721:9 *721:11 8 
4 *721:11 *721:13 174.981 
5 *721:13 gpio_out[24] 1.2068 
*END

*D_NET *722 0.325212
*CONN
*P gpio_out[25] O
*I *921:gpio_out[25] O *D CF_CARAVEL_SOC
*CAP
1 gpio_out[25] 0.0109824
2 *921:gpio_out[25] 8.13957e-05
3 *722:17 0.066721
4 *722:15 0.0557386
5 *722:13 0.0397608
6 *722:11 0.0397608
7 *722:9 0.0241363
8 *722:7 0.0242177
9 gpio_out[25] gpio_vtrip_sel[25] 0
10 gpio_holdover[25] gpio_out[25] 0.00120615
11 *189:19 *722:9 0.053437
12 *192:19 *722:17 0
13 *321:71 *722:9 0
14 *322:375 *722:17 0
15 *326:35 gpio_out[25] 0
16 *400:23 gpio_out[25] 0.00896536
17 *539:287 *722:13 0.000204526
*RES
1 *921:gpio_out[25] *722:7 1.86429 
2 *722:7 *722:9 784.719 
3 *722:9 *722:11 8 
4 *722:11 *722:13 143.196 
5 *722:13 *722:15 8 
6 *722:15 *722:17 1262.22 
7 *722:17 gpio_out[25] 46.9097 
*END

*D_NET *723 0.275532
*CONN
*P gpio_out[26] O
*I *921:gpio_out[26] O *D CF_CARAVEL_SOC
*CAP
1 gpio_out[26] 0.000143248
2 *921:gpio_out[26] 8.13957e-05
3 *723:21 0.0466033
4 *723:19 0.04646
5 *723:17 0.0781935
6 *723:15 0.0837318
7 *723:9 0.00862294
8 *723:7 0.00316601
9 *723:9 *761:19 0
10 *723:21 gpio_vtrip_sel[26] 0
11 gpio_holdover[26] *723:21 0.00581563
12 *202:27 *723:15 0.00271444
13 *327:67 *723:21 0
14 *663:11 *723:21 0
*RES
1 *921:gpio_out[26] *723:7 1.86429 
2 *723:7 *723:9 55.7836 
3 *723:9 *723:15 41.7301 
4 *723:15 *723:17 1769.31 
5 *723:17 *723:19 8 
6 *723:19 *723:21 161.672 
7 *723:21 gpio_out[26] 0.549733 
*END

*D_NET *724 0.262254
*CONN
*P gpio_out[27] O
*I *921:gpio_out[27] O *D CF_CARAVEL_SOC
*CAP
1 gpio_out[27] 0.00320399
2 *921:gpio_out[27] 8.13957e-05
3 *724:17 0.0047635
4 *724:15 0.00155951
5 *724:13 0.0525593
6 *724:11 0.0525593
7 *724:9 0.069027
8 *724:7 0.0691084
9 gpio_holdover[27] gpio_out[27] 0.00408891
10 *240:15 gpio_out[27] 0.000975814
11 *366:11 *724:17 0
12 *545:15 *724:17 0.00432741
*RES
1 *921:gpio_out[27] *724:7 1.86429 
2 *724:7 *724:9 1548.87 
3 *724:9 *724:11 8 
4 *724:11 *724:13 183.725 
5 *724:13 *724:15 8 
6 *724:15 *724:17 55.0793 
7 *724:17 gpio_out[27] 17.9465 
*END

*D_NET *725 0.24185
*CONN
*P gpio_out[28] O
*I *921:gpio_out[28] O *D CF_CARAVEL_SOC
*CAP
1 gpio_out[28] 0.000265823
2 *921:gpio_out[28] 1.9947e-05
3 *725:19 0.0557308
4 *725:17 0.055465
5 *725:15 0.0583213
6 *725:13 0.0612988
7 *725:7 0.00611886
8 *725:5 0.0031613
9 *725:7 *730:15 0
10 *725:15 *761:19 0
11 *725:19 gpio_vtrip_sel[28] 0
12 *202:27 *725:13 0.0010371
13 *329:70 *725:19 0
14 *361:33 *725:13 0.000430816
*RES
1 *921:gpio_out[28] *725:5 0.310714 
2 *725:5 *725:7 57.1921 
3 *725:7 *725:13 26.9611 
4 *725:13 *725:15 1319.27 
5 *725:15 *725:17 8 
6 *725:17 *725:19 188.72 
7 *725:19 gpio_out[28] 1.02013 
*END

*D_NET *726 0.225498
*CONN
*P gpio_out[29] O
*I *921:gpio_out[29] O *D CF_CARAVEL_SOC
*CAP
1 gpio_out[29] 0.000178269
2 *921:gpio_out[29] 9.44698e-05
3 *726:21 0.0602617
4 *726:19 0.0600834
5 *726:17 0.0483679
6 *726:15 0.0491776
7 *726:9 0.00402513
8 *726:7 0.00330992
9 *726:9 *728:17 0
10 *726:21 gpio_vtrip_sel[29] 0
11 gpio_holdover[29] *726:21 0
12 *198:31 *726:21 0
13 *202:27 *726:15 0
14 *284:65 *726:21 0
*RES
1 *921:gpio_out[29] *726:7 1.86429 
2 *726:7 *726:9 59.305 
3 *726:9 *726:15 19.0613 
4 *726:15 *726:17 1093.9 
5 *726:17 *726:19 8 
6 *726:19 *726:21 202.888 
7 *726:21 gpio_out[29] 0.684133 
*END

*D_NET *727 0.866314
*CONN
*P gpio_out[2] O
*I *921:gpio_out[2] O *D CF_CARAVEL_SOC
*CAP
1 gpio_out[2] 0.00597037
2 *921:gpio_out[2] 0.000154651
3 *727:15 0.0199212
4 *727:13 0.0139509
5 *727:11 0.0353426
6 *727:9 0.0354973
7 *727:11 *731:6 0.0215979
8 *727:11 *733:6 0.00172643
9 *727:11 *734:11 0.000518348
10 *727:11 *738:11 0.276198
11 *727:11 *739:6 0.00197401
12 *727:11 *740:11 0.00327587
13 *727:15 *738:15 0.0583145
14 *727:15 *788:55 0.00983825
15 gpio_dm2[2] gpio_out[2] 0
16 gpio_holdover[2] gpio_out[2] 0.00203523
17 *90:11 *727:15 0.0071467
18 *162:15 *727:11 0.279314
19 *247:11 *727:15 0
20 *308:11 *727:15 0.00127477
21 *326:9 gpio_out[2] 0.00110686
22 *436:23 *727:11 0.00112184
23 *445:19 *727:15 0.0204972
24 *562:123 *727:15 0.0163426
25 *694:6 *727:11 0.0288393
26 *694:10 *727:15 4.15283e-06
27 *716:15 *727:15 0.0243502
*RES
1 *921:gpio_out[2] *727:9 17.0611 
2 *727:9 *727:11 2982.59 
3 *727:11 *727:13 15 
4 *727:13 *727:15 980.687 
5 *727:15 gpio_out[2] 22.4881 
*END

*D_NET *728 0.214028
*CONN
*P gpio_out[30] O
*I *921:gpio_out[30] O *D CF_CARAVEL_SOC
*CAP
1 gpio_out[30] 0.000108173
2 *921:gpio_out[30] 9.44698e-05
3 *728:21 0.0600869
4 *728:19 0.0599787
5 *728:17 0.0388457
6 *728:15 0.0397162
7 *728:9 0.00380831
8 *728:7 0.00303228
9 gpio_holdover[30] *728:21 0.00539582
10 *200:15 *728:21 0
11 *202:27 *728:15 0.00296175
12 *726:9 *728:17 0
*RES
1 *921:gpio_out[30] *728:7 1.86429 
2 *728:7 *728:9 52.9664 
3 *728:9 *728:15 21.3797 
4 *728:15 *728:17 878.389 
5 *728:17 *728:19 8 
6 *728:19 *728:21 206.752 
7 *728:21 gpio_out[30] 0.348133 
*END

*D_NET *729 0.199515
*CONN
*P gpio_out[31] O
*I *921:gpio_out[31] O *D CF_CARAVEL_SOC
*CAP
1 gpio_out[31] 0.000377374
2 *921:gpio_out[31] 9.44698e-05
3 *729:21 0.0505901
4 *729:19 0.0502128
5 *729:17 0.0287297
6 *729:15 0.0291475
7 *729:9 0.00335558
8 *729:7 0.00303228
9 *729:21 gpio_vtrip_sel[31] 0
10 gpio_holdover[31] *729:21 0
11 gpio_ib_mode_sel[31] *729:21 0
12 *202:27 *729:15 0.00139991
13 *245:15 *729:21 0.0325751
14 *333:27 *729:21 0
*RES
1 *921:gpio_out[31] *729:7 1.86429 
2 *729:7 *729:9 52.9664 
3 *729:9 *729:15 18.5461 
4 *729:15 *729:17 650.201 
5 *729:17 *729:19 8 
6 *729:19 *729:21 215.768 
7 *729:21 gpio_out[31] 1.15453 
*END

*D_NET *730 0.23648
*CONN
*P gpio_out[32] O
*I *921:gpio_out[32] O *D CF_CARAVEL_SOC
*CAP
1 gpio_out[32] 7.62908e-05
2 *921:gpio_out[32] 0.00259384
3 *730:19 0.0340634
4 *730:17 0.0339871
5 *730:15 0.00261791
6 *730:13 0.00521175
7 *730:13 *732:6 0.00630093
8 *730:13 *737:9 0.0126755
9 *730:19 *754:21 0.000728248
10 *730:19 *761:15 0
11 gpio_holdover[32] *730:19 0.000248582
12 *148:13 *730:19 0
13 *202:27 *730:19 0
14 *290:15 *730:19 0
15 *361:33 *730:19 0.0166996
16 *394:15 *730:19 0.1032
17 *440:23 *730:19 0.0180771
18 *725:7 *730:15 0
*RES
1 *921:gpio_out[32] *730:13 42.0398 
2 *730:13 *730:15 48.0364 
3 *730:15 *730:17 8 
4 *730:17 *730:19 200.312 
5 *730:19 gpio_out[32] 0.236133 
*END

*D_NET *731 0.338957
*CONN
*P gpio_out[33] O
*I *921:gpio_out[33] O *D CF_CARAVEL_SOC
*CAP
1 gpio_out[33] 0.00062396
2 *921:gpio_out[33] 0
3 *731:18 0.00608061
4 *731:16 0.00545665
5 *731:14 0.0121239
6 *731:12 0.012358
7 *731:6 0.0158767
8 *731:4 0.0156426
9 *731:6 *733:6 0.0984545
10 *731:6 *734:11 0.0984622
11 *731:14 *734:11 6.98299e-06
12 *731:14 *833:21 0.00735061
13 *731:14 *833:23 0.00946491
14 gpio_holdover[33] gpio_out[33] 0.000541301
15 *159:15 *731:14 0.00220041
16 *161:15 *731:14 0.00467297
17 *162:15 *731:6 0.0187667
18 *204:33 *731:6 0.000176174
19 *204:41 *731:14 0
20 *322:313 *731:14 0.000120171
21 *337:39 *731:14 0.00198039
22 *378:11 *731:18 0
23 *379:18 gpio_out[33] 3.08663e-05
24 *466:11 *731:18 0.00631341
25 *539:187 *731:14 0.000120171
26 *693:27 *731:14 0.000534852
27 *727:11 *731:6 0.0215979
*RES
1 *921:gpio_out[33] *731:4 8 
2 *731:4 *731:6 185.829 
3 *731:6 *731:12 20.3707 
4 *731:12 *731:14 43.6763 
5 *731:14 *731:16 8 
6 *731:16 *731:18 164.948 
7 *731:18 gpio_out[33] 9.59693 
*END

*D_NET *732 0.311286
*CONN
*P gpio_out[34] O
*I *921:gpio_out[34] O *D CF_CARAVEL_SOC
*CAP
1 gpio_out[34] 0.00755236
2 *921:gpio_out[34] 0
3 *732:10 0.0129812
4 *732:8 0.00542881
5 *732:6 0.026882
6 *732:4 0.026882
7 *732:6 *733:6 0.00601313
8 *732:6 *735:11 0.00025038
9 *732:6 *735:21 0.0142475
10 *732:6 *737:9 0.0182532
11 *732:6 *739:6 0.100448
12 *732:10 *787:11 0.0310843
13 gpio_dm2[34] gpio_out[34] 0.00151882
14 gpio_holdover[34] gpio_out[34] 0
15 *204:33 *732:6 0.00172472
16 *394:9 gpio_out[34] 0.00319378
17 *418:11 *732:10 0.0053424
18 *456:15 *732:6 0.00200963
19 *468:11 *732:10 0.00403056
20 *472:37 *732:6 0.0031227
21 *472:39 *732:6 0.0127939
22 *543:31 *732:10 0.00633577
23 *687:19 *732:10 0.0148899
24 *730:13 *732:6 0.00630093
*RES
1 *921:gpio_out[34] *732:4 8 
2 *732:4 *732:6 219.317 
3 *732:6 *732:8 8 
4 *732:8 *732:10 397.362 
5 *732:10 gpio_out[34] 25.5737 
*END

*D_NET *733 0.420821
*CONN
*P gpio_out[35] O
*I *921:gpio_out[35] O *D CF_CARAVEL_SOC
*CAP
1 gpio_out[35] 0.00666734
2 *921:gpio_out[35] 0
3 *733:10 0.0246379
4 *733:8 0.0179705
5 *733:6 0.0228968
6 *733:4 0.0228968
7 gpio_out[35] *759:9 0.000206179
8 gpio_out[35] *761:9 0
9 *733:6 *734:11 0.00881316
10 *733:6 *735:21 0.000324999
11 *733:6 *739:6 0.103712
12 *733:10 *736:31 0.000969082
13 *733:10 *753:11 0.00641569
14 *733:10 *832:19 0
15 gpio_holdover[35] gpio_out[35] 0.000701197
16 *162:15 *733:6 0.00381778
17 *204:33 *733:6 0.0197833
18 *204:41 *733:6 0.00485291
19 *365:11 *733:10 0
20 *420:11 *733:10 0.00498153
21 *469:11 *733:10 0.00408931
22 *472:37 *733:6 0.00312583
23 *688:15 *733:10 0.0321372
24 *690:11 *733:6 0.0254841
25 *690:21 *733:6 0.000143863
26 *727:11 *733:6 0.00172643
27 *731:6 *733:6 0.0984545
28 *732:6 *733:6 0.00601313
*RES
1 *921:gpio_out[35] *733:4 8 
2 *733:4 *733:6 229.535 
3 *733:6 *733:8 8 
4 *733:8 *733:10 617.804 
5 *733:10 gpio_out[35] 21.7863 
*END

*D_NET *734 0.465223
*CONN
*P gpio_out[36] O
*I *921:gpio_out[36] O *D CF_CARAVEL_SOC
*CAP
1 gpio_out[36] 0.00570676
2 *921:gpio_out[36] 0.000347734
3 *734:15 0.0189744
4 *734:13 0.0132676
5 *734:11 0.0326262
6 *734:9 0.0329739
7 gpio_out[36] *817:9 0
8 gpio_out[36] *818:9 0.00031868
9 *734:11 *738:11 0.0205438
10 *734:11 *739:6 0.000903355
11 *734:11 *743:11 0.0230169
12 *734:11 *808:21 0.00167798
13 *734:11 *808:23 0.000737409
14 *734:11 *833:21 0.000485779
15 *734:15 *736:39 0.0506088
16 *734:15 *762:11 0.00768145
17 *734:15 *833:11 0.00691003
18 gpio_holdover[36] gpio_out[36] 0.000929359
19 *118:211 *734:15 0.0021233
20 *161:15 *734:11 0.0341581
21 *162:15 *734:11 0.000464151
22 *204:41 *734:11 0.00547056
23 *413:17 *734:11 0.000474827
24 *436:23 *734:11 0.0480802
25 *689:15 *734:15 0.0489411
26 *727:11 *734:11 0.000518348
27 *731:6 *734:11 0.0984622
28 *731:14 *734:11 6.98299e-06
29 *733:6 *734:11 0.00881316
*RES
1 *921:gpio_out[36] *734:9 10.5893 
2 *734:9 *734:11 236.705 
3 *734:11 *734:13 8 
4 *734:13 *734:15 839.654 
5 *734:15 gpio_out[36] 20.5804 
*END

*D_NET *735 0.450393
*CONN
*P gpio_out[37] O
*I *921:gpio_out[37] O *D CF_CARAVEL_SOC
*CAP
1 gpio_out[37] 0.0064128
2 *921:gpio_out[37] 0.000122729
3 *735:23 0.0194974
4 *735:21 0.0173504
5 *735:17 0.00434338
6 *735:11 0.0324404
7 *735:9 0.0324856
8 gpio_out[37] gpio_vtrip_sel[37] 0
9 *735:11 *736:11 0.10826
10 *735:11 *739:6 0.0210108
11 *735:21 *736:21 0.000211402
12 *735:21 *737:9 0.00116394
13 *735:21 *737:15 0.000488501
14 *735:23 *815:11 0.000239211
15 gpio_dm2[37] gpio_out[37] 0.0040042
16 gpio_holdover[37] gpio_out[37] 0
17 *204:33 *735:11 0.000650307
18 *247:19 *735:23 0.000131266
19 *374:11 *735:23 0.00327263
20 *380:11 *735:23 0.00114956
21 *421:11 *735:23 0.00539981
22 *436:19 *735:23 0.0836447
23 *456:15 *735:11 0.000304683
24 *467:11 *735:23 0.0746825
25 *472:39 *735:21 0.00840261
26 *544:29 *735:21 0.0016225
27 *552:25 *735:23 0.00485877
28 *690:21 *735:21 0.00342037
29 *732:6 *735:11 0.00025038
30 *732:6 *735:21 0.0142475
31 *733:6 *735:21 0.000324999
*RES
1 *921:gpio_out[37] *735:9 16.5846 
2 *735:9 *735:11 1166.92 
3 *735:11 *735:17 24.0254 
4 *735:17 *735:21 37.7659 
5 *735:21 *735:23 1069.25 
6 *735:23 gpio_out[37] 23.1769 
*END

*D_NET *736 0.70691
*CONN
*P gpio_out[38] O
*I *921:gpio_out[38] O *D CF_CARAVEL_SOC
*CAP
1 gpio_out[38] 0.000184685
2 *921:gpio_out[38] 0.000172812
3 *736:43 0.0144166
4 *736:41 0.0142319
5 *736:39 0.0452978
6 *736:37 0.0457133
7 *736:31 0.00109668
8 *736:23 0.00333537
9 *736:21 0.00888343
10 *736:17 0.00643755
11 *736:11 0.0143153
12 *736:9 0.0142798
13 *736:11 *739:6 0.0249683
14 *736:21 *737:9 0.0119607
15 *736:21 *737:15 0.000218777
16 *736:23 *768:11 0.00654172
17 *736:37 gpio_vtrip_sel[33] 0.00063857
18 *736:39 *762:11 0.0328426
19 *736:43 *848:19 0.0132442
20 gpio_analog_en[38] *736:43 6.47829e-05
21 gpio_holdover[38] gpio_out[38] 1.83879e-05
22 gpio_oeb[33] *736:37 0.00063857
23 *118:211 *736:39 0.0349168
24 *162:25 *736:21 0.00194462
25 *163:31 *736:21 0.000373559
26 *204:33 *736:11 0.111431
27 *251:15 *736:43 0.0100961
28 *284:23 *736:43 0.00106376
29 *284:31 *736:43 0.0174901
30 *284:49 *736:43 4.13845e-05
31 *335:33 *736:43 0.00806827
32 *365:11 *736:31 0
33 *368:11 *736:23 0.0140819
34 *373:11 *736:23 0.00200528
35 *384:15 *736:43 0.0697253
36 *387:11 *736:39 0
37 *387:15 *736:43 0.00485774
38 *387:23 *736:43 0.00120384
39 *411:11 *736:39 0
40 *428:23 *736:43 0.00353436
41 *437:29 *736:21 0.000911268
42 *456:27 *736:23 0.00159527
43 *544:17 *736:39 0
44 *688:11 *736:21 0.00303228
45 *690:21 *736:21 0.000937516
46 *705:17 *736:21 4.93993e-05
47 *733:10 *736:31 0.000969082
48 *734:15 *736:39 0.0506088
49 *735:11 *736:11 0.10826
50 *735:21 *736:21 0.000211402
*RES
1 *921:gpio_out[38] *736:9 17.0611 
2 *736:9 *736:11 1188.36 
3 *736:11 *736:17 26.4904 
4 *736:17 *736:21 41.1147 
5 *736:21 *736:23 179.914 
6 *736:23 *736:31 46.1261 
7 *736:31 *736:37 17.344 
8 *736:37 *736:39 1620 
9 *736:39 *736:41 8 
10 *736:41 *736:43 133.579 
11 *736:43 gpio_out[38] 11.2418 
*END

*D_NET *737 0.755346
*CONN
*P gpio_out[39] O
*I *921:gpio_out[39] O *D CF_CARAVEL_SOC
*CAP
1 gpio_out[39] 0.0361824
2 *921:gpio_out[39] 6.91572e-05
3 *737:191 0.0392055
4 *737:173 0.00934442
5 *737:153 0.00976064
6 *737:151 0.00839571
7 *737:147 0.0059723
8 *737:135 0.00670776
9 *737:127 0.00738464
10 *737:117 0.00355863
11 *737:103 0.00422897
12 *737:97 0.00840309
13 *737:89 0.00840544
14 *737:87 0.00325588
15 *737:81 0.0112099
16 *737:79 0.011731
17 *737:73 0.0179586
18 *737:71 0.0169333
19 *737:65 0.00742753
20 *737:63 0.0093459
21 *737:57 0.00340398
22 *737:55 0.00310973
23 *737:41 0.00563261
24 *737:39 0.0100638
25 *737:27 0.00768897
26 *737:17 0.00523342
27 *737:15 0.00420678
28 *737:9 0.0409077
29 *737:7 0.0407561
30 gpio_out[39] *826:27 0.00118806
31 *737:9 *739:6 0.00368089
32 *737:9 *744:11 0.0247928
33 *737:27 *756:6 0.000417843
34 *737:39 *765:11 0
35 *737:39 *816:21 4.96824e-05
36 *737:55 *832:25 7.66408e-05
37 *737:57 *763:11 0.00719611
38 *737:65 *766:11 0.00263654
39 *737:71 *757:9 1.38221e-05
40 *737:73 *749:11 0.035251
41 *737:73 *771:11 0.000561541
42 *737:73 *808:11 0
43 *737:81 *815:11 0.000190659
44 *737:81 *871:15 0.00068293
45 *737:97 *815:15 0.00211643
46 *737:97 *826:21 0.00091636
47 *737:97 *873:37 0.0094681
48 *737:117 *739:58 0.000454538
49 *737:117 *839:215 0.00250689
50 *737:117 *846:21 9.72605e-05
51 *737:127 *815:25 0.00128129
52 *737:127 *839:215 0.000655413
53 *737:127 *873:23 0
54 *737:135 *739:74 0
55 *737:135 *826:21 0.00170427
56 *737:147 *739:84 0.00105134
57 *737:147 *826:21 0.000196739
58 *737:147 *840:19 0.00220049
59 *737:151 *826:21 0.00140257
60 *737:173 *739:104 0.000126011
61 *737:173 *739:116 0
62 *737:173 *784:13 0.00269234
63 *737:173 *826:21 0.000169145
64 *737:173 *843:11 0.000776761
65 *737:173 *854:11 0.000354543
66 *737:173 *861:11 0.000400787
67 gpio_analog_sel[33] *737:39 0.000153901
68 gpio_holdover[33] *737:39 0.000237025
69 gpio_holdover[34] *737:63 0.00249291
70 gpio_ib_mode_sel[35] *737:71 0.000374259
71 *921:gpio_in[6] *737:127 0
72 *118:155 gpio_out[39] 0.00279091
73 *118:187 *737:147 0.000384538
74 *118:197 *737:117 0.000263267
75 *120:15 gpio_out[39] 0.000647223
76 *206:51 *737:17 0
77 *206:51 *737:27 0.00139371
78 *248:19 *737:173 0.000370377
79 *248:35 *737:65 0
80 *293:27 *737:81 0
81 *322:175 gpio_out[39] 0.0036861
82 *322:199 *737:173 0.00280883
83 *322:235 *737:147 2.86919e-05
84 *322:245 *737:135 0
85 *322:271 *737:97 0.000203733
86 *325:83 gpio_out[39] 0.000835161
87 *325:97 *737:173 0.000406026
88 *325:103 *737:173 0.000315151
89 *325:125 *737:151 0.0149712
90 *335:55 *737:97 0.00694135
91 *338:63 gpio_out[39] 0.000280914
92 *338:79 *737:97 0.000339439
93 *362:11 *737:39 0.000441584
94 *366:9 *737:55 1.41966e-05
95 *375:25 *737:39 0.000866284
96 *383:11 *737:57 0.00105882
97 *386:53 *737:135 0.000627666
98 *386:89 *737:173 0.00545828
99 *386:89 *737:191 0.00108064
100 *386:99 gpio_out[39] 0.00279091
101 *387:9 *737:39 1.02995e-05
102 *387:11 *737:89 0.0129956
103 *388:9 *737:39 1.75711e-05
104 *388:11 *737:73 0.00299207
105 *394:9 *737:63 0
106 *395:11 *737:63 0.00134852
107 *397:31 *737:117 0.000439789
108 *397:49 *737:147 0.00205772
109 *397:57 *737:147 0
110 *397:75 gpio_out[39] 0.000467226
111 *402:11 *737:41 0
112 *412:9 *737:79 0
113 *412:11 *737:55 0.000838301
114 *413:9 *737:79 0
115 *418:11 *737:65 0.000407162
116 *419:11 *737:81 0.00212264
117 *419:39 gpio_out[39] 0.000534392
118 *425:11 *737:73 0.00480403
119 *430:23 *737:127 0.000104089
120 *436:11 *737:81 0.00100495
121 *437:19 *737:55 0
122 *441:25 *737:117 0.000183491
123 *444:63 gpio_out[39] 0.00490965
124 *449:29 *737:73 0
125 *453:41 *737:65 0
126 *455:21 *737:57 0.00719874
127 *465:11 *737:41 0.00934506
128 *469:15 *737:117 0.00129216
129 *471:11 *737:73 0
130 *472:25 *737:39 0.00451577
131 *472:27 *737:27 0.00146689
132 *472:39 *737:9 0.0341302
133 *472:55 gpio_out[39] 0.00677829
134 *539:63 gpio_out[39] 0.0042423
135 *539:111 *737:147 0.000695545
136 *539:151 *737:97 0.000286424
137 *539:159 *737:89 0.0129912
138 *541:35 gpio_out[39] 0.000835161
139 *541:75 *737:147 0.000448105
140 *541:85 *737:135 0.0154877
141 *541:127 *737:17 0.00516397
142 *541:127 *737:27 0
143 *542:47 *737:17 0.00164777
144 *543:31 *737:65 0.0194603
145 *550:11 *737:127 0.000104089
146 *552:25 *737:81 0.029463
147 *556:21 *737:147 8.84148e-05
148 *688:11 *737:9 0.000756931
149 *693:103 *737:97 0.000274677
150 *693:103 *737:103 0.00806974
151 *693:143 *737:151 0
152 *693:183 *737:191 0.00614522
153 *693:187 gpio_out[39] 0.000403904
154 *730:13 *737:9 0.0126755
155 *732:6 *737:9 0.0182532
156 *735:21 *737:9 0.00116394
157 *735:21 *737:15 0.000488501
158 *736:21 *737:9 0.0119607
159 *736:21 *737:15 0.000218777
*RES
1 *921:gpio_out[39] *737:7 9.48107 
2 *737:7 *737:9 243.23 
3 *737:9 *737:15 9.14053 
4 *737:15 *737:17 126.067 
5 *737:17 *737:27 49.1386 
6 *737:27 *737:39 46.0342 
7 *737:39 *737:41 120.578 
8 *737:41 *737:55 45.9984 
9 *737:55 *737:57 91.7021 
10 *737:57 *737:63 23.0971 
11 *737:63 *737:65 248.054 
12 *737:65 *737:71 16.9147 
13 *737:71 *737:73 569.208 
14 *737:73 *737:79 19.3189 
15 *737:79 *737:81 374.121 
16 *737:81 *737:87 18.1168 
17 *737:87 *737:89 167.061 
18 *737:89 *737:97 49.0203 
19 *737:97 *737:103 30.6533 
20 *737:103 *737:117 46.6619 
21 *737:117 *737:127 46.3253 
22 *737:127 *737:135 47.1565 
23 *737:135 *737:147 36.0988 
24 *737:147 *737:151 35.4475 
25 *737:151 *737:153 52.2621 
26 *737:153 *737:173 48.9125 
27 *737:173 *737:191 43.4465 
28 *737:191 gpio_out[39] 39.0751 
*END

*D_NET *738 0.827756
*CONN
*P gpio_out[3] O
*I *921:gpio_out[3] O *D CF_CARAVEL_SOC
*CAP
1 gpio_out[3] 0.00640018
2 *921:gpio_out[3] 9.90032e-05
3 *738:15 0.0156966
4 *738:13 0.00929642
5 *738:11 0.0349319
6 *738:9 0.0350309
7 *738:11 *739:6 0.00174288
8 *738:11 *740:11 0.0256017
9 *738:11 *743:11 0.272301
10 gpio_holdover[3] gpio_out[3] 0
11 *90:11 *738:15 0.00407176
12 *104:9 gpio_out[3] 0.00228765
13 *161:15 *738:11 0.000355907
14 *162:15 *738:11 2.02872e-05
15 *247:11 *738:15 0.00055833
16 *391:29 *738:15 0.00191965
17 *436:23 *738:11 0.00217285
18 *694:6 *738:11 0.00355723
19 *694:10 *738:15 0.0566553
20 *727:11 *738:11 0.276198
21 *727:15 *738:15 0.0583145
22 *734:11 *738:11 0.0205438
*RES
1 *921:gpio_out[3] *738:9 16.1082 
2 *738:9 *738:11 2949.71 
3 *738:11 *738:13 15 
4 *738:13 *738:15 744.399 
5 *738:15 gpio_out[3] 22.6356 
*END

*D_NET *739 0.806693
*CONN
*P gpio_out[40] O
*I *921:gpio_out[40] O *D CF_CARAVEL_SOC
*CAP
1 gpio_out[40] 0.000441042
2 *921:gpio_out[40] 0
3 *739:140 0.00305176
4 *739:130 0.00991661
5 *739:128 0.00799882
6 *739:122 0.00493315
7 *739:120 0.00424023
8 *739:118 0.0035615
9 *739:116 0.0094251
10 *739:112 0.00755312
11 *739:104 0.0034947
12 *739:92 0.00754091
13 *739:84 0.00603188
14 *739:78 0.000609984
15 *739:74 0.0026206
16 *739:68 0.00275193
17 *739:62 0.000887008
18 *739:58 0.00201781
19 *739:56 0.00374989
20 *739:46 0.00561834
21 *739:44 0.00551997
22 *739:40 0.0127153
23 *739:36 0.0110605
24 *739:30 0.0315391
25 *739:28 0.0349301
26 *739:18 0.034654
27 *739:16 0.035121
28 *739:12 0.00563994
29 *739:6 0.025338
30 *739:4 0.0239767
31 *739:6 *743:11 0.00142224
32 *739:68 *873:23 0
33 *739:74 *826:21 0.00170947
34 *739:92 *826:21 0.0015292
35 *739:104 *847:16 0.000605813
36 *739:122 *784:13 0.0284226
37 *739:122 *825:23 0.0284226
38 *739:140 *860:11 0.000346987
39 *739:140 *865:11 0.0004006
40 *739:140 *867:11 0.0004006
41 gpio_dm2[40] gpio_out[40] 0
42 gpio_holdover[40] gpio_out[40] 0
43 *118:177 *739:112 0.000614402
44 *118:201 *739:58 0
45 *119:23 *739:130 0.0421991
46 *162:15 *739:6 0.00223281
47 *204:33 *739:6 0.00360579
48 *208:29 *739:130 0.0421991
49 *252:15 *739:140 0.00368854
50 *297:22 *739:140 0.00181605
51 *299:27 *739:140 0
52 *322:209 *739:112 0.000127127
53 *322:215 *739:104 0.000270434
54 *322:219 *739:92 7.0508e-05
55 *322:225 *739:84 0.000141662
56 *322:225 *739:92 0
57 *322:245 *739:74 0.0155308
58 *325:107 *739:104 0.00149181
59 *325:125 *739:92 0.0156667
60 *325:133 *739:74 4.63531e-05
61 *325:139 *739:74 0.0161335
62 *386:53 *739:74 4.34621e-05
63 *386:81 *739:112 0.000390242
64 *386:89 *739:116 0
65 *397:31 *739:58 0.000437157
66 *397:39 *739:74 0
67 *397:49 *739:78 0.000347006
68 *397:49 *739:84 0.000457334
69 *397:75 *739:118 0
70 *408:23 *739:62 0.000400622
71 *419:23 *739:78 0.00209098
72 *419:29 *739:118 0
73 *441:19 *739:62 0.00303211
74 *444:79 *739:104 8.59724e-05
75 *449:51 *739:104 0.000473128
76 *450:41 *739:112 0.00038089
77 *463:15 *739:62 0.00302713
78 *470:15 *739:104 0.000485334
79 *539:93 *739:116 0.0101984
80 *539:97 *739:112 0
81 *539:101 *739:104 0.000234242
82 *539:115 *739:78 0.00209561
83 *539:121 *739:74 0.000510231
84 *541:81 *739:74 1.33927e-05
85 *541:89 *739:68 0.000773016
86 *549:13 *739:140 0.000346987
87 *556:21 *739:74 2.46036e-05
88 *690:11 *739:6 0.00312322
89 *693:109 *739:58 0
90 *693:143 *739:92 0
91 *693:163 *739:92 0.000106678
92 *693:169 *739:112 0.000400968
93 *693:183 *739:116 0.0011083
94 *727:11 *739:6 0.00197401
95 *732:6 *739:6 0.100448
96 *733:6 *739:6 0.103712
97 *734:11 *739:6 0.000903355
98 *735:11 *739:6 0.0210108
99 *736:11 *739:6 0.0249683
100 *737:9 *739:6 0.00368089
101 *737:117 *739:58 0.000454538
102 *737:135 *739:74 0
103 *737:147 *739:84 0.00105134
104 *737:173 *739:104 0.000126011
105 *737:173 *739:116 0
106 *738:11 *739:6 0.00174288
*RES
1 *921:gpio_out[40] *739:4 8 
2 *739:4 *739:6 226.787 
3 *739:6 *739:12 43.6121 
4 *739:12 *739:16 24.3277 
5 *739:16 *739:18 122.42 
6 *739:18 *739:28 3.42701 
7 *739:28 *739:30 123.562 
8 *739:30 *739:36 17.4299 
9 *739:36 *739:40 48.8016 
10 *739:40 *739:44 15.8269 
11 *739:44 *739:46 78.3207 
12 *739:46 *739:56 45.8543 
13 *739:56 *739:58 37.4825 
14 *739:58 *739:62 47.5421 
15 *739:62 *739:68 34.2375 
16 *739:68 *739:74 46.2808 
17 *739:74 *739:78 38.0136 
18 *739:78 *739:84 36.7025 
19 *739:84 *739:92 45.2317 
20 *739:92 *739:104 43.4066 
21 *739:104 *739:112 42.7586 
22 *739:112 *739:116 36.7355 
23 *739:116 *739:118 54.375 
24 *739:118 *739:120 8 
25 *739:120 *739:122 53.5509 
26 *739:122 *739:128 26.005 
27 *739:128 *739:130 79.912 
28 *739:130 *739:140 48.0591 
29 *739:140 gpio_out[40] 6.80464 
*END

*D_NET *740 0.891313
*CONN
*P gpio_out[41] O
*I *921:gpio_out[41] O *D CF_CARAVEL_SOC
*CAP
1 gpio_out[41] 0.00024721
2 *921:gpio_out[41] 0.000330562
3 *740:171 0.00426578
4 *740:169 0.00401857
5 *740:167 0.00341335
6 *740:165 0.00341335
7 *740:163 0.00327625
8 *740:153 0.00398645
9 *740:147 0.00130634
10 *740:145 0.0011888
11 *740:141 0.000722721
12 *740:135 0.000883716
13 *740:133 0.00139198
14 *740:129 0.000770472
15 *740:123 0.00175786
16 *740:121 0.00206556
17 *740:115 0.00201917
18 *740:113 0.00182628
19 *740:107 0.000653764
20 *740:95 0.00176236
21 *740:93 0.00135554
22 *740:91 0.00286093
23 *740:89 0.00286093
24 *740:87 0.00104876
25 *740:85 0.00104876
26 *740:83 0.0022277
27 *740:79 0.0103857
28 *740:77 0.00815804
29 *740:75 0.00466107
30 *740:73 0.00500249
31 *740:67 0.00451829
32 *740:65 0.00524839
33 *740:59 0.0158599
34 *740:57 0.0219638
35 *740:47 0.00882792
36 *740:31 0.00563308
37 *740:29 0.00421941
38 *740:23 0.007956
39 *740:21 0.0135006
40 *740:17 0.00630918
41 *740:11 0.034065
42 *740:9 0.0338698
43 *740:11 *741:6 0.00474756
44 *740:11 *743:11 0.0295574
45 *740:21 *741:22 0
46 *740:21 *742:16 0.00042122
47 *740:21 *789:23 0
48 *740:107 *826:119 5.50049e-05
49 *740:129 *741:154 0.000184484
50 *740:167 *760:29 0
51 *740:167 *847:14 7.55695e-05
52 gpio_analog_sel[42] *740:167 0
53 gpio_analog_sel[43] *740:79 0.00564401
54 *118:11 *740:59 0.00243021
55 *118:19 *740:67 0.00609813
56 *118:19 *740:75 0
57 *118:23 *740:79 0.00544141
58 *118:39 *740:95 0.00081258
59 *125:15 *740:79 0.00354527
60 *161:15 *740:11 0.038837
61 *162:15 *740:11 0.00290349
62 *204:33 *740:11 0.000334413
63 *228:11 *740:59 0.0283797
64 *236:11 *740:75 0.000380379
65 *242:9 *740:73 0
66 *245:9 *740:73 0
67 *245:11 *740:67 0.00242839
68 *248:19 *740:87 0.0083082
69 *251:11 *740:67 0.00141925
70 *251:11 *740:75 0
71 *251:15 *740:171 0.0141891
72 *253:11 *740:75 0.0241521
73 *284:23 *740:171 0.0253889
74 *285:11 *740:59 0.0199525
75 *290:9 *740:65 0
76 *296:11 *740:67 0.0199394
77 *322:35 *740:75 0.0195706
78 *322:105 *740:123 0.00150063
79 *322:139 *740:167 0
80 *325:23 *740:87 0.00831318
81 *325:57 *740:163 0.00408927
82 *386:175 *740:133 0.00264344
83 *386:175 *740:135 0.00156573
84 *386:191 *740:115 0.00195633
85 *386:191 *740:121 6.79928e-05
86 *386:191 *740:123 0
87 *386:203 *740:91 0
88 *397:103 *740:163 0.00113296
89 *397:103 *740:167 0
90 *397:125 *740:141 7.57281e-06
91 *397:135 *740:121 8.06804e-06
92 *397:135 *740:123 0.00907092
93 *397:147 *740:115 0.0013702
94 *408:35 *740:163 0
95 *408:53 *740:141 2.05503e-05
96 *408:61 *740:135 0.000869853
97 *419:111 *740:167 0
98 *419:131 *740:133 0.000719177
99 *436:23 *740:11 0.0591314
100 *444:23 *740:95 0.00796215
101 *529:9 *740:79 0.00832837
102 *530:43 *740:135 0.00194094
103 *530:53 *740:133 4.53345e-05
104 *530:53 *740:135 0.00111963
105 *530:55 *740:123 0
106 *530:55 *740:133 0.00326169
107 *532:30 *740:107 7.03663e-05
108 *533:42 *740:163 0.000582883
109 *533:42 *740:167 0
110 *533:52 *740:147 0.00129573
111 *533:54 *740:145 0.00300087
112 *533:54 *740:147 0.000673559
113 *533:62 *740:141 0.00020786
114 *533:70 *740:123 0.00747091
115 *533:94 *740:107 0
116 *535:33 *740:147 0.000605086
117 *535:37 *740:145 1.40958e-05
118 *535:57 *740:141 8.28923e-05
119 *536:141 *740:47 0.000311276
120 *536:145 *740:23 0.00786384
121 *536:145 *740:47 0.000403351
122 *537:24 *740:121 0
123 *537:26 *740:115 0.00205333
124 *537:26 *740:121 1.32314e-05
125 *537:114 *740:47 0.000132823
126 *538:139 *740:31 0.00282311
127 *540:16 *740:163 0.000336285
128 *540:34 *740:107 0.000722516
129 *541:11 *740:163 0.0078624
130 *541:15 *740:167 0.00362061
131 *551:91 *740:141 8.21456e-06
132 *551:95 *740:123 0.000877721
133 *559:17 *740:83 0.0012569
134 *561:12 *740:79 0.00627216
135 *562:79 *740:145 0.00162347
136 *563:8 *740:79 0.00308008
137 *565:13 *740:87 0.00158762
138 *567:14 *740:79 0.00461086
139 *568:11 *740:79 0.00397355
140 *569:18 *740:123 0
141 *572:16 *740:79 0.00650037
142 *690:11 *740:11 0.000409807
143 *692:9 *740:17 0.000275127
144 *692:35 *740:171 0.00457194
145 *694:6 *740:11 0.114835
146 *695:13 *740:21 0.00404503
147 *695:27 *740:23 0.00925273
148 *695:33 *740:29 0.000296884
149 *695:35 *740:57 0.00810131
150 *696:31 *740:57 0.00807811
151 *696:95 *740:95 0.00264481
152 *696:103 *740:145 7.44161e-06
153 *696:103 *740:147 0.00352867
154 *696:129 *740:167 0
155 *697:11 *740:31 0
156 *697:27 *740:47 0.0011344
157 *697:109 *740:79 0.013456
158 *697:111 *740:83 0.000656306
159 *727:11 *740:11 0.00327587
160 *738:11 *740:11 0.0256017
*RES
1 *921:gpio_out[41] *740:9 10.5893 
2 *740:9 *740:11 253.62 
3 *740:11 *740:17 27.4136 
4 *740:17 *740:21 31.24 
5 *740:21 *740:23 246.645 
6 *740:23 *740:29 16.7429 
7 *740:29 *740:31 90.2936 
8 *740:31 *740:47 43.6358 
9 *740:47 *740:57 44.1973 
10 *740:57 *740:59 116.073 
11 *740:59 *740:65 18.3315 
12 *740:65 *740:67 254.392 
13 *740:67 *740:73 17.0005 
14 *740:73 *740:75 307.918 
15 *740:75 *740:77 8 
16 *740:77 *740:79 60.4203 
17 *740:79 *740:83 47.7611 
18 *740:83 *740:85 15 
19 *740:85 *740:87 88.7607 
20 *740:87 *740:89 15 
21 *740:89 *740:91 40.9936 
22 *740:91 *740:93 15 
23 *740:93 *740:95 87.3314 
24 *740:95 *740:107 41.4964 
25 *740:107 *740:113 34.0186 
26 *740:113 *740:115 63.7482 
27 *740:115 *740:121 9.10393 
28 *740:121 *740:123 106.865 
29 *740:123 *740:129 32.61 
30 *740:129 *740:133 37.4411 
31 *740:133 *740:135 42.7854 
32 *740:135 *740:141 32.9621 
33 *740:141 *740:145 34.22 
34 *740:145 *740:147 38.7357 
35 *740:147 *740:153 35.9982 
36 *740:153 *740:163 44.0111 
37 *740:163 *740:165 8 
38 *740:165 *740:167 61.9461 
39 *740:167 *740:169 15 
40 *740:169 *740:171 271.233 
41 *740:171 gpio_out[41] 19.2879 
*END

*D_NET *741 0.714311
*CONN
*P gpio_out[42] O
*I *921:gpio_out[42] O *D CF_CARAVEL_SOC
*CAP
1 gpio_out[42] 0.000401484
2 *921:gpio_out[42] 0
3 *741:168 0.00414912
4 *741:162 0.00745455
5 *741:160 0.00589173
6 *741:154 0.00354902
7 *741:140 0.00496938
8 *741:132 0.00599979
9 *741:126 0.00885239
10 *741:124 0.00645778
11 *741:122 0.00357011
12 *741:120 0.00638237
13 *741:116 0.00440567
14 *741:112 0.00529345
15 *741:108 0.00916008
16 *741:98 0.0132647
17 *741:96 0.00942124
18 *741:90 0.0153418
19 *741:88 0.0158918
20 *741:74 0.0118067
21 *741:72 0.0118397
22 *741:60 0.00505655
23 *741:46 0.00386657
24 *741:34 0.0026127
25 *741:32 0.00205025
26 *741:26 0.0210775
27 *741:24 0.0206302
28 *741:22 0.00778482
29 *741:12 0.00885066
30 *741:6 0.0239365
31 *741:4 0.0228707
32 *741:6 *742:6 0.129015
33 *741:22 *742:16 0
34 *741:22 *742:24 0
35 *741:26 *742:46 0
36 *741:34 *742:52 0.000563137
37 *741:46 *742:64 0.000277518
38 *741:60 *742:64 0.00437902
39 *741:74 *742:80 0.00206715
40 *741:88 *742:106 0.00105482
41 *741:90 *742:106 0
42 *741:90 *742:108 0.00218471
43 *741:126 *742:120 0.0383592
44 *741:126 *857:11 0.00839341
45 *741:126 *863:11 0.00727012
46 *741:140 *826:95 0.000765651
47 *741:140 *839:31 2.39556e-05
48 *741:154 *826:91 0.000287108
49 *741:168 *848:11 0.000216853
50 *741:168 *867:11 0.00293947
51 gpio_analog_sel[43] *741:140 0.000624174
52 *118:69 *741:140 0
53 *118:81 *741:162 0
54 *204:33 *741:6 0.00432695
55 *207:31 *741:168 0.000252122
56 *252:15 *741:168 0.00780461
57 *322:95 *741:140 8.25747e-05
58 *325:45 *741:162 0
59 *336:31 *741:160 0.00104171
60 *386:183 *741:140 0
61 *386:183 *741:154 0.00280789
62 *408:63 *741:140 0.000865517
63 *419:131 *741:154 2.03288e-05
64 *444:51 *741:160 0.00152841
65 *530:55 *741:140 0.000980308
66 *533:122 *741:88 9.62148e-05
67 *533:128 *741:88 0
68 *533:144 *741:60 0
69 *533:156 *741:60 0.00060258
70 *533:158 *741:46 0.000728857
71 *535:57 *741:154 0.000106969
72 *535:57 *741:160 0.00215599
73 *535:65 *741:140 0.00595101
74 *535:65 *741:154 0
75 *536:29 *741:162 0
76 *536:89 *741:74 0.00316897
77 *536:107 *741:72 0.000149816
78 *536:121 *741:34 0
79 *537:70 *741:120 0
80 *537:86 *741:60 0.0015116
81 *537:100 *741:60 0
82 *538:55 *741:122 0.00177213
83 *538:67 *741:120 0
84 *538:79 *741:98 0
85 *538:93 *741:88 0.00030565
86 *538:119 *741:60 0.00032882
87 *538:123 *741:46 0.000276136
88 *538:133 *741:46 0.000232577
89 *540:22 *741:140 0
90 *549:13 *741:168 0.00338537
91 *551:121 *741:120 0
92 *560:9 *741:122 0
93 *562:89 *741:160 0.00429092
94 *562:91 *741:140 0.00113177
95 *690:11 *741:6 0.00374787
96 *692:35 *741:168 0.000757196
97 *693:11 *741:6 0.00195139
98 *694:6 *741:6 0.00162808
99 *695:35 *741:60 0
100 *695:51 *741:60 0
101 *695:51 *741:74 0.000994656
102 *695:55 *741:98 0.00326376
103 *695:55 *741:108 0
104 *696:31 *741:72 0.00079591
105 *696:35 *741:72 0.000324126
106 *696:43 *741:108 0.00169364
107 *696:67 *741:122 0.000431061
108 *697:39 *741:26 0
109 *697:45 *741:32 0
110 *697:47 *741:34 0.0045629
111 *697:61 *741:46 0.00104769
112 *697:73 *741:74 0.000141976
113 *697:75 *741:74 0.00982239
114 *697:85 *741:88 0.00215738
115 *697:115 *741:126 0.0259197
116 *697:115 *741:168 0.014248
117 *698:27 *741:126 0.00612402
118 *699:6 *741:6 0.112602
119 *740:11 *741:6 0.00474756
120 *740:21 *741:22 0
121 *740:129 *741:154 0.000184484
*RES
1 *921:gpio_out[42] *741:4 8 
2 *741:4 *741:6 249.713 
3 *741:6 *741:12 36.5693 
4 *741:12 *741:22 43.1787 
5 *741:22 *741:24 8 
6 *741:24 *741:26 471.312 
7 *741:26 *741:32 17.4299 
8 *741:32 *741:34 57.8964 
9 *741:34 *741:46 42.5593 
10 *741:46 *741:60 48.7664 
11 *741:60 *741:72 33.4864 
12 *741:72 *741:74 62.6341 
13 *741:74 *741:88 42.36 
14 *741:88 *741:90 57.4299 
15 *741:90 *741:96 21.5085 
16 *741:96 *741:98 179.034 
17 *741:98 *741:108 46.8872 
18 *741:108 *741:112 19.6909 
19 *741:112 *741:116 44.0636 
20 *741:116 *741:120 18.2741 
21 *741:120 *741:122 64.235 
22 *741:122 *741:124 8 
23 *741:124 *741:126 72.2699 
24 *741:126 *741:132 42.7586 
25 *741:132 *741:140 44.5726 
26 *741:140 *741:154 47.9764 
27 *741:154 *741:160 25.3993 
28 *741:160 *741:162 52.9664 
29 *741:162 *741:168 45.9376 
30 *741:168 gpio_out[42] 6.39036 
*END

*D_NET *742 0.612245
*CONN
*P gpio_out[43] O
*I *921:gpio_out[43] O *D CF_CARAVEL_SOC
*CAP
1 gpio_out[43] 0.000150079
2 *921:gpio_out[43] 0
3 *742:120 0.00918605
4 *742:118 0.0203353
5 *742:114 0.0132784
6 *742:108 0.0216486
7 *742:106 0.0242741
8 *742:96 0.0181269
9 *742:94 0.0148908
10 *742:80 0.00573713
11 *742:64 0.00721194
12 *742:52 0.0118377
13 *742:46 0.0109014
14 *742:40 0.00201351
15 *742:34 0.0144825
16 *742:32 0.0154784
17 *742:24 0.00561214
18 *742:16 0.00595111
19 *742:6 0.0254087
20 *742:4 0.0239673
21 gpio_holdover[43] gpio_out[43] 0
22 *120:15 *742:120 0.00916923
23 *284:23 *742:120 0.000163309
24 *533:122 *742:106 0.000841277
25 *533:122 *742:108 0
26 *533:128 *742:106 0
27 *533:144 *742:80 0.00297069
28 *533:158 *742:64 0.00144608
29 *533:170 *742:52 0
30 *533:170 *742:64 0
31 *536:107 *742:80 0
32 *536:145 *742:34 0
33 *537:86 *742:94 0.000551962
34 *537:102 *742:64 0.000366587
35 *538:43 *742:120 0.00669723
36 *538:119 *742:64 0.000108949
37 *538:119 *742:80 0
38 *538:119 *742:94 0
39 *538:133 *742:64 0.000483609
40 *692:35 *742:120 0.00156864
41 *693:11 *742:6 0.000122949
42 *695:25 *742:32 0.000990969
43 *695:51 *742:80 0.000794495
44 *695:55 *742:94 5.06299e-05
45 *695:55 *742:96 0
46 *695:61 *742:114 0
47 *695:75 *742:120 0.0319183
48 *696:13 *742:24 7.16251e-05
49 *696:13 *742:32 0
50 *696:21 *742:32 0
51 *697:37 *742:46 0.000143258
52 *697:37 *742:52 3.57972e-05
53 *697:47 *742:52 0.00131096
54 *697:61 *742:64 0.00583028
55 *697:73 *742:80 0.00018317
56 *697:73 *742:94 0.00115065
57 *697:75 *742:94 0.000117159
58 *697:85 *742:96 0.000107068
59 *697:95 *742:108 0.00210474
60 *697:115 *742:120 0.00183558
61 *698:27 *742:120 0.00195706
62 *699:6 *742:6 0.00033531
63 *700:6 *742:6 0.110004
64 *740:21 *742:16 0.00042122
65 *741:6 *742:6 0.129015
66 *741:22 *742:16 0
67 *741:22 *742:24 0
68 *741:26 *742:46 0
69 *741:34 *742:52 0.000563137
70 *741:46 *742:64 0.000277518
71 *741:60 *742:64 0.00437902
72 *741:74 *742:80 0.00206715
73 *741:88 *742:106 0.00105482
74 *741:90 *742:106 0
75 *741:90 *742:108 0.00218471
76 *741:126 *742:120 0.0383592
*RES
1 *921:gpio_out[43] *742:4 8 
2 *742:4 *742:6 244.819 
3 *742:6 *742:16 43.6799 
4 *742:16 *742:24 40.3496 
5 *742:24 *742:32 30.1744 
6 *742:32 *742:34 57.9376 
7 *742:34 *742:40 16.2707 
8 *742:40 *742:46 47.4948 
9 *742:46 *742:52 49.5664 
10 *742:52 *742:64 43.0885 
11 *742:64 *742:80 44.1787 
12 *742:80 *742:94 30.6155 
13 *742:94 *742:96 54.6373 
14 *742:96 *742:106 36.7536 
15 *742:106 *742:108 79.3371 
16 *742:108 *742:114 21.208 
17 *742:114 *742:118 42.9627 
18 *742:118 *742:120 94.9816 
19 *742:120 gpio_out[43] 10.3925 
*END

*D_NET *743 0.782049
*CONN
*P gpio_out[4] O
*I *921:gpio_out[4] O *D CF_CARAVEL_SOC
*CAP
1 gpio_out[4] 0.00780673
2 *921:gpio_out[4] 0.000158759
3 *743:15 0.0141658
4 *743:13 0.00635911
5 *743:11 0.0341543
6 *743:9 0.034313
7 gpio_out[4] gpio_vtrip_sel[4] 0
8 gpio_holdover[4] gpio_out[4] 0
9 *92:11 *743:15 0.00356453
10 *161:15 *743:11 0.000355907
11 *170:17 gpio_out[4] 0.00012591
12 *436:23 *743:11 0.272311
13 *661:19 *743:15 0.0397732
14 *672:15 *743:15 0.0397749
15 *694:6 *743:11 0.00288881
16 *734:11 *743:11 0.0230169
17 *738:11 *743:11 0.272301
18 *739:6 *743:11 0.00142224
19 *740:11 *743:11 0.0295574
*RES
1 *921:gpio_out[4] *743:9 16.4604 
2 *743:9 *743:11 2907.31 
3 *743:11 *743:13 15 
4 *743:13 *743:15 508.111 
5 *743:15 gpio_out[4] 24.618 
*END

*D_NET *744 0.814176
*CONN
*P gpio_out[5] O
*I *921:gpio_out[5] O *D CF_CARAVEL_SOC
*CAP
1 gpio_out[5] 0.00793766
2 *921:gpio_out[5] 0.000354419
3 *744:15 0.0117023
4 *744:13 0.00376466
5 *744:11 0.0852941
6 *744:9 0.0856485
7 gpio_dm2[5] gpio_out[5] 0
8 gpio_holdover[5] gpio_out[5] 0.00141476
9 *95:17 *744:11 0.00259602
10 *107:25 *744:11 2.04785e-05
11 *112:25 *744:11 2.047e-05
12 *115:15 *744:11 0.0586134
13 *116:53 *744:11 0.000517899
14 *139:17 *744:11 0.000143738
15 *141:9 gpio_out[5] 0.000652042
16 *163:23 *744:11 0.0507762
17 *198:25 *744:11 9.57706e-06
18 *291:15 *744:11 0.0586134
19 *314:19 *744:15 0
20 *352:11 *744:15 0.00385086
21 *393:23 *744:11 0.00367247
22 *437:31 *744:11 0.101538
23 *534:15 *744:15 0.022541
24 *683:11 *744:11 0.00978378
25 *688:11 *744:11 0.238291
26 *699:10 *744:15 0.0220793
27 *700:10 *744:15 3.57673e-05
28 *701:11 *744:11 0.015751
29 *716:11 *744:11 0.00376085
30 *737:9 *744:11 0.0247928
*RES
1 *921:gpio_out[5] *744:9 14.1107 
2 *744:9 *744:11 516.201 
3 *744:11 *744:13 8 
4 *744:13 *744:15 288.198 
5 *744:15 gpio_out[5] 25.4636 
*END

*D_NET *745 0.6355
*CONN
*P gpio_out[6] O
*I *921:gpio_out[6] O *D CF_CARAVEL_SOC
*CAP
1 gpio_out[6] 0.00784569
2 *921:gpio_out[6] 0.000935742
3 *745:15 0.00897701
4 *745:13 0.00113132
5 *745:11 0.0483918
6 *745:9 0.0493276
7 gpio_out[6] *788:25 0.000227411
8 gpio_holdover[6] gpio_out[6] 0.000400566
9 *92:11 *745:15 0.00042352
10 *99:15 *745:11 0.0103898
11 *101:15 *745:11 0.00337791
12 *102:19 *745:15 0
13 *104:31 *745:11 0.0380912
14 *114:23 *745:11 0.00676222
15 *141:25 *745:11 0.0207571
16 *203:15 *745:11 0.0137362
17 *227:17 *745:11 0.00310634
18 *286:31 *745:11 0.0189497
19 *328:59 *745:11 0.00252978
20 *407:19 *745:11 0.00598657
21 *570:26 *745:15 0.00453529
22 *661:19 *745:15 0.00411232
23 *689:11 *745:11 0.130726
24 *691:11 *745:11 0.253731
25 *705:23 *745:11 0.00100137
26 *705:33 *745:11 4.62763e-05
*RES
1 *921:gpio_out[6] *745:9 23.2664 
2 *745:9 *745:11 511.306 
3 *745:11 *745:13 8 
4 *745:13 *745:15 59.305 
5 *745:15 gpio_out[6] 24.618 
*END

*D_NET *746 0.373703
*CONN
*P gpio_out[7] O
*I *921:gpio_out[7] O *D CF_CARAVEL_SOC
*CAP
1 gpio_out[7] 3.42919e-05
2 *921:gpio_out[7] 9.44698e-05
3 *746:13 0.147955
4 *746:11 0.147921
5 *746:9 0.0388016
6 *746:7 0.038896
7 *746:13 *834:15 0
8 gpio_dm2[7] *746:13 0
9 gpio_holdover[7] *746:13 0
10 *394:29 *746:13 0
*RES
1 *921:gpio_out[7] *746:7 1.86429 
2 *746:7 *746:9 867.121 
3 *746:9 *746:11 8 
4 *746:11 *746:13 521.28 
5 *746:13 gpio_out[7] 0.1316 
*END

*D_NET *747 0.355584
*CONN
*P gpio_out[8] O
*I *920:count[0] O *D counter_macro
*CAP
1 gpio_out[8] 0.00205568
2 *920:count[0] 1.36105e-05
3 *747:11 0.143546
4 *747:9 0.141491
5 *747:7 0.0279237
6 *747:5 0.0279373
7 gpio_analog_sel[8] *747:11 0
8 gpio_dm2[8] gpio_out[8] 6.90934e-05
9 gpio_holdover[8] gpio_out[8] 0.000238266
10 gpio_holdover[8] *747:11 0.0123099
11 *140:211 *747:11 0
12 *268:11 gpio_out[8] 0
13 *311:11 gpio_out[8] 0
*RES
1 *920:count[0] *747:5 0.310714 
2 *747:5 *747:7 631.185 
3 *747:7 *747:9 8 
4 *747:9 *747:11 511.134 
5 *747:11 gpio_out[8] 24.693 
*END

*D_NET *748 0.541903
*CONN
*P gpio_out[9] O
*I *920:count[1] O *D counter_macro
*CAP
1 gpio_out[9] 0.000108226
2 *920:count[1] 1.36105e-05
3 *748:11 0.09144
4 *748:9 0.0913317
5 *748:7 0.0383742
6 *748:5 0.0383878
7 *748:11 *836:15 0
8 gpio_holdover[9] *748:11 0.279735
9 *538:283 *748:11 0.00251258
*RES
1 *920:count[1] *748:5 0.310714 
2 *748:5 *748:7 867.825 
3 *748:7 *748:9 8 
4 *748:9 *748:11 512.779 
5 *748:11 gpio_out[9] 0.415333 
*END

*D_NET *749 0.627511
*CONN
*P gpio_slow_sel[0] O
*I *921:gpio_slow_sel[0] O *D CF_CARAVEL_SOC
*CAP
1 gpio_slow_sel[0] 0.00203533
2 *921:gpio_slow_sel[0] 0.0024635
3 *749:31 0.0105532
4 *749:29 0.00851785
5 *749:27 0.0985323
6 *749:25 0.0985323
7 *749:23 0.00119313
8 *749:21 0.00138051
9 *749:11 0.0205439
10 *749:9 0.02282
11 *749:9 *830:9 0
12 *749:9 *836:11 0.000227734
13 *749:11 *771:11 0.0778546
14 *749:11 *846:39 0
15 *749:21 *771:11 1.51355e-05
16 *749:21 *771:23 5.37854e-05
17 *749:21 *846:39 0
18 *749:23 *771:23 0.00134856
19 *749:23 *864:15 0
20 *119:15 *749:27 8.00368e-05
21 *119:23 *749:27 0.0180506
22 *120:11 *749:31 0
23 *167:19 *749:27 0.0191501
24 *207:39 *749:27 0.00303734
25 *208:21 *749:27 0.0186928
26 *289:23 *749:27 0.010393
27 *336:55 *749:27 0.0022124
28 *353:35 *749:31 0.000781978
29 *388:11 *749:23 0.00272815
30 *425:11 *749:11 0.00545817
31 *435:23 *749:27 0
32 *455:25 *749:27 0.0751166
33 *459:23 *749:23 2.26406e-05
34 *462:23 *749:27 0.012606
35 *464:21 *749:23 4.5745e-05
36 *464:23 *749:27 0.00116197
37 *468:27 *749:23 0.000122784
38 *471:11 *749:11 0
39 *481:15 *749:27 0
40 *529:13 *749:31 0.020223
41 *541:107 *749:21 4.67488e-05
42 *543:23 *749:11 0.00398609
43 *544:13 *749:27 0
44 *553:13 *749:27 0
45 *571:27 *749:27 0.0522717
46 *737:73 *749:11 0.035251
*RES
1 *921:gpio_slow_sel[0] *749:9 13.7643 
2 *749:9 *749:11 990.371 
3 *749:11 *749:21 33.0968 
4 *749:21 *749:23 37.12 
5 *749:23 *749:25 15 
6 *749:25 *749:27 3158.87 
7 *749:27 *749:29 15 
8 *749:29 *749:31 287.67 
9 *749:31 gpio_slow_sel[0] 12.5351 
*END

*D_NET *750 0.758532
*CONN
*P gpio_slow_sel[10] O
*I *921:gpio_slow_sel[10] O *D CF_CARAVEL_SOC
*CAP
1 gpio_slow_sel[10] 0.00016465
2 *921:gpio_slow_sel[10] 0.000859085
3 *750:15 0.160638
4 *750:13 0.160474
5 *750:11 0.0683267
6 *750:9 0.0691858
7 *750:9 *751:9 0
8 *750:9 *792:9 0
9 *750:9 *836:11 0.000227734
10 *750:11 *752:11 0.17046
11 *750:11 *784:9 0
12 *750:11 *786:11 0.0178032
13 *750:11 *794:11 0
14 gpio_dm1[10] *750:15 0
15 *116:67 *750:11 0.0159009
16 *399:19 *750:11 0.048026
17 *400:17 *750:9 0
18 *400:19 *750:11 0.0235871
19 *403:11 *750:11 0.00269245
20 *405:11 *750:11 0.0197402
21 *406:11 *750:11 0.000233898
22 *407:11 *750:11 0.000212446
*RES
1 *921:gpio_slow_sel[10] *750:9 10.2008 
2 *750:9 *750:11 396.977 
3 *750:11 *750:13 8 
4 *750:13 *750:15 569.58 
5 *750:15 gpio_slow_sel[10] 0.631867 
*END

*D_NET *751 0.769844
*CONN
*P gpio_slow_sel[11] O
*I *921:gpio_slow_sel[11] O *D CF_CARAVEL_SOC
*CAP
1 gpio_slow_sel[11] 6.15309e-05
2 *921:gpio_slow_sel[11] 0.00196831
3 *751:15 0.16094
4 *751:13 0.160879
5 *751:11 0.0285636
6 *751:9 0.0305319
7 *751:11 *797:19 0.1911
8 *751:11 *819:11 0.00233914
9 *161:19 *751:11 0.00262508
10 *354:11 *751:11 0.00028502
11 *356:11 *751:11 0.166318
12 *449:29 *751:11 0.0242322
13 *750:9 *751:9 0
*RES
1 *921:gpio_slow_sel[11] *751:9 12.5659 
2 *751:9 *751:11 2432.04 
3 *751:11 *751:13 8 
4 *751:13 *751:15 572.199 
5 *751:15 gpio_slow_sel[11] 0.236133 
*END

*D_NET *752 0.754316
*CONN
*P gpio_slow_sel[12] O
*I *921:gpio_slow_sel[12] O *D CF_CARAVEL_SOC
*CAP
1 gpio_slow_sel[12] 0.000248172
2 *921:gpio_slow_sel[12] 0.000805942
3 *752:15 0.155758
4 *752:13 0.15551
5 *752:11 0.0914023
6 *752:9 0.0922082
7 *752:9 *753:9 0
8 *752:9 *836:11 0.000227734
9 *752:11 *756:6 0
10 *752:11 *758:9 0
11 *752:11 *784:9 0
12 *752:11 *794:11 0
13 *752:11 *836:11 0
14 *140:279 *752:15 0.00107496
15 *160:27 *752:11 0.00347621
16 *399:19 *752:11 0.00679676
17 *400:19 *752:11 0.00931435
18 *401:11 *752:11 0.0390984
19 *444:9 *752:15 0
20 *450:13 *752:11 0.0278226
21 *541:119 *752:11 0.000112617
22 *750:11 *752:11 0.17046
*RES
1 *921:gpio_slow_sel[12] *752:9 10.0291 
2 *752:9 *752:11 478.087 
3 *752:11 *752:13 8 
4 *752:13 *752:15 569.408 
5 *752:15 gpio_slow_sel[12] 0.9828 
*END

*D_NET *753 1.16888
*CONN
*P gpio_slow_sel[13] O
*I *921:gpio_slow_sel[13] O *D CF_CARAVEL_SOC
*CAP
1 gpio_slow_sel[13] 0.00908177
2 *921:gpio_slow_sel[13] 0.00417982
3 *753:19 0.0753323
4 *753:17 0.0662505
5 *753:15 0.0362348
6 *753:13 0.0362348
7 *753:11 0.0101335
8 *753:9 0.0143133
9 *753:9 *754:9 0
10 *753:11 *768:11 0.000657273
11 *753:11 *803:11 0.0549185
12 *753:15 *754:23 0.278923
13 *753:15 *757:15 0.0171024
14 *753:15 *761:15 0.0191303
15 *753:19 *754:27 0.188541
16 *140:75 *753:19 0.000651038
17 *157:39 *753:19 0.00826636
18 *195:31 *753:19 0.00853335
19 *202:27 *753:15 0.0363764
20 *365:11 *753:11 0
21 *399:17 *753:9 2.87638e-05
22 *420:11 *753:11 0.00959801
23 *440:31 *753:15 0.247671
24 *445:9 gpio_slow_sel[13] 0
25 *469:11 *753:11 0.00763229
26 *688:15 *753:11 0.0326697
27 *733:10 *753:11 0.00641569
28 *752:9 *753:9 0
*RES
1 *921:gpio_slow_sel[13] *753:9 17.6357 
2 *753:9 *753:11 717.988 
3 *753:11 *753:13 15 
4 *753:13 *753:15 3058.82 
5 *753:15 *753:17 15 
6 *753:17 *753:19 2395.24 
7 *753:19 gpio_slow_sel[13] 34.7185 
*END

*D_NET *754 1.07568
*CONN
*P gpio_slow_sel[14] O
*I *921:gpio_slow_sel[14] O *D CF_CARAVEL_SOC
*CAP
1 gpio_slow_sel[14] 0.00880259
2 *921:gpio_slow_sel[14] 0.00725782
3 *754:27 0.0955008
4 *754:25 0.0866983
5 *754:23 0.090209
6 *754:21 0.0931975
7 *754:11 0.0137176
8 *754:9 0.0179869
9 *754:11 *773:11 0.00168213
10 *754:11 *802:11 0.0538119
11 *754:21 *757:11 0
12 *754:23 *761:15 0.0163966
13 gpio_dm1[14] gpio_slow_sel[14] 0
14 *157:39 *754:27 0.0105119
15 *162:27 *754:11 0.0511178
16 *195:31 *754:27 0.0161637
17 *202:27 *754:23 0.0422172
18 *290:15 *754:21 0
19 *362:11 *754:21 0.000519816
20 *369:17 *754:21 0.000435629
21 *394:19 *754:27 0
22 *396:11 *754:11 0.000221072
23 *440:23 *754:21 0.000916178
24 *472:25 *754:11 0.000125151
25 *730:19 *754:21 0.000728248
26 *753:9 *754:9 0
27 *753:15 *754:23 0.278923
28 *753:19 *754:27 0.188541
*RES
1 *921:gpio_slow_sel[14] *754:9 23.904 
2 *754:9 *754:11 704.431 
3 *754:11 *754:21 44.9371 
4 *754:21 *754:23 3055 
5 *754:23 *754:25 15 
6 *754:25 *754:27 2859.02 
7 *754:27 gpio_slow_sel[14] 34.4087 
*END

*D_NET *755 0.800279
*CONN
*P gpio_slow_sel[15] O
*I *921:gpio_slow_sel[15] O *D CF_CARAVEL_SOC
*CAP
1 gpio_slow_sel[15] 9.49606e-05
2 *921:gpio_slow_sel[15] 0.00326742
3 *755:19 0.135408
4 *755:17 0.135313
5 *755:15 0.142943
6 *755:13 0.142943
7 *755:11 0.00903825
8 *755:9 0.0123057
9 *755:9 *836:11 0.000227734
10 *755:15 *757:15 0
11 *292:27 *755:11 0.00250081
12 *322:309 *755:11 0.0107311
13 *357:15 *755:11 0.000746181
14 *361:11 *755:11 0.00307603
15 *370:11 *755:11 0.00256014
16 *394:15 *755:15 0.105789
17 *438:19 *755:11 0.0545978
18 *440:31 *755:15 0
19 *555:17 *755:11 0.0387387
*RES
1 *921:gpio_slow_sel[15] *755:9 15.3957 
2 *755:9 *755:11 697.916 
3 *755:11 *755:13 15 
4 *755:13 *755:15 3001.65 
5 *755:15 *755:17 15 
6 *755:17 *755:19 3073.82 
7 *755:19 gpio_slow_sel[15] 1.86429 
*END

*D_NET *756 0.730484
*CONN
*P gpio_slow_sel[16] O
*I *921:gpio_slow_sel[16] O *D CF_CARAVEL_SOC
*CAP
1 gpio_slow_sel[16] 0.00891469
2 *921:gpio_slow_sel[16] 0
3 *756:12 0.00891469
4 *756:10 0.114234
5 *756:8 0.114234
6 *756:6 0.127046
7 *756:4 0.127046
8 *756:6 *764:9 0.000364411
9 *756:6 *766:9 0.000364411
10 *756:6 *836:11 0.154545
11 *206:51 *756:6 0.00205849
12 *364:17 *756:6 0.000364411
13 *370:9 *756:6 0.000287215
14 *371:9 *756:6 0.000210019
15 *376:9 *756:6 0.000364411
16 *382:9 *756:6 0.000364411
17 *386:9 *756:6 0.000364411
18 *388:9 *756:6 0.000287215
19 *389:9 *756:6 0.000287215
20 *453:17 *756:6 0.0129729
21 *454:33 *756:6 0.0103174
22 *538:363 *756:10 0
23 *542:47 *756:6 0.0308665
24 *543:39 *756:6 0
25 *721:13 *756:10 0.01566
26 *737:27 *756:6 0.000417843
27 *752:11 *756:6 0
*RES
1 *921:gpio_slow_sel[16] *756:4 8 
2 *756:4 *756:6 642.783 
3 *756:6 *756:8 8 
4 *756:8 *756:10 439.221 
5 *756:10 *756:12 8 
6 *756:12 gpio_slow_sel[16] 202.907 
*END

*D_NET *757 0.908682
*CONN
*P gpio_slow_sel[17] O
*I *921:gpio_slow_sel[17] O *D CF_CARAVEL_SOC
*CAP
1 gpio_slow_sel[17] 0.000943363
2 *921:gpio_slow_sel[17] 0.00358547
3 *757:19 0.0861115
4 *757:17 0.0851682
5 *757:15 0.0660045
6 *757:13 0.0660045
7 *757:11 0.01009
8 *757:9 0.0136754
9 *757:9 *758:7 0
10 *757:11 *765:11 0.0469108
11 *757:15 *759:15 0.0181188
12 gpio_analog_en[17] *757:19 0.2416
13 gpio_ib_mode_sel[35] *757:9 0.000489397
14 *202:27 *757:15 0.00363859
15 *293:27 *757:11 0
16 *334:36 *757:15 0.0155339
17 *362:11 *757:11 0
18 *384:11 *757:11 0
19 *414:11 *757:11 0.00908917
20 *415:11 *757:11 0.053947
21 *440:31 *757:15 0.170655
22 *537:250 gpio_slow_sel[17] 0
23 *737:71 *757:9 1.38221e-05
24 *753:15 *757:15 0.0171024
25 *754:21 *757:11 0
26 *755:15 *757:15 0
*RES
1 *921:gpio_slow_sel[17] *757:9 16.5195 
2 *757:9 *757:11 689.112 
3 *757:11 *757:13 15 
4 *757:13 *757:15 2201.72 
5 *757:15 *757:17 15 
6 *757:17 *757:19 3069.77 
7 *757:19 gpio_slow_sel[17] 48.4564 
*END

*D_NET *758 0.603172
*CONN
*P gpio_slow_sel[18] O
*I *921:gpio_slow_sel[18] O *D CF_CARAVEL_SOC
*CAP
1 gpio_slow_sel[18] 0.11349
2 *921:gpio_slow_sel[18] 0.000283993
3 *758:15 0.11349
4 *758:13 0.0793097
5 *758:11 0.0793097
6 *758:9 0.0360983
7 *758:7 0.0363823
8 *758:9 *784:9 0.0125002
9 *758:9 *831:27 0.00218828
10 *758:9 *836:11 0.0445982
11 *160:27 *758:9 0.0292188
12 *274:345 gpio_slow_sel[18] 0
13 *278:15 *758:13 0
14 *279:15 *758:13 0
15 *449:13 *758:9 0.00795642
16 *453:17 *758:9 0.0101173
17 *538:395 gpio_slow_sel[18] 0
18 *542:39 *758:9 0.00273872
19 *675:11 *758:13 0.0354914
20 *676:11 *758:13 0
21 *752:11 *758:9 0
22 *757:9 *758:7 0
*RES
1 *921:gpio_slow_sel[18] *758:7 8.5432 
2 *758:7 *758:9 212.733 
3 *758:9 *758:11 8 
4 *758:11 *758:13 308.704 
5 *758:13 *758:15 8 
6 *758:15 gpio_slow_sel[18] 2574.94 
*END

*D_NET *759 0.719571
*CONN
*P gpio_slow_sel[19] O
*I *921:gpio_slow_sel[19] O *D CF_CARAVEL_SOC
*CAP
1 gpio_slow_sel[19] 0.00198215
2 *921:gpio_slow_sel[19] 0.00539326
3 *759:19 0.100256
4 *759:17 0.0982743
5 *759:15 0.018893
6 *759:13 0.018893
7 *759:11 0.0106688
8 *759:9 0.0160621
9 *759:9 *761:9 0
10 *759:11 *774:11 0.00388817
11 *759:11 *779:11 0.00982308
12 *759:11 *788:11 0.0496928
13 *759:15 *761:15 0.096535
14 gpio_analog_en[19] *759:19 0
15 gpio_analog_pol[19] *759:19 0
16 gpio_dm0[19] *759:19 0.0849924
17 gpio_out[35] *759:9 0.000206179
18 *202:27 *759:15 0.0131998
19 *334:36 *759:15 0.0865466
20 *361:33 *759:15 0.0174401
21 *367:11 *759:11 0.000745486
22 *394:11 *759:11 0.0345592
23 *394:15 *759:15 0.000131346
24 *395:23 *759:15 0.000597659
25 *438:23 *759:15 0.0170635
26 *440:31 *759:15 0.0156072
27 *757:15 *759:15 0.0181188
*RES
1 *921:gpio_slow_sel[19] *759:9 20.04 
2 *759:9 *759:11 674.851 
3 *759:11 *759:13 8 
4 *759:13 *759:15 221.334 
5 *759:15 *759:17 8 
6 *759:17 *759:19 3060.27 
7 *759:19 gpio_slow_sel[19] 32.4979 
*END

*D_NET *760 0.930987
*CONN
*P gpio_slow_sel[1] O
*I *921:gpio_slow_sel[1] O *D CF_CARAVEL_SOC
*CAP
1 gpio_slow_sel[1] 0.00340792
2 *921:gpio_slow_sel[1] 0.00378243
3 *760:35 0.0191596
4 *760:33 0.0157516
5 *760:31 0.013256
6 *760:29 0.0140034
7 *760:23 0.031838
8 *760:21 0.0324316
9 *760:11 0.0134044
10 *760:9 0.0158459
11 *760:9 *771:9 0.000301177
12 *760:11 *821:13 0.000589128
13 *760:11 *832:15 0.00301819
14 *760:21 *785:15 1.4029e-05
15 *760:21 *837:15 0.000320055
16 *760:21 *845:25 0.00025755
17 *760:21 *852:25 0.000626078
18 *760:31 *849:11 0.0162343
19 *760:35 *804:27 0.00147538
20 *164:43 *760:23 0.0100534
21 *168:11 *760:35 0
22 *249:25 *760:21 0.00116352
23 *293:27 *760:11 0.080182
24 *294:23 *760:23 0.00335739
25 *295:25 *760:21 5.91252e-05
26 *295:27 *760:11 0.0081674
27 *322:139 *760:29 2.54821e-05
28 *336:47 *760:31 0.00772642
29 *339:23 *760:23 0.026597
30 *353:31 *760:31 0.096827
31 *384:11 *760:11 0.0808717
32 *389:21 *760:21 0.00145868
33 *389:23 *760:23 0.196361
34 *390:21 *760:21 0.000621352
35 *390:23 *760:23 0.109671
36 *408:101 *760:35 0.0378685
37 *435:23 *760:31 0.000302653
38 *539:15 *760:29 0
39 *542:11 *760:31 0.000364883
40 *552:25 *760:11 0
41 *570:22 *760:31 0.0835919
42 *740:167 *760:29 0
*RES
1 *921:gpio_slow_sel[1] *760:9 17.2064 
2 *760:9 *760:11 1028.4 
3 *760:11 *760:21 41.5276 
4 *760:21 *760:23 2097.38 
5 *760:23 *760:29 40.7093 
6 *760:29 *760:31 1034.95 
7 *760:31 *760:33 15 
8 *760:33 *760:35 526.422 
9 *760:35 gpio_slow_sel[1] 15.2007 
*END

*D_NET *761 0.670576
*CONN
*P gpio_slow_sel[20] O
*I *921:gpio_slow_sel[20] O *D CF_CARAVEL_SOC
*CAP
1 gpio_slow_sel[20] 0.000133729
2 *921:gpio_slow_sel[20] 0.00672464
3 *761:19 0.135534
4 *761:17 0.1354
5 *761:15 0.0149849
6 *761:13 0.0149849
7 *761:11 0.00937953
8 *761:9 0.0161042
9 *761:9 *762:9 0
10 *761:11 *813:11 0.000374166
11 *761:11 *814:11 0.00843089
12 *761:11 *816:11 0.035138
13 *761:11 *873:49 0.0323291
14 gpio_analog_sel[35] *761:9 0
15 gpio_out[35] *761:9 0
16 *202:27 *761:15 0.0978743
17 *361:33 *761:15 0.0115165
18 *394:15 *761:15 3.4915e-06
19 *422:11 *761:11 0.00873095
20 *422:27 *761:11 0.000820687
21 *546:25 *761:11 0.0100492
22 *723:9 *761:19 0
23 *725:15 *761:19 0
24 *730:19 *761:15 0
25 *753:15 *761:15 0.0191303
26 *754:23 *761:15 0.0163966
27 *759:9 *761:9 0
28 *759:15 *761:15 0.096535
*RES
1 *921:gpio_slow_sel[20] *761:9 22.7019 
2 *761:9 *761:11 668.512 
3 *761:11 *761:13 8 
4 *761:13 *761:15 179.517 
5 *761:15 *761:17 8 
6 *761:17 *761:19 3070.83 
7 *761:19 gpio_slow_sel[20] 1.86429 
*END

*D_NET *762 0.519144
*CONN
*P gpio_slow_sel[21] O
*I *921:gpio_slow_sel[21] O *D CF_CARAVEL_SOC
*CAP
1 gpio_slow_sel[21] 0.00102524
2 *921:gpio_slow_sel[21] 0.00509688
3 *762:15 0.0136081
4 *762:13 0.0125829
5 *762:11 0.155356
6 *762:9 0.160453
7 *762:9 *763:9 0
8 *762:11 *770:11 0
9 *365:11 *762:11 0
10 *365:15 *762:15 0.0672159
11 *366:15 *762:15 0.000738457
12 *367:11 *762:11 0
13 *404:23 *762:15 0.000107674
14 *409:15 *762:15 0.000183222
15 *410:15 *762:15 0.061846
16 *411:11 *762:11 0
17 *440:19 *762:11 0
18 *689:15 *762:11 0.000406472
19 *734:15 *762:11 0.00768145
20 *736:39 *762:11 0.0328426
21 *761:9 *762:9 0
*RES
1 *921:gpio_slow_sel[21] *762:9 19.2672 
2 *762:9 *762:11 3711.73 
3 *762:11 *762:13 8 
4 *762:13 *762:15 128.083 
5 *762:15 gpio_slow_sel[21] 30.4336 
*END

*D_NET *763 0.622455
*CONN
*P gpio_slow_sel[22] O
*I *921:gpio_slow_sel[22] O *D CF_CARAVEL_SOC
*CAP
1 gpio_slow_sel[22] 0.000126872
2 *921:gpio_slow_sel[22] 0.00588408
3 *763:15 0.00821316
4 *763:13 0.00808629
5 *763:11 0.104212
6 *763:9 0.110096
7 *763:11 *775:11 0
8 gpio_ib_mode_sel[23] *763:15 0.000358083
9 *359:15 *763:15 0.0407423
10 *363:17 *763:15 5.10636e-05
11 *363:19 *763:15 0.000745571
12 *366:11 *763:11 0.267872
13 *367:15 *763:15 0.0399191
14 *372:11 *763:11 0
15 *392:11 *763:11 0
16 *446:19 *763:11 0
17 *450:9 *763:15 0.00589056
18 *451:9 *763:15 0.014032
19 *454:39 *763:9 0.000203838
20 *455:21 *763:11 0.00858068
21 *693:79 *763:11 0.000245476
22 *737:57 *763:11 0.00719611
23 *762:9 *763:9 0
*RES
1 *921:gpio_slow_sel[22] *763:9 20.9845 
2 *763:9 *763:11 3725.11 
3 *763:11 *763:13 8 
4 *763:13 *763:15 81.8869 
5 *763:15 gpio_slow_sel[22] 9.48107 
*END

*D_NET *764 0.408411
*CONN
*P gpio_slow_sel[23] O
*I *921:gpio_slow_sel[23] O *D CF_CARAVEL_SOC
*CAP
1 gpio_slow_sel[23] 0.00229409
2 *921:gpio_slow_sel[23] 0.00118449
3 *764:23 0.136908
4 *764:21 0.137299
5 *764:17 0.00445858
6 *764:11 0.0108423
7 *764:9 0.010254
8 *764:9 *765:9 0
9 *764:11 *786:11 0.000493813
10 *764:11 *796:11 0
11 *764:17 *796:11 0
12 *764:21 *782:15 0.00359033
13 *116:67 *764:11 0.00449672
14 *116:67 *764:17 0.000183075
15 *193:57 *764:21 0.000350108
16 *322:401 *764:23 0.00217686
17 *406:17 *764:17 0.000115424
18 *407:11 *764:11 0.0443765
19 *407:11 *764:17 0.00088679
20 *454:25 *764:11 0.025382
21 *454:39 *764:9 0
22 *539:271 *764:23 0
23 *542:31 *764:11 0.00909795
24 *689:11 *764:21 0.0126207
25 *705:23 *764:21 0.00103554
26 *756:6 *764:9 0.000364411
*RES
1 *921:gpio_slow_sel[23] *764:9 10.5872 
2 *764:9 *764:11 566.577 
3 *764:11 *764:17 49.905 
4 *764:17 *764:21 31.1541 
5 *764:21 *764:23 3061.03 
6 *764:23 gpio_slow_sel[23] 49.8489 
*END

*D_NET *765 0.541601
*CONN
*P gpio_slow_sel[24] O
*I *921:gpio_slow_sel[24] O *D CF_CARAVEL_SOC
*CAP
1 gpio_slow_sel[24] 0.00622409
2 *921:gpio_slow_sel[24] 0.00365176
3 *765:19 0.100242
4 *765:17 0.0940842
5 *765:11 0.01724
6 *765:9 0.020825
7 *765:17 *832:37 0.000277277
8 *765:19 *768:19 0.00828582
9 gpio_analog_pol[35] *765:9 0.000427924
10 *205:53 *765:17 0.000283106
11 *281:31 gpio_slow_sel[24] 0
12 *362:11 *765:11 0
13 *362:11 *765:19 0.0458762
14 *368:11 *765:19 0.0652661
15 *373:11 *765:19 0.0606728
16 *384:11 *765:11 0
17 *414:11 *765:11 0.00830287
18 *414:11 *765:19 0.0630318
19 *457:9 gpio_slow_sel[24] 0
20 *737:39 *765:11 0
21 *757:11 *765:11 0.0469108
22 *764:9 *765:9 0
*RES
1 *921:gpio_slow_sel[24] *765:9 16.6053 
2 *765:9 *765:11 598.788 
3 *765:11 *765:17 16.5283 
4 *765:17 *765:19 534.699 
5 *765:19 gpio_slow_sel[24] 22.5964 
*END

*D_NET *766 0.39132
*CONN
*P gpio_slow_sel[25] O
*I *921:gpio_slow_sel[25] O *D CF_CARAVEL_SOC
*CAP
1 gpio_slow_sel[25] 0.00739946
2 *921:gpio_slow_sel[25] 0.00295843
3 *766:11 0.0693596
4 *766:9 0.0649186
5 *766:9 *767:17 0
6 *282:15 gpio_slow_sel[25] 0
7 *361:11 *766:11 0
8 *371:11 *766:11 0.0302434
9 *375:19 *766:11 0.00122567
10 *413:19 *766:11 0.0651945
11 *418:11 *766:11 0.133869
12 *423:11 *766:11 0.00353288
13 *458:9 gpio_slow_sel[25] 0
14 *468:11 *766:11 0.00180105
15 *543:31 *766:11 0.00592045
16 *687:19 *766:11 0.00189586
17 *737:65 *766:11 0.00263654
18 *756:6 *766:9 0.000364411
*RES
1 *921:gpio_slow_sel[25] *766:9 14.4941 
2 *766:9 *766:11 482.149 
3 *766:11 gpio_slow_sel[25] 25.9863 
*END

*D_NET *767 0.393222
*CONN
*P gpio_slow_sel[26] O
*I *921:gpio_slow_sel[26] O *D CF_CARAVEL_SOC
*CAP
1 gpio_slow_sel[26] 0.00211334
2 *921:gpio_slow_sel[26] 0.00933848
3 *767:19 0.187124
4 *767:17 0.194349
5 *767:17 *768:9 0
6 *767:17 *777:15 0
7 *767:17 *789:17 0
8 *284:51 *767:17 0.00024505
9 *410:11 *767:17 0
10 *469:9 *767:17 5.10545e-05
11 *766:9 *767:17 0
*RES
1 *921:gpio_slow_sel[26] *767:17 49.5777 
2 *767:17 *767:19 440.388 
3 *767:19 gpio_slow_sel[26] 12.3596 
*END

*D_NET *768 0.335495
*CONN
*P gpio_slow_sel[27] O
*I *921:gpio_slow_sel[27] O *D CF_CARAVEL_SOC
*CAP
1 gpio_slow_sel[27] 0.00631207
2 *921:gpio_slow_sel[27] 0.00400199
3 *768:19 0.0339752
4 *768:17 0.0277492
5 *768:11 0.0357936
6 *768:9 0.0397094
7 *768:9 *769:9 0
8 *768:9 *777:15 0.000430012
9 *768:11 *803:11 0.0471926
10 gpio_ib_mode_sel[30] *768:19 7.51663e-05
11 *368:11 *768:11 0.0260237
12 *373:11 *768:11 0.00137579
13 *373:11 *768:19 0.0363593
14 *420:11 *768:11 0.0289122
15 *456:27 *768:11 0.0320997
16 *684:21 *768:17 0
17 *736:23 *768:11 0.00654172
18 *753:11 *768:11 0.000657273
19 *765:19 *768:19 0.00828582
20 *767:17 *768:9 0
*RES
1 *921:gpio_slow_sel[27] *768:9 17.464 
2 *768:9 *768:11 1484.78 
3 *768:11 *768:17 16.1848 
4 *768:17 *768:19 132.067 
5 *768:19 gpio_slow_sel[27] 22.1036 
*END

*D_NET *769 0.327961
*CONN
*P gpio_slow_sel[28] O
*I *921:gpio_slow_sel[28] O *D CF_CARAVEL_SOC
*CAP
1 gpio_slow_sel[28] 0.00464705
2 *921:gpio_slow_sel[28] 0.0064102
3 *769:11 0.0559399
4 *769:9 0.0577031
5 *769:9 *770:9 0
6 *769:11 *817:11 0.0981313
7 gpio_dm2[31] *769:11 0.000440025
8 gpio_holdover[33] *769:11 0.000243747
9 *205:65 *769:11 0
10 *369:19 *769:11 0.000217903
11 *369:23 *769:11 0.00229114
12 *417:19 *769:11 0.0686359
13 *422:11 *769:11 0
14 *437:11 *769:11 0.000410021
15 *437:19 *769:11 0.0079446
16 *457:11 *769:11 0.0249458
17 *768:9 *769:9 0
*RES
1 *921:gpio_slow_sel[28] *769:9 21.7144 
2 *769:9 *769:11 358.008 
3 *769:11 gpio_slow_sel[28] 18.0268 
*END

*D_NET *770 0.24732
*CONN
*P gpio_slow_sel[29] O
*I *921:gpio_slow_sel[29] O *D CF_CARAVEL_SOC
*CAP
1 gpio_slow_sel[29] 0.00570986
2 *921:gpio_slow_sel[29] 0.00483679
3 *770:19 0.0375389
4 *770:17 0.0321824
5 *770:11 0.0334131
6 *770:9 0.0378966
7 *770:9 *772:9 0
8 gpio_holdover[31] *770:17 2.79505e-05
9 *201:15 *770:17 0
10 *245:15 *770:17 0
11 *365:11 *770:11 0.0152988
12 *387:11 *770:11 0.0122199
13 *395:19 *770:11 0.0218065
14 *440:19 *770:11 0.0463891
15 *762:11 *770:11 0
16 *769:9 *770:9 0
*RES
1 *921:gpio_slow_sel[29] *770:9 18.752 
2 *770:9 *770:11 1263.63 
3 *770:11 *770:17 16.7859 
4 *770:17 *770:19 88.9093 
5 *770:19 gpio_slow_sel[29] 20.0503 
*END

*D_NET *771 0.814554
*CONN
*P gpio_slow_sel[2] O
*I *921:gpio_slow_sel[2] O *D CF_CARAVEL_SOC
*CAP
1 gpio_slow_sel[2] 0.00469527
2 *921:gpio_slow_sel[2] 0.00237457
3 *771:31 0.0216348
4 *771:29 0.0169395
5 *771:27 0.0695481
6 *771:25 0.0695481
7 *771:23 0.00112641
8 *771:11 0.0129028
9 *771:9 0.0141509
10 *771:9 *836:11 0.000227734
11 *771:23 *829:27 0.000157633
12 *771:23 *846:39 0
13 *771:23 *864:15 0
14 *771:23 *865:15 0
15 *771:27 *842:11 0.0354853
16 gpio_dm1[2] gpio_slow_sel[2] 0
17 *121:15 *771:27 0.00838702
18 *133:11 *771:31 0.00110895
19 *165:15 *771:27 0
20 *169:11 *771:31 0
21 *170:23 *771:27 0.0116423
22 *222:11 *771:31 0.000606296
23 *224:19 *771:31 0.00899216
24 *257:15 *771:27 0.00377409
25 *292:25 *771:23 0.000247781
26 *293:25 *771:23 0.000728054
27 *296:15 *771:27 0.0233212
28 *303:11 *771:31 0.00418621
29 *322:75 *771:27 0
30 *339:15 *771:27 2.37424e-05
31 *382:11 *771:11 0.000924914
32 *388:11 *771:11 0.0790053
33 *388:11 *771:23 1.26108e-05
34 *425:11 *771:11 0.00425554
35 *434:23 *771:27 0
36 *435:27 *771:31 0.0582845
37 *450:33 *771:27 0.0305214
38 *456:31 *771:27 0.00808647
39 *468:29 *771:27 0.00384778
40 *469:15 *771:23 0.000724936
41 *470:15 *771:27 0.0161685
42 *474:15 *771:27 0
43 *543:11 *771:27 0.215498
44 *543:23 *771:11 0.00528008
45 *550:21 *771:23 0
46 *737:73 *771:11 0.000561541
47 *749:11 *771:11 0.0778546
48 *749:21 *771:11 1.51355e-05
49 *749:21 *771:23 5.37854e-05
50 *749:23 *771:23 0.00134856
51 *760:9 *771:9 0.000301177
*RES
1 *921:gpio_slow_sel[2] *771:9 13.8501 
2 *771:9 *771:11 1005.16 
3 *771:11 *771:23 41.4067 
4 *771:23 *771:25 15 
5 *771:25 *771:27 3120.75 
6 *771:27 *771:29 15 
7 *771:29 *771:31 741.582 
8 *771:31 gpio_slow_sel[2] 17.7207 
*END

*D_NET *772 0.257502
*CONN
*P gpio_slow_sel[30] O
*I *921:gpio_slow_sel[30] O *D CF_CARAVEL_SOC
*CAP
1 gpio_slow_sel[30] 0.00319839
2 *921:gpio_slow_sel[30] 0.00815359
3 *772:11 0.0400544
4 *772:9 0.0450096
5 *772:9 *773:9 0
6 *392:19 *772:11 0.00034107
7 *402:11 *772:11 0
8 *464:11 *772:11 0.118393
9 *690:23 *772:11 0.0423522
10 *770:9 *772:9 0
*RES
1 *921:gpio_slow_sel[30] *772:9 25.192 
2 *772:9 *772:11 1524.92 
3 *772:11 gpio_slow_sel[30] 14.5119 
*END

*D_NET *773 0.226116
*CONN
*P gpio_slow_sel[31] O
*I *921:gpio_slow_sel[31] O *D CF_CARAVEL_SOC
*CAP
1 gpio_slow_sel[31] 0.00378954
2 *921:gpio_slow_sel[31] 0.00757159
3 *773:11 0.0335026
4 *773:9 0.0372846
5 *773:9 *774:9 0
6 *162:27 *773:11 0.0418448
7 *396:11 *773:11 0
8 *465:11 *773:11 0.100441
9 *754:11 *773:11 0.00168213
10 *772:9 *773:9 0
*RES
1 *921:gpio_slow_sel[31] *773:9 24.0757 
2 *773:9 *773:11 1293.92 
3 *773:11 gpio_slow_sel[31] 15.6729 
*END

*D_NET *774 0.13158
*CONN
*P gpio_slow_sel[32] O
*I *921:gpio_slow_sel[32] O *D CF_CARAVEL_SOC
*CAP
1 gpio_slow_sel[32] 0.00554279
2 *921:gpio_slow_sel[32] 0.00564938
3 *774:11 0.0161085
4 *774:9 0.0162151
5 *774:9 *775:9 0
6 *774:11 *775:11 0.00168524
7 *774:11 *779:11 0.00274289
8 *367:11 *774:11 0
9 *372:11 *774:11 0.0272931
10 *394:11 *774:11 0.0345636
11 *446:19 *774:11 0.0178914
12 *759:11 *774:11 0.00388817
13 *773:9 *774:9 0
*RES
1 *921:gpio_slow_sel[32] *774:9 20.2117 
2 *774:9 *774:11 627.664 
3 *774:11 gpio_slow_sel[32] 19.2532 
*END

*D_NET *775 0.0835983
*CONN
*P gpio_slow_sel[33] O
*I *921:gpio_slow_sel[33] O *D CF_CARAVEL_SOC
*CAP
1 gpio_slow_sel[33] 0.00605432
2 *921:gpio_slow_sel[33] 0.00576197
3 *775:11 0.0155753
4 *775:9 0.015283
5 *775:9 *776:9 0
6 gpio_analog_en[33] gpio_slow_sel[33] 0
7 gpio_dm1[33] gpio_slow_sel[33] 6.56381e-05
8 *372:11 *775:11 0.00937046
9 *392:11 *775:11 0.0113525
10 *446:19 *775:11 0.0173446
11 *455:19 gpio_slow_sel[33] 0.000411317
12 *553:25 gpio_slow_sel[33] 0.000693942
13 *763:11 *775:11 0
14 *774:9 *775:9 0
15 *774:11 *775:11 0.00168524
*RES
1 *921:gpio_slow_sel[33] *775:9 20.3835 
2 *775:9 *775:11 388.911 
3 *775:11 gpio_slow_sel[33] 43.9651 
*END

*D_NET *776 0.053643
*CONN
*P gpio_slow_sel[34] O
*I *921:gpio_slow_sel[34] O *D CF_CARAVEL_SOC
*CAP
1 gpio_slow_sel[34] 0.00146715
2 *921:gpio_slow_sel[34] 0.010143
3 *776:11 0.00388235
4 *776:9 0.0125582
5 *776:9 *777:15 0
6 *439:11 *776:11 0.0127972
7 *447:17 *776:11 0.0127951
8 *468:9 gpio_slow_sel[34] 0
9 *775:9 *776:9 0
*RES
1 *921:gpio_slow_sel[34] *776:9 28.7984 
2 *776:9 *776:11 164.948 
3 *776:11 gpio_slow_sel[34] 10.8831 
*END

*D_NET *777 0.0392377
*CONN
*P gpio_slow_sel[35] O
*I *921:gpio_slow_sel[35] O *D CF_CARAVEL_SOC
*CAP
1 gpio_slow_sel[35] 0.000353108
2 *921:gpio_slow_sel[35] 0.0106792
3 *777:15 0.0110323
4 *777:15 *778:9 0
5 *777:15 *789:17 0.000372037
6 *248:45 *777:15 0
7 *292:27 *777:15 0.00453735
8 *423:11 *777:15 0.00453208
9 *438:19 *777:15 0.000728455
10 *469:9 *777:15 0.00657309
11 *767:17 *777:15 0
12 *768:9 *777:15 0.000430012
13 *776:9 *777:15 0
*RES
1 *921:gpio_slow_sel[35] *777:15 49.7381 
2 *777:15 gpio_slow_sel[35] 0.9996 
*END

*D_NET *778 0.0824991
*CONN
*P gpio_slow_sel[36] O
*I *921:gpio_slow_sel[36] O *D CF_CARAVEL_SOC
*CAP
1 gpio_slow_sel[36] 0.00872363
2 *921:gpio_slow_sel[36] 0.00248774
3 *778:11 0.0137815
4 *778:9 0.00754557
5 *778:11 *790:11 0.00127056
6 *364:17 *778:9 3.28301e-05
7 *364:25 gpio_slow_sel[36] 1.30372e-05
8 *382:11 *778:11 0.0229076
9 *413:11 *778:11 0.00281686
10 *418:11 *778:11 0.0229197
11 *777:15 *778:9 0
*RES
1 *921:gpio_slow_sel[36] *778:9 13.6429 
2 *778:9 *778:11 53.1141 
3 *778:11 gpio_slow_sel[36] 25.9359 
*END

*D_NET *779 0.0965073
*CONN
*P gpio_slow_sel[37] O
*I *921:gpio_slow_sel[37] O *D CF_CARAVEL_SOC
*CAP
1 gpio_slow_sel[37] 0.00426544
2 *921:gpio_slow_sel[37] 0.0056006
3 *779:11 0.0148551
4 *779:9 0.0161902
5 *779:11 *788:11 0.00378122
6 *294:27 *779:11 0.0162783
7 *364:17 *779:9 0
8 *446:19 *779:11 0.0106386
9 *471:9 gpio_slow_sel[37] 0.00548534
10 *544:17 *779:11 0.00684651
11 *759:11 *779:11 0.00982308
12 *774:11 *779:11 0.00274289
*RES
1 *921:gpio_slow_sel[37] *779:9 20.1259 
2 *779:9 *779:11 523.429 
3 *779:11 gpio_slow_sel[37] 19.55 
*END

*D_NET *780 0.383093
*CONN
*P gpio_slow_sel[38] O
*I *921:gpio_slow_sel[38] O *D CF_CARAVEL_SOC
*CAP
1 gpio_slow_sel[38] 0.0023668
2 *921:gpio_slow_sel[38] 0.000192463
3 *780:13 0.0128127
4 *780:11 0.0104459
5 *780:9 0.0331811
6 *780:7 0.0333736
7 *780:9 *781:11 0.0987422
8 *780:9 *783:11 4.40236e-05
9 *780:9 *784:9 0.0290581
10 *780:9 *838:17 0.000280861
11 *780:9 *838:23 0.000227855
12 *780:9 *840:25 0.000434027
13 *780:9 *841:15 0.00209686
14 *780:9 *841:23 0.0189103
15 *780:9 *842:23 0.000288137
16 *780:13 *852:19 0.0537097
17 *780:13 *852:25 0.000419937
18 *338:71 *780:13 0.00287873
19 *429:19 *780:13 0.0603936
20 *449:41 *780:13 0.0118887
21 *461:23 *780:13 0.0109932
22 *474:15 *780:13 0.000354353
*RES
1 *921:gpio_slow_sel[38] *780:7 8.32853 
2 *780:7 *780:9 1290.75 
3 *780:9 *780:11 8 
4 *780:11 *780:13 114.173 
5 *780:13 gpio_slow_sel[38] 42.0025 
*END

*D_NET *781 0.534799
*CONN
*P gpio_slow_sel[39] O
*I *921:gpio_slow_sel[39] O *D CF_CARAVEL_SOC
*CAP
1 gpio_slow_sel[39] 0.000786997
2 *921:gpio_slow_sel[39] 0.000228227
3 *781:23 0.0221877
4 *781:21 0.0214007
5 *781:19 0.00206563
6 *781:17 0.00220823
7 *781:11 0.0158278
8 *781:9 0.0159134
9 *781:11 *783:11 0.0992034
10 *781:11 *784:9 0.00670565
11 *781:19 *783:11 0
12 *781:19 *785:25 0
13 *781:19 *786:21 5.79413e-06
14 *781:19 *804:21 0.000239532
15 *781:19 *838:17 0.000188437
16 *781:19 *838:23 0.00195297
17 *781:19 *841:15 0
18 *781:19 *854:21 0
19 *781:19 *860:15 0
20 *781:23 *783:15 0.114018
21 *781:23 *804:23 0.024928
22 *781:23 *825:23 0.000128635
23 *781:23 *859:19 0.0529629
24 *250:23 *781:23 0.0214501
25 *433:10 *781:23 0.0303588
26 *542:15 *781:19 0.00307644
27 *693:95 *781:17 0.000218476
28 *780:9 *781:11 0.0987422
*RES
1 *921:gpio_slow_sel[39] *781:9 8.48907 
2 *781:9 *781:11 1266.27 
3 *781:11 *781:17 32.5271 
4 *781:17 *781:19 52.4382 
5 *781:19 *781:21 8 
6 *781:21 *781:23 215.925 
7 *781:23 gpio_slow_sel[39] 19.9004 
*END

*D_NET *782 0.907647
*CONN
*P gpio_slow_sel[3] O
*I *921:gpio_slow_sel[3] O *D CF_CARAVEL_SOC
*CAP
1 gpio_slow_sel[3] 0.00142099
2 *921:gpio_slow_sel[3] 0.009804
3 *782:55 0.0107824
4 *782:53 0.0101234
5 *782:47 0.00497584
6 *782:45 0.00486466
7 *782:39 0.00310398
8 *782:37 0.00502122
9 *782:31 0.0040722
10 *782:29 0.00454061
11 *782:19 0.00521915
12 *782:17 0.00218277
13 *782:15 0.0693215
14 *782:13 0.0693215
15 *782:11 0.0114969
16 *782:9 0.0213009
17 *782:11 *810:11 0.00573387
18 *782:15 *787:15 0.00117634
19 *782:15 *788:15 0.30961
20 *782:15 *832:49 0
21 *782:19 *833:35 0
22 gpio_analog_pol[6] *782:29 0.000584273
23 gpio_dm0[5] *782:47 9.66844e-05
24 gpio_dm1[3] gpio_slow_sel[3] 0
25 gpio_inp_dis[5] *782:47 8.03328e-05
26 gpio_inp_dis[6] *782:29 0.000221355
27 *114:23 *782:15 0.101099
28 *132:11 *782:31 0.00262314
29 *165:9 *782:37 0.000456412
30 *176:11 *782:31 0.000897478
31 *193:61 *782:15 0
32 *210:11 *782:55 0.0112785
33 *217:11 *782:55 0.015474
34 *219:11 *782:19 0
35 *219:11 *782:29 0
36 *228:25 *782:15 0.00876022
37 *262:11 *782:55 0.00203487
38 *281:11 *782:19 0.00542532
39 *281:11 *782:29 0.000699558
40 *281:11 *782:47 0
41 *283:11 *782:39 0
42 *283:25 *782:15 0.000278048
43 *286:15 *782:15 0.0104526
44 *286:31 *782:15 0.0374288
45 *286:39 *782:15 0.000565974
46 *305:11 *782:47 0.0117929
47 *312:19 *782:31 0.00724733
48 *337:33 *782:29 0.00280837
49 *337:43 *782:11 0.0468555
50 *375:31 *782:15 0.000555752
51 *375:35 *782:19 0
52 *393:27 *782:19 0
53 *430:35 *782:55 0.00435867
54 *435:35 *782:55 0.0091892
55 *436:27 *782:39 0.00640926
56 *439:11 *782:11 0.0584852
57 *689:11 *782:15 0.00382574
58 *691:11 *782:15 0
59 *764:21 *782:15 0.00359033
*RES
1 *921:gpio_slow_sel[3] *782:9 28.9701 
2 *782:9 *782:11 753.731 
3 *782:11 *782:13 8 
4 *782:13 *782:15 585.151 
5 *782:15 *782:17 8 
6 *782:17 *782:19 71.9821 
7 *782:19 *782:29 41.7456 
8 *782:29 *782:31 92.4064 
9 *782:31 *782:37 21.208 
10 *782:37 *782:39 82.5464 
11 *782:39 *782:45 17.2581 
12 *782:45 *782:47 150.158 
13 *782:47 *782:53 17.344 
14 *782:53 *782:55 398.066 
15 *782:55 gpio_slow_sel[3] 11.2116 
*END

*D_NET *783 0.546805
*CONN
*P gpio_slow_sel[40] O
*I *921:gpio_slow_sel[40] O *D CF_CARAVEL_SOC
*CAP
1 gpio_slow_sel[40] 0.000827244
2 *921:gpio_slow_sel[40] 0.000154999
3 *783:15 0.025126
4 *783:13 0.0242988
5 *783:11 0.0342963
6 *783:9 0.0344513
7 *783:11 *784:9 0.000346515
8 *783:11 *786:21 0
9 *783:11 *836:11 0.00666023
10 *783:11 *841:15 0.00292764
11 *783:11 *843:15 0.0231431
12 *783:11 *844:17 0.000424445
13 *783:15 *784:13 0.000940911
14 *783:15 *804:23 0.000339839
15 *783:15 *825:23 0.11946
16 *783:15 *844:13 0.0171156
17 *250:23 *783:15 0.000392348
18 *433:6 *783:11 0.00469521
19 *433:10 *783:15 0.000762714
20 *473:15 *783:15 0.00501533
21 *475:13 *783:15 0.00732354
22 *477:11 *783:15 0.000448371
23 *561:18 *783:15 0.0243885
24 *780:9 *783:11 4.40236e-05
25 *781:11 *783:11 0.0992034
26 *781:19 *783:11 0
27 *781:23 *783:15 0.114018
*RES
1 *921:gpio_slow_sel[40] *783:9 8.4032 
2 *783:9 *783:11 1324.91 
3 *783:11 *783:13 8 
4 *783:13 *783:15 266.586 
5 *783:15 gpio_slow_sel[40] 20.4389 
*END

*D_NET *784 0.589378
*CONN
*P gpio_slow_sel[41] O
*I *921:gpio_slow_sel[41] O *D CF_CARAVEL_SOC
*CAP
1 gpio_slow_sel[41] 0.000689237
2 *921:gpio_slow_sel[41] 0.000171884
3 *784:21 0.00382583
4 *784:19 0.00343037
5 *784:13 0.0472807
6 *784:11 0.0469869
7 *784:9 0.0502414
8 *784:7 0.0504133
9 *784:9 *786:11 0
10 *784:9 *836:11 0.041341
11 *784:9 *839:219 0.010685
12 *784:9 *841:23 0.00341141
13 *784:9 *842:23 0.00256095
14 *784:13 *825:23 0.042037
15 *784:13 *843:11 0.0342032
16 *784:13 *850:21 1.71453e-05
17 *784:21 *804:23 0.00107517
18 *784:21 *829:43 0.0121617
19 *248:19 *784:13 0.000829733
20 *325:103 *784:13 0.000729562
21 *400:11 *784:9 0
22 *433:6 *784:9 0.030808
23 *433:10 *784:21 0.000190284
24 *453:49 *784:13 0.0124926
25 *454:33 *784:7 7.29709e-06
26 *454:53 *784:13 0.0152441
27 *473:15 *784:13 0.0163457
28 *475:13 *784:13 0.0031886
29 *476:15 *784:19 3.06286e-05
30 *477:11 *784:13 0.0164388
31 *546:13 *784:13 0.0332027
32 *552:13 *784:13 0.0286709
33 *737:173 *784:13 0.00269234
34 *739:122 *784:13 0.0284226
35 *750:11 *784:9 0
36 *752:11 *784:9 0
37 *758:9 *784:9 0.0125002
38 *780:9 *784:9 0.0290581
39 *781:11 *784:9 0.00670565
40 *783:11 *784:9 0.000346515
41 *783:15 *784:13 0.000940911
*RES
1 *921:gpio_slow_sel[41] *784:7 8.37147 
2 *784:7 *784:9 239.897 
3 *784:9 *784:11 8 
4 *784:11 *784:13 294.536 
5 *784:13 *784:19 27.5468 
6 *784:19 *784:21 129.734 
7 *784:21 gpio_slow_sel[41] 25.4607 
*END

*D_NET *785 0.623344
*CONN
*P gpio_slow_sel[42] O
*I *921:gpio_slow_sel[42] O *D CF_CARAVEL_SOC
*CAP
1 gpio_slow_sel[42] 0.00065639
2 *921:gpio_slow_sel[42] 0.00132995
3 *785:27 0.0370081
4 *785:25 0.0368118
5 *785:15 0.00229786
6 *785:11 0.0308151
7 *785:9 0.0303073
8 *785:9 *786:9 0
9 *785:11 *796:11 0
10 *785:11 *799:11 0.00109796
11 *785:11 *801:11 0.0198273
12 *785:11 *804:11 0.00104488
13 *785:11 *806:11 0.000324638
14 *785:11 *807:11 0.0353483
15 *785:11 *834:11 0.00785156
16 *785:11 *845:27 0.0211573
17 *785:11 *847:36 2.49913e-05
18 *785:11 *847:38 0.0222196
19 *785:11 *853:19 7.28722e-06
20 *785:11 *853:23 0.0014693
21 *785:15 *837:15 0
22 *785:15 *845:25 0.000157309
23 *785:15 *845:27 7.28722e-06
24 *785:15 *847:24 0.00178754
25 *785:15 *847:36 1.23884e-05
26 *785:15 *853:17 0.00074995
27 *785:15 *853:19 0.0018139
28 *785:25 *786:21 0.000410183
29 *785:25 *804:21 0.000177456
30 *785:25 *825:23 0.00102167
31 *785:25 *860:15 7.42681e-05
32 *785:27 *786:23 0.191873
33 *785:27 *804:23 0
34 *785:27 *829:35 0.0137418
35 *785:27 *829:43 0.121926
36 *785:27 *853:11 2.37424e-05
37 *248:29 *785:25 0.000253776
38 *250:23 *785:27 0
39 *250:33 *785:25 2.15575e-05
40 *397:11 *785:11 0.000881313
41 *428:21 *785:15 0
42 *430:11 *785:11 0.00429733
43 *448:13 *785:11 0
44 *454:33 *785:9 0.000153404
45 *542:23 *785:11 0.0104168
46 *546:23 *785:15 0
47 *552:23 *785:15 4.36401e-06
48 *560:27 *785:27 0.0239255
49 *760:21 *785:15 1.4029e-05
50 *781:19 *785:25 0
*RES
1 *921:gpio_slow_sel[42] *785:9 11.1957 
2 *785:9 *785:11 1291.1 
3 *785:11 *785:15 49.1343 
4 *785:15 *785:25 37.4919 
5 *785:25 *785:27 2051.17 
6 *785:27 gpio_slow_sel[42] 24.5907 
*END

*D_NET *786 0.775641
*CONN
*P gpio_slow_sel[43] O
*I *921:gpio_slow_sel[43] O *D CF_CARAVEL_SOC
*CAP
1 gpio_slow_sel[43] 0.000531646
2 *921:gpio_slow_sel[43] 0.00077754
3 *786:23 0.0355387
4 *786:21 0.0356465
5 *786:11 0.0443623
6 *786:9 0.0445004
7 *786:11 *794:11 0
8 *786:11 *804:11 0
9 *786:11 *828:11 0.0026795
10 *786:11 *830:11 0.00228424
11 *786:11 *839:219 0
12 *786:11 *856:19 0.00342864
13 *786:11 *858:23 0.00508816
14 *786:11 *860:15 0.000164574
15 *786:11 *860:19 0.00167787
16 *786:21 *804:21 0.000819454
17 *786:21 *825:23 0.000124236
18 *786:21 *850:21 2.91648e-06
19 *786:21 *860:15 0
20 *786:23 *804:23 0
21 *786:23 *829:35 0.0118073
22 *786:23 *829:43 0.00139285
23 *786:23 *853:11 0.0127463
24 *786:23 *859:11 0.166681
25 *300:27 *786:23 0.000306356
26 *345:23 *786:23 0.00491779
27 *353:9 *786:9 0
28 *400:11 *786:11 0.0464826
29 *403:11 *786:11 0.0105294
30 *405:11 *786:11 0.00298472
31 *406:11 *786:11 0.00192785
32 *407:11 *786:11 0.000675619
33 *433:20 *786:23 0.00311237
34 *450:13 *786:11 0.000184494
35 *450:27 *786:11 0.00355576
36 *454:41 *786:11 0.090248
37 *542:31 *786:11 0.00192584
38 *560:27 *786:23 0.0279509
39 *750:11 *786:11 0.0178032
40 *764:11 *786:11 0.000493813
41 *781:19 *786:21 5.79413e-06
42 *783:11 *786:21 0
43 *784:9 *786:11 0
44 *785:9 *786:9 0
45 *785:25 *786:21 0.000410183
46 *785:27 *786:23 0.191873
*RES
1 *921:gpio_slow_sel[43] *786:9 9.8648 
2 *786:9 *786:11 242.499 
3 *786:11 *786:21 37.9043 
4 *786:21 *786:23 2333.69 
5 *786:23 gpio_slow_sel[43] 22.4986 
*END

*D_NET *787 1.03666
*CONN
*P gpio_slow_sel[4] O
*I *921:gpio_slow_sel[4] O *D CF_CARAVEL_SOC
*CAP
1 gpio_slow_sel[4] 0.0100917
2 *921:gpio_slow_sel[4] 0.0025658
3 *787:57 0.0103355
4 *787:51 0.00951865
5 *787:49 0.00956881
6 *787:43 0.00577219
7 *787:35 0.00622559
8 *787:33 0.00287238
9 *787:27 0.00374861
10 *787:25 0.00211856
11 *787:19 0.00195185
12 *787:17 0.00145687
13 *787:15 0.043519
14 *787:13 0.043519
15 *787:11 0.00991838
16 *787:9 0.0124842
17 *787:9 *788:9 0
18 *787:11 *790:11 0.000529279
19 *787:15 *788:15 0.306461
20 *787:19 *832:51 0.00619643
21 *787:43 *788:53 0
22 *94:17 gpio_slow_sel[4] 0
23 *115:27 *787:11 0.000674128
24 *116:27 *787:43 0.000799827
25 *140:25 *787:49 6.17437e-06
26 *156:9 *787:43 0
27 *157:9 *787:43 4.74805e-05
28 *168:9 *787:33 0.000275276
29 *175:11 *787:35 0.000180981
30 *178:19 *787:19 0.00673236
31 *180:9 gpio_slow_sel[4] 0.00555338
32 *181:9 gpio_slow_sel[4] 0
33 *195:11 *787:27 0.00670734
34 *204:17 *787:43 0.000792818
35 *225:19 *787:35 0.0041005
36 *228:25 *787:15 0.0118487
37 *247:15 *787:15 0.000884566
38 *263:11 *787:27 0.0032941
39 *274:93 *787:35 0.000525663
40 *286:31 *787:15 0.0504534
41 *288:27 *787:51 0.0145441
42 *288:47 *787:43 0.000417443
43 *327:19 gpio_slow_sel[4] 0.000737247
44 *328:11 gpio_slow_sel[4] 0.00141133
45 *329:10 *787:51 0.00574965
46 *329:36 *787:51 0.000814177
47 *330:13 *787:51 0.00594217
48 *334:6 gpio_slow_sel[4] 0.00025063
49 *337:33 *787:25 3.69198e-05
50 *349:11 *787:35 0.00188465
51 *364:19 *787:11 0.0177408
52 *375:31 *787:15 0.306066
53 *413:11 *787:11 0.0566533
54 *418:11 *787:11 0.00566725
55 *445:11 *787:19 0.000257083
56 *468:11 *787:11 0.00425435
57 *687:19 *787:11 0.00024327
58 *732:10 *787:11 0.0310843
59 *782:15 *787:15 0.00117634
*RES
1 *921:gpio_slow_sel[4] *787:9 13.9397 
2 *787:9 *787:11 746.688 
3 *787:11 *787:13 8 
4 *787:13 *787:15 565.66 
5 *787:15 *787:17 8 
6 *787:17 *787:19 87.4764 
7 *787:19 *787:25 16.8288 
8 *787:25 *787:27 86.7721 
9 *787:27 *787:33 20.5211 
10 *787:33 *787:35 52.2621 
11 *787:35 *787:43 37.8291 
12 *787:43 *787:49 33.9564 
13 *787:49 *787:51 327.286 
14 *787:51 *787:57 33.48 
15 *787:57 gpio_slow_sel[4] 49.6769 
*END

*D_NET *788 0.99395
*CONN
*P gpio_slow_sel[5] O
*I *921:gpio_slow_sel[5] O *D CF_CARAVEL_SOC
*CAP
1 gpio_slow_sel[5] 0.00687347
2 *921:gpio_slow_sel[5] 0.00528546
3 *788:55 0.00840492
4 *788:53 0.00583214
5 *788:37 0.00487389
6 *788:33 0.0017932
7 *788:27 0.00384753
8 *788:25 0.00529327
9 *788:19 0.00498086
10 *788:17 0.00231511
11 *788:15 0.0442664
12 *788:13 0.0442664
13 *788:11 0.0119712
14 *788:9 0.0172567
15 *788:9 *789:9 0
16 *788:37 *831:61 0.000449158
17 gpio_dm1[5] gpio_slow_sel[5] 0.00248668
18 gpio_out[6] *788:25 0.000227411
19 *90:11 *788:55 0.00137611
20 *103:11 *788:19 0.000551136
21 *105:17 *788:53 2.32903e-05
22 *109:23 *788:37 0.000120999
23 *115:11 *788:19 0.00424208
24 *116:27 *788:53 0.00118951
25 *116:35 *788:37 0.00295974
26 *134:9 gpio_slow_sel[5] 0.000614343
27 *135:9 gpio_slow_sel[5] 0
28 *141:11 *788:19 0.000346223
29 *150:17 *788:33 0.00233898
30 *159:9 *788:53 0.000650932
31 *169:9 *788:33 0.00234245
32 *176:9 gpio_slow_sel[5] 0
33 *204:17 *788:37 0.00171366
34 *204:17 *788:53 1.11421e-05
35 *204:21 *788:37 0.000423959
36 *228:25 *788:15 0.0101383
37 *247:15 *788:15 0.000277713
38 *280:19 *788:27 0.00124037
39 *286:31 *788:15 0.0433167
40 *288:47 *788:53 0.000946522
41 *316:11 *788:27 0.00738178
42 *329:50 *788:53 8.54984e-05
43 *333:11 *788:37 1.11421e-05
44 *333:11 *788:53 0.00123377
45 *334:32 *788:37 0.00016631
46 *334:32 *788:53 0.000202284
47 *367:11 *788:11 0.00670445
48 *444:11 *788:19 0
49 *483:11 *788:27 0
50 *544:17 *788:11 0.0436923
51 *716:15 *788:55 0.00984088
52 *727:15 *788:55 0.00983825
53 *759:11 *788:11 0.0496928
54 *779:11 *788:11 0.00378122
55 *782:15 *788:15 0.30961
56 *787:9 *788:9 0
57 *787:15 *788:15 0.306461
58 *787:43 *788:53 0
*RES
1 *921:gpio_slow_sel[5] *788:9 19.9541 
2 *788:9 *788:11 740.349 
3 *788:11 *788:13 8 
4 *788:13 *788:15 567.377 
5 *788:15 *788:17 8 
6 *788:17 *788:19 69.8693 
7 *788:19 *788:25 22.0667 
8 *788:25 *788:27 93.815 
9 *788:27 *788:33 20.7787 
10 *788:33 *788:37 39.2743 
11 *788:37 *788:53 41.2302 
12 *788:53 *788:55 125.508 
13 *788:55 gpio_slow_sel[5] 23.5391 
*END

*D_NET *789 0.679749
*CONN
*P gpio_slow_sel[6] O
*I *921:gpio_slow_sel[6] O *D CF_CARAVEL_SOC
*CAP
1 gpio_slow_sel[6] 0.00357323
2 *921:gpio_slow_sel[6] 0.00882664
3 *789:27 0.00546345
4 *789:25 0.00189022
5 *789:23 0.108747
6 *789:21 0.108747
7 *789:19 0.00925834
8 *789:17 0.0204965
9 *789:9 0.0200648
10 *789:23 *833:31 0.00338182
11 gpio_dm1[6] gpio_slow_sel[6] 0
12 *140:63 *789:23 0.00133896
13 *205:49 *789:27 0.00345483
14 *205:57 *789:19 0.0166649
15 *218:11 *789:27 0.00655467
16 *273:11 *789:27 0
17 *274:111 *789:27 0
18 *315:15 *789:23 0.000433762
19 *327:53 *789:27 0
20 *337:39 *789:23 0.303374
21 *404:11 *789:19 0.0132081
22 *691:15 *789:19 0.0434111
23 *695:13 *789:23 0
24 *698:13 *789:23 0.000487968
25 *740:21 *789:23 0
26 *767:17 *789:17 0
27 *777:15 *789:17 0.000372037
28 *788:9 *789:9 0
*RES
1 *921:gpio_slow_sel[6] *789:9 27.0381 
2 *789:9 *789:17 42.9901 
3 *789:17 *789:19 559.348 
4 *789:19 *789:21 8 
5 *789:21 *789:23 579.484 
6 *789:23 *789:25 8 
7 *789:25 *789:27 84.6593 
8 *789:27 gpio_slow_sel[6] 15.1465 
*END

*D_NET *790 0.571995
*CONN
*P gpio_slow_sel[7] O
*I *921:gpio_slow_sel[7] O *D CF_CARAVEL_SOC
*CAP
1 gpio_slow_sel[7] 0.000145193
2 *921:gpio_slow_sel[7] 0.00257831
3 *790:15 0.162943
4 *790:13 0.162797
5 *790:11 0.0333176
6 *790:9 0.0358959
7 *790:9 *791:21 0
8 *790:9 *797:17 6.07327e-06
9 *790:9 *836:11 0.000227734
10 *115:27 *790:11 0.000669438
11 *115:35 *790:11 0.0107562
12 *140:163 *790:15 0.00158922
13 *162:25 *790:11 0.000283491
14 *355:11 *790:11 0.0346271
15 *371:11 *790:11 0.0234059
16 *382:11 *790:11 0.00343442
17 *388:11 *790:11 0.0426093
18 *413:11 *790:11 0.0548857
19 *437:29 *790:11 2.33476e-05
20 *482:9 *790:15 0
21 *778:11 *790:11 0.00127056
22 *787:11 *790:11 0.000529279
*RES
1 *921:gpio_slow_sel[7] *790:9 14.0219 
2 *790:9 *790:11 1522.81 
3 *790:11 *790:13 8 
4 *790:13 *790:15 573.401 
5 *790:15 gpio_slow_sel[7] 0.5572 
*END

*D_NET *791 0.590689
*CONN
*P gpio_slow_sel[8] O
*I *921:gpio_slow_sel[8] O *D CF_CARAVEL_SOC
*CAP
1 gpio_slow_sel[8] 5.76396e-05
2 *921:gpio_slow_sel[8] 0.00565281
3 *791:27 0.162375
4 *791:25 0.162318
5 *791:23 0.0374773
6 *791:21 0.0431301
7 *791:21 *792:9 0
8 *791:21 *795:17 0.000165748
9 *791:21 *798:19 0.00110977
10 *791:21 *819:11 0.00551446
11 *791:21 *834:11 0
12 *791:21 *836:11 0.000227734
13 *791:23 *808:11 0.0463512
14 gpio_dm1[8] *791:27 0
15 *354:11 *791:23 0.112356
16 *359:11 *791:23 0
17 *393:11 *791:23 0.00492151
18 *449:29 *791:23 0.00903212
19 *790:9 *791:21 0
*RES
1 *921:gpio_slow_sel[8] *791:21 47.4528 
2 *791:21 *791:23 1650.99 
3 *791:23 *791:25 8 
4 *791:25 *791:27 572.456 
5 *791:27 gpio_slow_sel[8] 0.2212 
*END

*D_NET *792 0.70626
*CONN
*P gpio_slow_sel[9] O
*I *921:gpio_slow_sel[9] O *D CF_CARAVEL_SOC
*CAP
1 gpio_slow_sel[9] 0.000252204
2 *921:gpio_slow_sel[9] 0.00153784
3 *792:15 0.161696
4 *792:13 0.161444
5 *792:11 0.0389058
6 *792:9 0.0404436
7 *792:9 *836:11 0.000227734
8 *792:11 *794:11 0.00746149
9 *792:11 *799:11 0.0119398
10 *792:11 *806:11 0.0161433
11 *792:11 *834:11 0.12181
12 *792:11 *835:11 0.140304
13 *322:355 *792:15 0
14 *400:17 *792:9 9.46664e-05
15 *451:13 *792:11 0.00400017
16 *484:9 *792:15 0
17 *750:9 *792:9 0
18 *791:21 *792:9 0
*RES
1 *921:gpio_slow_sel[9] *792:9 11.5747 
2 *792:9 *792:11 355.723 
3 *792:11 *792:13 8 
4 *792:13 *792:15 570.954 
5 *792:15 gpio_slow_sel[9] 0.967867 
*END

*D_NET *793 0.837717
*CONN
*P gpio_vtrip_sel[0] O
*I *921:gpio_vtrip_sel[0] O *D CF_CARAVEL_SOC
*CAP
1 gpio_vtrip_sel[0] 0.00355544
2 *921:gpio_vtrip_sel[0] 0.00282543
3 *793:31 0.00929054
4 *793:29 0.00573511
5 *793:27 0.0467014
6 *793:25 0.0483594
7 *793:11 0.0173532
8 *793:9 0.0185206
9 *793:9 *804:9 0
10 *793:11 *857:23 0.00548157
11 *793:25 *839:215 0.000421371
12 *793:25 *844:17 2.26497e-05
13 *793:25 *846:37 0.00155647
14 *793:27 *815:25 0.00119533
15 *793:27 *815:49 0.000299103
16 *793:27 *866:17 0.023
17 *793:31 *804:27 0.025036
18 gpio_ib_mode_sel[0] gpio_vtrip_sel[0] 0
19 gpio_out[0] gpio_vtrip_sel[0] 0
20 *921:gpio_in[0] *793:27 0.00330516
21 *165:11 *793:31 0.0043859
22 *248:35 *793:11 0.0036748
23 *263:11 *793:31 0.0102756
24 *292:27 *793:11 0.0544076
25 *293:25 *793:25 0.000491194
26 *325:133 *793:27 0.000460718
27 *344:15 *793:27 0.0244767
28 *364:27 *793:11 0
29 *389:11 *793:11 0.00821864
30 *408:11 *793:11 0.0305946
31 *408:21 *793:25 0.000728177
32 *423:11 *793:11 0.0057458
33 *430:23 *793:27 0.287426
34 *434:9 *793:9 0
35 *438:19 *793:11 0.00123735
36 *443:31 *793:27 0.129472
37 *443:45 *793:27 0.00355249
38 *451:25 *793:27 0.0543301
39 *451:35 *793:27 0.00161248
40 *453:41 *793:11 0.00160271
41 *467:15 *793:25 0.000221494
42 *531:24 *793:27 0
43 *542:29 *793:9 0
44 *557:27 *793:25 0.00214479
*RES
1 *921:gpio_vtrip_sel[0] *793:9 15.0989 
2 *793:9 *793:11 125.974 
3 *793:11 *793:25 38.4424 
4 *793:25 *793:27 3112.65 
5 *793:27 *793:29 15 
6 *793:29 *793:31 322.532 
7 *793:31 gpio_vtrip_sel[0] 15.5628 
*END

*D_NET *794 0.716825
*CONN
*P gpio_vtrip_sel[10] O
*I *921:gpio_vtrip_sel[10] O *D CF_CARAVEL_SOC
*CAP
1 gpio_vtrip_sel[10] 0.000170487
2 *921:gpio_vtrip_sel[10] 0.00135237
3 *794:15 0.16077
4 *794:13 0.160599
5 *794:11 0.0815919
6 *794:9 0.0829442
7 *794:9 *795:9 0
8 *794:9 *836:9 0
9 *794:9 *836:11 0.000227734
10 *794:11 *795:19 0.00685759
11 *794:11 *796:11 0.037206
12 *794:11 *835:11 0.163739
13 *116:67 *794:11 0.003334
14 *398:23 *794:15 0
15 *399:11 *794:11 0.00990815
16 *454:41 *794:11 0.000662716
17 *706:11 *794:15 0
18 *750:11 *794:11 0
19 *752:11 *794:11 0
20 *786:11 *794:11 0
21 *792:11 *794:11 0.00746149
*RES
1 *921:gpio_vtrip_sel[10] *794:9 11.2312 
2 *794:9 *794:11 463.109 
3 *794:11 *794:13 8 
4 *794:13 *794:15 570.61 
5 *794:15 gpio_vtrip_sel[10] 0.654267 
*END

*D_NET *795 1.00182
*CONN
*P gpio_vtrip_sel[11] O
*I *921:gpio_vtrip_sel[11] O *D CF_CARAVEL_SOC
*CAP
1 gpio_vtrip_sel[11] 3.42919e-05
2 *921:gpio_vtrip_sel[11] 0.00151454
3 *795:23 0.102043
4 *795:21 0.102009
5 *795:19 0.0489778
6 *795:17 0.0491503
7 *795:11 0.00566484
8 *795:9 0.00700691
9 *795:9 *796:9 0
10 *795:9 *836:11 0.000227734
11 *795:11 *799:11 0.00110918
12 *795:11 *806:11 0.00304108
13 *795:11 *834:11 0.0225254
14 *795:11 *835:11 0.0225081
15 *795:19 *796:11 0.197096
16 *795:19 *800:11 0.103349
17 *795:19 *835:11 0.0191702
18 gpio_ib_mode_sel[11] *795:23 0.00184574
19 gpio_oeb[26] *795:23 0.000328112
20 *399:23 *795:23 0.307191
21 *451:13 *795:19 0
22 *791:21 *795:17 0.000165748
23 *794:9 *795:9 0
24 *794:11 *795:19 0.00685759
*RES
1 *921:gpio_vtrip_sel[11] *795:9 11.5747 
2 *795:9 *795:11 52.2256 
3 *795:11 *795:17 16.3565 
4 *795:17 *795:19 2508.81 
5 *795:19 *795:21 8 
6 *795:21 *795:23 570.653 
7 *795:23 gpio_vtrip_sel[11] 0.1316 
*END

*D_NET *796 0.747393
*CONN
*P gpio_vtrip_sel[12] O
*I *921:gpio_vtrip_sel[12] O *D CF_CARAVEL_SOC
*CAP
1 gpio_vtrip_sel[12] 0.000261932
2 *921:gpio_vtrip_sel[12] 0.00133348
3 *796:15 0.159971
4 *796:13 0.159709
5 *796:11 0.0898053
6 *796:9 0.0911387
7 *796:9 *797:9 0
8 *796:9 *836:11 0.000227734
9 *796:11 *799:11 0.000200513
10 *796:11 *800:11 0.010397
11 gpio_holdover[12] *796:15 0
12 gpio_out[12] *796:15 0
13 *163:31 *796:11 4.5745e-05
14 *400:23 *796:15 0
15 *406:17 *796:11 0
16 *451:13 *796:11 0
17 *454:25 *796:11 0
18 *542:31 *796:11 0
19 *708:11 *796:15 0
20 *764:11 *796:11 0
21 *764:17 *796:11 0
22 *785:11 *796:11 0
23 *794:11 *796:11 0.037206
24 *795:9 *796:9 0
25 *795:19 *796:11 0.197096
*RES
1 *921:gpio_vtrip_sel[12] *796:9 11.1883 
2 *796:9 *796:11 3019.42 
3 *796:11 *796:13 8 
4 *796:13 *796:15 570.567 
5 *796:15 gpio_vtrip_sel[12] 1.0052 
*END

*D_NET *797 1.10757
*CONN
*P gpio_vtrip_sel[13] O
*I *921:gpio_vtrip_sel[13] O *D CF_CARAVEL_SOC
*CAP
1 gpio_vtrip_sel[13] 0.000125737
2 *921:gpio_vtrip_sel[13] 0.00196597
3 *797:23 0.102209
4 *797:21 0.102084
5 *797:19 0.0464098
6 *797:17 0.0464591
7 *797:11 0.0113779
8 *797:9 0.0132946
9 *797:9 *798:15 0
10 *797:9 *836:11 0.000227734
11 *797:11 *798:15 0.00986057
12 *797:11 *798:19 0.00068438
13 *797:11 *819:11 0.0102393
14 *797:11 *825:11 0.00232423
15 *797:11 *829:11 0.000957986
16 *797:11 *834:11 0
17 *797:19 *798:19 0.0127232
18 *797:19 *831:19 0.00452356
19 gpio_ib_mode_sel[13] *797:23 0.000490406
20 gpio_out[13] *797:23 0
21 *161:19 *797:19 0.00516432
22 *356:11 *797:19 0.0115734
23 *360:11 *797:19 0.223259
24 *386:11 *797:11 0.000593619
25 *401:15 *797:23 0.30732
26 *448:13 *797:11 0.000862421
27 *449:29 *797:11 0.00075631
28 *449:29 *797:19 0.000973914
29 *751:11 *797:19 0.1911
30 *790:9 *797:17 6.07327e-06
31 *796:9 *797:9 0
*RES
1 *921:gpio_vtrip_sel[13] *797:9 12.7768 
2 *797:9 *797:11 48.9253 
3 *797:11 *797:17 16.0989 
4 *797:17 *797:19 3206.05 
5 *797:19 *797:21 8 
6 *797:21 *797:23 572.113 
7 *797:23 gpio_vtrip_sel[13] 0.482533 
*END

*D_NET *798 1.41513
*CONN
*P gpio_vtrip_sel[14] O
*I *921:gpio_vtrip_sel[14] O *D CF_CARAVEL_SOC
*CAP
1 gpio_vtrip_sel[14] 2.50501e-05
2 *921:gpio_vtrip_sel[14] 0.00421364
3 *798:23 0.0434203
4 *798:21 0.0433952
5 *798:19 0.0460504
6 *798:17 0.0460504
7 *798:15 0.00421364
8 *798:15 *799:9 0
9 *798:15 *818:9 0.000103763
10 *798:15 *819:9 0
11 *798:15 *836:11 0.000227734
12 *798:19 *829:11 0.00519677
13 *798:19 *831:19 0.00452092
14 gpio_analog_pol[35] *798:19 0.000774714
15 gpio_ib_mode_sel[14] *798:23 0.00297243
16 *161:19 *798:19 0.000823027
17 *281:31 *798:23 0.299022
18 *360:11 *798:19 0.2599
19 *386:11 *798:15 0.00987109
20 *391:11 *798:19 0.00537704
21 *402:15 *798:23 0.309697
22 *448:13 *798:19 0.299575
23 *449:29 *798:19 0
24 *666:11 *798:23 0.00532646
25 *791:21 *798:19 0.00110977
26 *797:9 *798:15 0
27 *797:11 *798:15 0.00986057
28 *797:11 *798:19 0.00068438
29 *797:19 *798:19 0.0127232
*RES
1 *921:gpio_vtrip_sel[14] *798:15 44.0411 
2 *798:15 *798:17 8 
3 *798:17 *798:19 3809.63 
4 *798:19 *798:21 8 
5 *798:21 *798:23 571.941 
6 *798:23 gpio_vtrip_sel[14] 0.0961333 
*END

*D_NET *799 0.803613
*CONN
*P gpio_vtrip_sel[15] O
*I *921:gpio_vtrip_sel[15] O *D CF_CARAVEL_SOC
*CAP
1 gpio_vtrip_sel[15] 9.62404e-05
2 *921:gpio_vtrip_sel[15] 0.00147505
3 *799:19 0.111928
4 *799:17 0.111832
5 *799:15 0.145763
6 *799:13 0.145763
7 *799:11 0.0203372
8 *799:9 0.0218122
9 *799:9 *800:9 0
10 *799:9 *836:11 0.000227734
11 *799:11 *800:11 0.119318
12 *799:11 *806:11 0.109565
13 *799:11 *835:11 0.000108674
14 gpio_ib_mode_sel[15] gpio_vtrip_sel[15] 0
15 *140:127 *799:19 0.00104003
16 *280:23 *799:15 0
17 *403:19 *799:19 0
18 *451:13 *799:11 0
19 *538:249 *799:15 0
20 *785:11 *799:11 0.00109796
21 *792:11 *799:11 0.0119398
22 *795:11 *799:11 0.00110918
23 *796:11 *799:11 0.000200513
24 *798:15 *799:9 0
*RES
1 *921:gpio_vtrip_sel[15] *799:9 11.4459 
2 *799:9 *799:11 1529.15 
3 *799:11 *799:13 8 
4 *799:13 *799:15 526.762 
5 *799:15 *799:17 8 
6 *799:17 *799:19 2552.48 
7 *799:19 gpio_vtrip_sel[15] 1.86429 
*END

*D_NET *800 0.758999
*CONN
*P gpio_vtrip_sel[16] O
*I *921:gpio_vtrip_sel[16] O *D CF_CARAVEL_SOC
*CAP
1 gpio_vtrip_sel[16] 0.11026
2 *921:gpio_vtrip_sel[16] 0.00142909
3 *800:17 0.11026
4 *800:15 0.119441
5 *800:13 0.119441
6 *800:11 0.0206102
7 *800:9 0.0220392
8 *800:9 *801:9 0
9 *800:9 *836:11 0.000227734
10 *800:11 *835:11 0.0218094
11 gpio_ib_mode_sel[16] gpio_vtrip_sel[16] 0
12 *451:13 *800:11 0
13 *538:257 *800:15 0.000417192
14 *795:19 *800:11 0.103349
15 *796:11 *800:11 0.010397
16 *799:9 *800:9 0
17 *799:11 *800:11 0.119318
*RES
1 *921:gpio_vtrip_sel[16] *800:9 11.36 
2 *800:9 *800:11 1572.11 
3 *800:11 *800:13 8 
4 *800:13 *800:15 431.622 
5 *800:15 *800:17 8 
6 *800:17 gpio_vtrip_sel[16] 2503.81 
*END

*D_NET *801 0.824754
*CONN
*P gpio_vtrip_sel[17] O
*I *921:gpio_vtrip_sel[17] O *D CF_CARAVEL_SOC
*CAP
1 gpio_vtrip_sel[17] 0.136543
2 *921:gpio_vtrip_sel[17] 0.00170322
3 *801:17 0.136543
4 *801:15 0.0372667
5 *801:13 0.0372667
6 *801:11 0.0147113
7 *801:9 0.0164145
8 *801:9 *802:9 0
9 *801:9 *836:11 0.000227734
10 *801:11 *805:11 0.074836
11 *801:11 *807:11 0.00584641
12 *801:11 *834:11 0.00603018
13 gpio_ib_mode_sel[17] gpio_vtrip_sel[17] 0
14 *158:24 *801:15 0.180845
15 *230:25 *801:15 0.00910651
16 *244:15 *801:15 0.0107116
17 *277:23 *801:15 0.0646889
18 *286:31 *801:15 0.0168942
19 *448:13 *801:11 0
20 *451:13 *801:11 0.0218888
21 *686:11 *801:15 0.0334016
22 *785:11 *801:11 0.0198273
23 *800:9 *801:9 0
*RES
1 *921:gpio_vtrip_sel[17] *801:9 11.8752 
2 *801:9 *801:11 974.172 
3 *801:11 *801:13 8 
4 *801:13 *801:15 384.138 
5 *801:15 *801:17 8 
6 *801:17 gpio_vtrip_sel[17] 3094.7 
*END

*D_NET *802 0.833189
*CONN
*P gpio_vtrip_sel[18] O
*I *921:gpio_vtrip_sel[18] O *D CF_CARAVEL_SOC
*CAP
1 gpio_vtrip_sel[18] 0.136234
2 *921:gpio_vtrip_sel[18] 0.00709333
3 *802:17 0.136234
4 *802:15 0.0258858
5 *802:13 0.0258858
6 *802:11 0.0162665
7 *802:9 0.0233598
8 *802:9 *803:9 0
9 *802:15 gpio_vtrip_sel[32] 0.000224402
10 *802:15 *803:15 0.116045
11 *802:15 *805:15 0.000314451
12 *802:15 *814:17 4.83238e-05
13 gpio_ib_mode_sel[18] gpio_vtrip_sel[18] 0
14 gpio_ib_mode_sel[32] *802:15 0.000122588
15 *162:27 *802:11 0.00618331
16 *249:27 *802:11 0.0027658
17 *275:15 *802:15 0.0474141
18 *290:15 *802:15 0
19 *322:301 *802:11 0.00190886
20 *396:11 *802:11 0.00684361
21 *403:15 *802:15 0.00255455
22 *406:19 *802:15 0.164019
23 *472:15 *802:11 0.0598269
24 *472:25 *802:11 0.000146456
25 *686:11 *802:15 0
26 *754:11 *802:11 0.0538119
27 *801:9 *802:9 0
*RES
1 *921:gpio_vtrip_sel[18] *802:9 23.8181 
2 *802:9 *802:11 976.285 
3 *802:11 *802:13 8 
4 *802:13 *802:15 313.555 
5 *802:15 *802:17 8 
6 *802:17 gpio_vtrip_sel[18] 3088.37 
*END

*D_NET *803 0.713927
*CONN
*P gpio_vtrip_sel[19] O
*I *921:gpio_vtrip_sel[19] O *D CF_CARAVEL_SOC
*CAP
1 gpio_vtrip_sel[19] 0.136302
2 *921:gpio_vtrip_sel[19] 0.00407416
3 *803:17 0.136302
4 *803:15 0.0161147
5 *803:13 0.0161147
6 *803:11 0.0130083
7 *803:9 0.0170825
8 *803:9 *805:9 0
9 gpio_ib_mode_sel[19] gpio_vtrip_sel[19] 0
10 *250:35 *803:11 0.00901769
11 *403:15 *803:15 0.112067
12 *420:11 *803:11 0.013583
13 *456:27 *803:11 0.0151437
14 *469:11 *803:11 0.00634851
15 *686:11 *803:15 0.000613045
16 *753:11 *803:11 0.0549185
17 *768:11 *803:11 0.0471926
18 *802:9 *803:9 0
19 *802:15 *803:15 0.116045
*RES
1 *921:gpio_vtrip_sel[19] *803:9 17.5499 
2 *803:9 *803:11 969.242 
3 *803:11 *803:13 8 
4 *803:13 *803:15 212.233 
5 *803:15 *803:17 8 
6 *803:17 gpio_vtrip_sel[19] 3089.07 
*END

*D_NET *804 0.759922
*CONN
*P gpio_vtrip_sel[1] O
*I *921:gpio_vtrip_sel[1] O *D CF_CARAVEL_SOC
*CAP
1 gpio_vtrip_sel[1] 0.00323466
2 *921:gpio_vtrip_sel[1] 0.00113194
3 *804:27 0.0130386
4 *804:25 0.00980391
5 *804:23 0.0887365
6 *804:21 0.0893734
7 *804:11 0.0321234
8 *804:9 0.0326185
9 *804:11 *851:19 0.00232243
10 *804:21 *850:21 4.55121e-05
11 *804:21 *862:21 0.000243352
12 *804:23 *829:43 0
13 *804:23 *859:11 0
14 gpio_ib_mode_sel[1] gpio_vtrip_sel[1] 0
15 gpio_out[1] gpio_vtrip_sel[1] 0.000652757
16 *165:11 *804:27 0
17 *248:29 *804:21 9.80974e-05
18 *250:23 *804:23 0.285445
19 *263:11 *804:27 0.00422034
20 *284:15 *804:23 6.22926e-05
21 *306:11 *804:27 0.00966176
22 *397:11 *804:11 0.0163848
23 *399:11 *804:11 0.00721417
24 *408:101 *804:27 0.0422707
25 *428:11 *804:11 0.00910075
26 *430:11 *804:11 0.000854091
27 *431:11 *804:11 0.00637312
28 *432:11 *804:11 0.0094291
29 *433:20 *804:23 0
30 *435:11 *804:11 0
31 *454:41 *804:11 0.00427377
32 *542:23 *804:11 0.00173265
33 *542:29 *804:9 0.000321314
34 *561:18 *804:23 0.0312578
35 *563:14 *804:23 0.000623136
36 *566:13 *804:23 0.00213838
37 *760:35 *804:27 0.00147538
38 *781:19 *804:21 0.000239532
39 *781:23 *804:23 0.024928
40 *783:15 *804:23 0.000339839
41 *784:21 *804:23 0.00107517
42 *785:11 *804:11 0.00104488
43 *785:25 *804:21 0.000177456
44 *785:27 *804:23 0
45 *786:11 *804:11 0
46 *786:21 *804:21 0.000819454
47 *786:23 *804:23 0
48 *793:9 *804:9 0
49 *793:31 *804:27 0.025036
*RES
1 *921:gpio_vtrip_sel[1] *804:9 10.9773 
2 *804:9 *804:11 132.828 
3 *804:11 *804:21 36.5642 
4 *804:21 *804:23 3116.94 
5 *804:23 *804:25 15 
6 *804:25 *804:27 592.273 
7 *804:27 gpio_vtrip_sel[1] 15.3948 
*END

*D_NET *805 0.552177
*CONN
*P gpio_vtrip_sel[20] O
*I *921:gpio_vtrip_sel[20] O *D CF_CARAVEL_SOC
*CAP
1 gpio_vtrip_sel[20] 0.000133729
2 *921:gpio_vtrip_sel[20] 0.00149235
3 *805:19 0.136322
4 *805:17 0.136188
5 *805:15 0.0271675
6 *805:13 0.0271675
7 *805:11 0.0280167
8 *805:9 0.0295091
9 *805:9 *806:9 0
10 *805:11 *834:11 0.00482549
11 gpio_ib_mode_sel[20] gpio_vtrip_sel[20] 0
12 gpio_ib_mode_sel[20] *805:19 0
13 *290:15 *805:15 0
14 *406:19 *805:15 0.0859024
15 *448:13 *805:11 0
16 *451:13 *805:11 0.000301828
17 *453:33 *805:11 0
18 *801:11 *805:11 0.074836
19 *802:15 *805:15 0.000314451
20 *803:9 *805:9 0
*RES
1 *921:gpio_vtrip_sel[20] *805:9 11.4533 
2 *805:9 *805:11 964.312 
3 *805:11 *805:13 8 
4 *805:13 *805:15 157.965 
5 *805:15 *805:17 8 
6 *805:17 *805:19 3085.62 
7 *805:19 gpio_vtrip_sel[20] 1.86429 
*END

*D_NET *806 0.601177
*CONN
*P gpio_vtrip_sel[21] O
*I *921:gpio_vtrip_sel[21] O *D CF_CARAVEL_SOC
*CAP
1 gpio_vtrip_sel[21] 0.000134032
2 *921:gpio_vtrip_sel[21] 0.00130082
3 *806:19 0.11685
4 *806:17 0.116716
5 *806:15 0.0209054
6 *806:13 0.0209054
7 *806:11 0.0171975
8 *806:9 0.0184984
9 *806:11 *807:11 0.108351
10 gpio_ib_mode_sel[21] gpio_vtrip_sel[21] 0
11 gpio_ib_mode_sel[21] *806:19 0
12 *324:15 *806:15 0.0510206
13 *405:15 *806:15 0
14 *451:13 *806:11 0.000225251
15 *667:7 *806:19 0
16 *785:11 *806:11 0.000324638
17 *792:11 *806:11 0.0161433
18 *795:11 *806:11 0.00304108
19 *799:11 *806:11 0.109565
20 *805:9 *806:9 0
*RES
1 *921:gpio_vtrip_sel[21] *806:9 11.024 
2 *806:9 *806:11 1398.15 
3 *806:11 *806:13 8 
4 *806:13 *806:15 109.622 
5 *806:15 *806:17 8 
6 *806:17 *806:19 2644.74 
7 *806:19 gpio_vtrip_sel[21] 1.86429 
*END

*D_NET *807 0.503767
*CONN
*P gpio_vtrip_sel[22] O
*I *921:gpio_vtrip_sel[22] O *D CF_CARAVEL_SOC
*CAP
1 gpio_vtrip_sel[22] 0.116976
2 *921:gpio_vtrip_sel[22] 0.0013491
3 *807:17 0.116976
4 *807:15 0.0122092
5 *807:13 0.0122092
6 *807:11 0.0196965
7 *807:9 0.0210456
8 *807:9 *808:9 0
9 *807:11 *834:11 0.0115363
10 gpio_ib_mode_sel[22] gpio_vtrip_sel[22] 0
11 *324:15 *807:15 0
12 *451:13 *807:11 0.0296314
13 *455:9 *807:15 0
14 *539:257 *807:15 0.000209439
15 *542:51 *807:15 0
16 *543:43 *807:15 0
17 *679:13 *807:15 0.00774654
18 *720:9 *807:15 0.00463661
19 *785:11 *807:11 0.0353483
20 *801:11 *807:11 0.00584641
21 *806:11 *807:11 0.108351
*RES
1 *921:gpio_vtrip_sel[22] *807:9 11.1099 
2 *807:9 *807:11 1382.66 
3 *807:11 *807:13 8 
4 *807:13 *807:15 61.7083 
5 *807:15 *807:17 8 
6 *807:17 gpio_vtrip_sel[22] 2653.82 
*END

*D_NET *808 0.41475
*CONN
*P gpio_vtrip_sel[23] O
*I *921:gpio_vtrip_sel[23] O *D CF_CARAVEL_SOC
*CAP
1 gpio_vtrip_sel[23] 0.00231057
2 *921:gpio_vtrip_sel[23] 0.00201303
3 *808:27 0.138523
4 *808:25 0.136212
5 *808:23 0.00127144
6 *808:21 0.00305205
7 *808:11 0.0288545
8 *808:9 0.0290869
9 *808:9 *809:9 0
10 *808:11 *819:11 0.00174132
11 *808:11 *831:11 0.00135125
12 *808:21 *833:21 7.94514e-05
13 *161:15 *808:21 0.00339773
14 *322:313 *808:23 0
15 *322:317 *808:21 0
16 *355:11 *808:11 0
17 *359:11 *808:11 0
18 *388:11 *808:11 0
19 *393:11 *808:11 0.00523832
20 *436:23 *808:23 0.00420523
21 *449:29 *808:11 0.00864606
22 *539:191 *808:21 0
23 *539:219 *808:27 0
24 *693:27 *808:23 0
25 *716:9 *808:27 0
26 *734:11 *808:21 0.00167798
27 *734:11 *808:23 0.000737409
28 *737:73 *808:11 0
29 *791:23 *808:11 0.0463512
30 *807:9 *808:9 0
*RES
1 *921:gpio_vtrip_sel[23] *808:9 12.6555 
2 *808:9 *808:11 899.518 
3 *808:11 *808:21 39.2083 
4 *808:21 *808:23 44.9293 
5 *808:23 *808:25 15 
6 *808:25 *808:27 3080.58 
7 *808:27 gpio_vtrip_sel[23] 49.8489 
*END

*D_NET *809 0.67468
*CONN
*P gpio_vtrip_sel[24] O
*I *921:gpio_vtrip_sel[24] O *D CF_CARAVEL_SOC
*CAP
1 gpio_vtrip_sel[24] 0.000195536
2 *921:gpio_vtrip_sel[24] 0.00314761
3 *809:19 0.00724268
4 *809:11 0.0743454
5 *809:9 0.0704458
6 *809:9 *810:9 0
7 gpio_ib_mode_sel[24] gpio_vtrip_sel[24] 4.88183e-05
8 gpio_oeb[24] *809:19 0
9 *193:63 *809:19 0.00113853
10 *357:19 *809:11 0
11 *358:19 *809:11 0.255042
12 *370:11 *809:11 0.182428
13 *416:11 *809:11 0.0354745
14 *458:11 *809:11 0
15 *555:17 *809:11 0.00469653
16 *556:43 *809:11 0.0404173
17 *721:13 gpio_vtrip_sel[24] 5.76344e-05
18 *808:9 *809:9 0
*RES
1 *921:gpio_vtrip_sel[24] *809:9 15.1456 
2 *809:9 *809:11 3805.4 
3 *809:11 *809:19 46.362 
4 *809:19 gpio_vtrip_sel[24] 8.55813 
*END

*D_NET *810 0.436326
*CONN
*P gpio_vtrip_sel[25] O
*I *921:gpio_vtrip_sel[25] O *D CF_CARAVEL_SOC
*CAP
1 gpio_vtrip_sel[25] 0.00105702
2 *921:gpio_vtrip_sel[25] 0.00990027
3 *810:11 0.069239
4 *810:9 0.0780823
5 *810:9 *811:9 0
6 gpio_ib_mode_sel[25] gpio_vtrip_sel[25] 0.000133508
7 gpio_oeb[29] *810:11 9.9606e-05
8 gpio_out[25] gpio_vtrip_sel[25] 0
9 *337:43 *810:11 0.0468576
10 *439:11 *810:11 0.028789
11 *446:11 *810:11 0
12 *461:11 *810:11 0.180615
13 *547:25 *810:11 0.0158189
14 *782:11 *810:11 0.00573387
15 *809:9 *810:9 0
*RES
1 *921:gpio_vtrip_sel[25] *810:9 29.1419 
2 *810:9 *810:11 2931.38 
3 *810:11 gpio_vtrip_sel[25] 10.5695 
*END

*D_NET *811 0.414457
*CONN
*P gpio_vtrip_sel[26] O
*I *921:gpio_vtrip_sel[26] O *D CF_CARAVEL_SOC
*CAP
1 gpio_vtrip_sel[26] 0.00169185
2 *921:gpio_vtrip_sel[26] 0.00925075
3 *811:11 0.071624
4 *811:9 0.0791829
5 *811:9 *812:9 0
6 gpio_analog_sel[27] *811:11 5.35241e-05
7 gpio_dm2[28] *811:11 0.000167799
8 gpio_holdover[27] *811:11 0.000167799
9 gpio_ib_mode_sel[26] gpio_vtrip_sel[26] 5.10742e-05
10 gpio_oeb[26] gpio_vtrip_sel[26] 0
11 *410:11 *811:11 0
12 *447:17 *811:11 0
13 *462:11 *811:11 0.16267
14 *548:23 *811:11 0.0157429
15 *554:25 *811:11 0.0738546
16 *723:21 gpio_vtrip_sel[26] 0
17 *810:9 *811:9 0
*RES
1 *921:gpio_vtrip_sel[26] *811:9 27.8539 
2 *811:9 *811:11 2702.49 
3 *811:11 gpio_vtrip_sel[26] 11.5215 
*END

*D_NET *812 0.37181
*CONN
*P gpio_vtrip_sel[27] O
*I *921:gpio_vtrip_sel[27] O *D CF_CARAVEL_SOC
*CAP
1 gpio_vtrip_sel[27] 0.00231095
2 *921:gpio_vtrip_sel[27] 0.00856254
3 *812:11 0.0656321
4 *812:9 0.0718836
5 *812:9 *813:9 0
6 gpio_ib_mode_sel[27] gpio_vtrip_sel[27] 0.000288508
7 *289:35 *812:11 0.126035
8 *404:11 *812:11 0
9 *460:11 *812:11 0.00959846
10 *550:23 *812:11 0.0145075
11 *550:27 *812:11 0.00404018
12 *691:15 *812:11 0.0689517
13 *811:9 *812:9 0
*RES
1 *921:gpio_vtrip_sel[27] *812:9 26.48 
2 *812:9 *812:11 2470.07 
3 *812:11 gpio_vtrip_sel[27] 13.194 
*END

*D_NET *813 0.396354
*CONN
*P gpio_vtrip_sel[28] O
*I *921:gpio_vtrip_sel[28] O *D CF_CARAVEL_SOC
*CAP
1 gpio_vtrip_sel[28] 0.00370932
2 *921:gpio_vtrip_sel[28] 0.0065154
3 *813:19 0.0111438
4 *813:17 0.00749789
5 *813:11 0.03517
6 *813:9 0.041622
7 *813:9 *814:9 0
8 *813:11 gpio_vtrip_sel[30] 0.00150677
9 *813:11 *814:11 0.0706868
10 *813:11 *816:21 0.000940782
11 *813:11 *816:25 0.00152887
12 *813:11 *816:27 0.0103549
13 *813:11 *823:11 0.00033276
14 *813:11 *873:49 0
15 *813:19 gpio_vtrip_sel[30] 0.000341652
16 *813:19 *814:19 0.0178912
17 gpio_holdover[33] *813:11 0.000644339
18 gpio_ib_mode_sel[28] gpio_vtrip_sel[28] 0.00203972
19 gpio_ib_mode_sel[30] *813:17 8.91337e-05
20 *205:65 *813:11 0.00482467
21 *284:67 *813:19 0.0171335
22 *369:19 *813:19 0.0196705
23 *398:19 *813:11 0.140557
24 *422:11 *813:11 0.00177839
25 *546:25 *813:11 0
26 *684:21 *813:17 0
27 *725:19 gpio_vtrip_sel[28] 0
28 *761:11 *813:11 0.000374166
29 *812:9 *813:9 0
*RES
1 *921:gpio_vtrip_sel[28] *813:9 22.4443 
2 *813:9 *813:11 1787.62 
3 *813:11 *813:17 16.1848 
4 *813:17 *813:19 81.4203 
5 *813:19 gpio_vtrip_sel[28] 17.1457 
*END

*D_NET *814 0.374749
*CONN
*P gpio_vtrip_sel[29] O
*I *921:gpio_vtrip_sel[29] O *D CF_CARAVEL_SOC
*CAP
1 gpio_vtrip_sel[29] 0.00426088
2 *921:gpio_vtrip_sel[29] 0.00647652
3 *814:19 0.0486328
4 *814:17 0.0444306
5 *814:11 0.0114664
6 *814:9 0.0178843
7 *814:9 *816:9 0
8 *814:11 *816:11 0.0539455
9 *814:11 *816:21 0.00107886
10 *814:11 *816:25 0.00105707
11 *814:11 *823:11 0.0003816
12 *814:11 *873:49 0.0001977
13 *814:17 gpio_vtrip_sel[32] 0.000136063
14 *814:19 gpio_vtrip_sel[30] 0.00420841
15 *814:19 *816:25 0.0015865
16 *814:19 *816:27 0.0588021
17 gpio_holdover[33] *814:11 0.000561871
18 gpio_ib_mode_sel[29] gpio_vtrip_sel[29] 0
19 gpio_ib_mode_sel[36] *814:9 0.000275048
20 *205:65 *814:11 0.00582832
21 *284:65 gpio_vtrip_sel[29] 8.19817e-05
22 *422:11 *814:11 0.00195796
23 *546:25 *814:19 0.0144409
24 *726:21 gpio_vtrip_sel[29] 0
25 *761:11 *814:11 0.00843089
26 *802:15 *814:17 4.83238e-05
27 *813:9 *814:9 0
28 *813:11 *814:11 0.0706868
29 *813:19 *814:19 0.0178912
*RES
1 *921:gpio_vtrip_sel[29] *814:9 22.5301 
2 *814:9 *814:11 900.926 
3 *814:11 *814:17 16.2707 
4 *814:17 *814:19 199.849 
5 *814:19 gpio_vtrip_sel[29] 16.7649 
*END

*D_NET *815 0.995799
*CONN
*P gpio_vtrip_sel[2] O
*I *921:gpio_vtrip_sel[2] O *D CF_CARAVEL_SOC
*CAP
1 gpio_vtrip_sel[2] 0.00190406
2 *921:gpio_vtrip_sel[2] 0.00316672
3 *815:53 0.0130572
4 *815:51 0.0111531
5 *815:49 0.0596608
6 *815:47 0.0633275
7 *815:39 0.00799044
8 *815:25 0.00741195
9 *815:15 0.00879483
10 *815:11 0.01593
11 *815:9 0.0133901
12 *815:9 *826:9 0
13 *815:15 *826:21 0.000888656
14 *815:15 *873:37 0.0094681
15 *815:25 *839:215 0.00103366
16 *815:25 *846:29 0.00194618
17 *815:25 *866:17 0.00677088
18 *815:39 *839:205 0.0133383
19 *815:39 *839:215 0.000230986
20 *815:39 *866:17 4.842e-05
21 *815:47 *826:21 0.00201164
22 *815:49 *839:17 0.0554314
23 *815:49 *839:31 0.0109756
24 *815:49 *839:45 0.007668
25 *815:49 *839:53 0.00275447
26 *815:49 *839:59 0.0190864
27 *815:49 *839:69 0.00471058
28 *815:49 *839:77 0.0135195
29 *815:49 *839:91 0.0104417
30 *815:49 *839:103 0.00966686
31 *815:49 *839:117 0.00480945
32 *815:49 *839:125 0.0141978
33 *815:49 *839:139 0.00961743
34 *815:49 *839:149 0.0095709
35 *815:49 *839:157 0.014289
36 *815:49 *839:165 0.00940153
37 *815:49 *839:173 0.0144255
38 *815:49 *839:187 0.0116774
39 *815:49 *839:193 0.0117334
40 *815:49 *846:13 0.032064
41 *815:49 *858:11 0.00223922
42 *815:49 *866:17 0.0183762
43 gpio_ib_mode_sel[2] gpio_vtrip_sel[2] 0.000598118
44 *120:11 *815:53 0
45 *211:13 *815:49 0.00393013
46 *212:23 *815:49 0.00909007
47 *256:15 *815:49 0.000139955
48 *258:19 *815:49 0.0560157
49 *258:29 *815:49 0.00306529
50 *264:11 *815:53 0.00654107
51 *292:27 *815:11 0
52 *295:27 *815:11 0
53 *305:11 *815:53 0.0286812
54 *311:11 *815:53 0.00696957
55 *322:225 *815:47 6.67499e-05
56 *322:273 *815:15 0.00251022
57 *325:117 *815:47 1.12346e-05
58 *325:125 *815:39 0.000253297
59 *338:79 *815:15 0.0224206
60 *344:15 *815:49 0.0200763
61 *353:11 *815:11 0.0392888
62 *353:35 *815:53 0.0246879
63 *364:43 *815:53 0.0430684
64 *385:11 *815:11 0.002632
65 *386:21 *815:11 0.0150147
66 *386:45 *815:25 0.000178818
67 *386:65 *815:39 0.00191922
68 *386:73 *815:47 0.0163894
69 *397:177 *815:53 0.00060711
70 *419:11 *815:11 0.030393
71 *421:11 *815:11 0.00460226
72 *430:23 *815:25 0.00067454
73 *430:23 *815:49 0.00920891
74 *431:15 *815:49 0.00186047
75 *436:11 *815:11 0.0144819
76 *436:19 *815:11 0.00157273
77 *443:29 *815:49 3.51814e-05
78 *443:31 *815:49 0.0110943
79 *444:15 *815:49 0
80 *451:21 *815:11 0.0108935
81 *451:25 *815:25 0.00104387
82 *467:11 *815:11 0.000251239
83 *469:15 *815:39 0.00331526
84 *469:15 *815:49 0.00774976
85 *529:9 *815:49 0
86 *539:111 *815:47 2.17681e-05
87 *539:151 *815:15 0.00166069
88 *539:151 *815:25 0
89 *541:69 *815:47 0.0156675
90 *541:107 *815:15 0.000961457
91 *550:11 *815:39 0.00289785
92 *550:11 *815:49 0.0394018
93 *552:25 *815:11 0.000232605
94 *693:163 *815:47 0.000120579
95 *735:23 *815:11 0.000239211
96 *737:81 *815:11 0.000190659
97 *737:97 *815:15 0.00211643
98 *737:127 *815:25 0.00128129
99 *793:27 *815:25 0.00119533
100 *793:27 *815:49 0.000299103
*RES
1 *921:gpio_vtrip_sel[2] *815:9 16.0472 
2 *815:9 *815:11 125.974 
3 *815:11 *815:15 49.6155 
4 *815:15 *815:25 32.0085 
5 *815:25 *815:39 45.9339 
6 *815:39 *815:47 48.1888 
7 *815:47 *815:49 461.976 
8 *815:49 *815:51 8 
9 *815:51 *815:53 793.171 
10 *815:53 gpio_vtrip_sel[2] 12.55 
*END

*D_NET *816 0.339692
*CONN
*P gpio_vtrip_sel[30] O
*I *921:gpio_vtrip_sel[30] O *D CF_CARAVEL_SOC
*CAP
1 gpio_vtrip_sel[30] 0.00571603
2 *921:gpio_vtrip_sel[30] 0.00660414
3 *816:27 0.017221
4 *816:25 0.0167649
5 *816:21 0.0075756
6 *816:11 0.0110065
7 *816:9 0.015295
8 *816:9 *817:9 0
9 *816:11 *873:49 0.0098817
10 gpio_ib_mode_sel[30] gpio_vtrip_sel[30] 0.000516087
11 gpio_ib_mode_sel[36] *816:9 0
12 *200:15 gpio_vtrip_sel[30] 0
13 *369:19 gpio_vtrip_sel[30] 0.00771224
14 *369:19 *816:25 0.00228672
15 *369:19 *816:27 0.0332411
16 *398:19 gpio_vtrip_sel[30] 0.00151834
17 *398:19 *816:21 0.000721621
18 *398:19 *816:25 0.00152887
19 *412:11 gpio_vtrip_sel[30] 0.00133068
20 *412:11 *816:21 0.000657185
21 *412:11 *816:25 0.00134609
22 *417:19 *816:21 0.00294189
23 *417:19 *816:25 0.00502626
24 *422:11 *816:11 0.00833953
25 *422:11 *816:21 0.00733611
26 *422:11 *816:25 0.00362
27 *422:27 *816:25 0.000369074
28 *546:25 *816:25 0.000596536
29 *737:39 *816:21 4.96824e-05
30 *761:11 *816:11 0.035138
31 *813:11 gpio_vtrip_sel[30] 0.00150677
32 *813:11 *816:21 0.000940782
33 *813:11 *816:25 0.00152887
34 *813:11 *816:27 0.0103549
35 *813:19 gpio_vtrip_sel[30] 0.000341652
36 *814:9 *816:9 0
37 *814:11 *816:11 0.0539455
38 *814:11 *816:21 0.00107886
39 *814:11 *816:25 0.00105707
40 *814:19 gpio_vtrip_sel[30] 0.00420841
41 *814:19 *816:25 0.0015865
42 *814:19 *816:27 0.0588021
*RES
1 *921:gpio_vtrip_sel[30] *816:9 22.616 
2 *816:9 *816:11 686.824 
3 *816:11 *816:21 33.1677 
4 *816:21 *816:25 27.3317 
5 *816:25 *816:27 135.296 
6 *816:27 gpio_vtrip_sel[30] 35.1105 
*END

*D_NET *817 0.296703
*CONN
*P gpio_vtrip_sel[31] O
*I *921:gpio_vtrip_sel[31] O *D CF_CARAVEL_SOC
*CAP
1 gpio_vtrip_sel[31] 0.00428305
2 *921:gpio_vtrip_sel[31] 0.00615128
3 *817:11 0.0397409
4 *817:9 0.0416092
5 *817:9 *818:9 0
6 *817:11 *818:11 0.0683548
7 gpio_ib_mode_sel[31] gpio_vtrip_sel[31] 0.00224384
8 gpio_out[36] *817:9 0
9 *336:67 *817:11 0.00549583
10 *369:11 *817:11 0.0033681
11 *383:11 *817:11 0.000307582
12 *437:11 *817:11 0.0127211
13 *457:11 *817:11 0.00383927
14 *543:29 *817:9 7.63411e-05
15 *545:15 *817:11 0.01038
16 *729:21 gpio_vtrip_sel[31] 0
17 *769:11 *817:11 0.0981313
18 *816:9 *817:9 0
*RES
1 *921:gpio_vtrip_sel[31] *817:9 21.5427 
2 *817:9 *817:11 278.802 
3 *817:11 gpio_vtrip_sel[31] 18.1836 
*END

*D_NET *818 0.202925
*CONN
*P gpio_vtrip_sel[32] O
*I *921:gpio_vtrip_sel[32] O *D CF_CARAVEL_SOC
*CAP
1 gpio_vtrip_sel[32] 0.00458502
2 *921:gpio_vtrip_sel[32] 0.00500041
3 *818:11 0.0232696
4 *818:9 0.023685
5 gpio_holdover[36] *818:9 0.00394605
6 gpio_ib_mode_sel[32] gpio_vtrip_sel[32] 0
7 gpio_out[36] *818:9 0.00031868
8 *290:15 gpio_vtrip_sel[32] 0.000867343
9 *383:11 *818:11 0.0509633
10 *390:11 *818:11 0.00825883
11 *417:11 *818:11 0.0094016
12 *539:183 *818:11 0.00177485
13 *693:31 *818:11 0.00203535
14 *798:15 *818:9 0.000103763
15 *802:15 gpio_vtrip_sel[32] 0.000224402
16 *814:17 gpio_vtrip_sel[32] 0.000136063
17 *817:9 *818:9 0
18 *817:11 *818:11 0.0683548
*RES
1 *921:gpio_vtrip_sel[32] *818:9 21.3709 
2 *818:9 *818:11 158.723 
3 *818:11 gpio_vtrip_sel[32] 18.0716 
*END

*D_NET *819 0.163766
*CONN
*P gpio_vtrip_sel[33] O
*I *921:gpio_vtrip_sel[33] O *D CF_CARAVEL_SOC
*CAP
1 gpio_vtrip_sel[33] 0.00676954
2 *921:gpio_vtrip_sel[33] 0.00198114
3 *819:11 0.0207121
4 *819:9 0.0159237
5 *819:9 *820:9 0
6 *819:11 *831:11 0.00106627
7 *819:11 *834:11 0
8 gpio_analog_pol[35] *819:11 0.00287239
9 gpio_ib_mode_sel[33] gpio_vtrip_sel[33] 0.00679423
10 gpio_oeb[33] gpio_vtrip_sel[33] 0.00384424
11 *161:19 *819:11 0.025923
12 *356:11 *819:11 0.00217383
13 *382:9 gpio_vtrip_sel[33] 0
14 *383:9 gpio_vtrip_sel[33] 0.000169569
15 *386:11 *819:11 0.0313876
16 *393:11 *819:11 0.0166646
17 *448:13 *819:11 0.000283788
18 *449:29 *819:11 0.00617031
19 *548:23 gpio_vtrip_sel[33] 0.000277438
20 *693:39 gpio_vtrip_sel[33] 0.000279613
21 *736:37 gpio_vtrip_sel[33] 0.00063857
22 *751:11 *819:11 0.00233914
23 *791:21 *819:11 0.00551446
24 *797:11 *819:11 0.0102393
25 *798:15 *819:9 0
26 *808:11 *819:11 0.00174132
*RES
1 *921:gpio_vtrip_sel[33] *819:9 12.5677 
2 *819:9 *819:11 116.073 
3 *819:11 gpio_vtrip_sel[33] 47.0228 
*END

*D_NET *820 0.101634
*CONN
*P gpio_vtrip_sel[34] O
*I *921:gpio_vtrip_sel[34] O *D CF_CARAVEL_SOC
*CAP
1 gpio_vtrip_sel[34] 0.00277239
2 *921:gpio_vtrip_sel[34] 0.00727696
3 *820:11 0.00884328
4 *820:9 0.0133478
5 *820:9 *821:13 0
6 gpio_ib_mode_sel[34] gpio_vtrip_sel[34] 0.00300288
7 gpio_inp_dis[36] *820:9 0.00164793
8 *541:111 *820:11 0.0323704
9 *690:23 *820:11 0.0323725
10 *819:9 *820:9 0
*RES
1 *921:gpio_vtrip_sel[34] *820:9 25.0203 
2 *820:9 *820:11 417.082 
3 *820:11 gpio_vtrip_sel[34] 14.7657 
*END

*D_NET *821 0.0553959
*CONN
*P gpio_vtrip_sel[35] O
*I *921:gpio_vtrip_sel[35] O *D CF_CARAVEL_SOC
*CAP
1 gpio_vtrip_sel[35] 0.00828441
2 *921:gpio_vtrip_sel[35] 0.00910443
3 *821:13 0.0173888
4 *821:13 *822:9 0
5 *821:13 *832:15 0.000174999
6 gpio_dm1[35] gpio_vtrip_sel[35] 0.000176102
7 gpio_ib_mode_sel[35] gpio_vtrip_sel[35] 0.000418479
8 gpio_inp_dis[36] *821:13 0
9 gpio_oeb[35] gpio_vtrip_sel[35] 0.000636406
10 *293:27 gpio_vtrip_sel[35] 0.000411805
11 *293:27 *821:13 0.00126032
12 *384:11 *821:13 0.000792659
13 *414:11 gpio_vtrip_sel[35] 0.000419529
14 *414:11 *821:13 0
15 *420:11 gpio_vtrip_sel[35] 0.00191938
16 *420:11 *821:13 0.0112293
17 *456:27 gpio_vtrip_sel[35] 0.000405131
18 *456:27 *821:13 0.00218494
19 *760:11 *821:13 0.000589128
20 *820:9 *821:13 0
*RES
1 *921:gpio_vtrip_sel[35] *821:13 43.7112 
2 *821:13 gpio_vtrip_sel[35] 30.5073 
*END

*D_NET *822 0.0282748
*CONN
*P gpio_vtrip_sel[36] O
*I *921:gpio_vtrip_sel[36] O *D CF_CARAVEL_SOC
*CAP
1 gpio_vtrip_sel[36] 0.0033899
2 *921:gpio_vtrip_sel[36] 0.0074089
3 *822:13 0.00470287
4 *822:9 0.00872188
5 *822:9 *823:9 0
6 gpio_analog_en[36] *822:9 0.00055865
7 gpio_dm0[36] *822:9 0
8 gpio_dm1[36] *822:9 0.000281527
9 gpio_ib_mode_sel[36] gpio_vtrip_sel[36] 0
10 *402:11 *822:13 0.00321106
11 *465:11 *822:13 0
12 *821:13 *822:9 0
*RES
1 *921:gpio_vtrip_sel[36] *822:9 24.7627 
2 *822:9 *822:13 49.6979 
3 *822:13 gpio_vtrip_sel[36] 6.5996 
*END

*D_NET *823 0.0680103
*CONN
*P gpio_vtrip_sel[37] O
*I *921:gpio_vtrip_sel[37] O *D CF_CARAVEL_SOC
*CAP
1 gpio_vtrip_sel[37] 0.00449544
2 *921:gpio_vtrip_sel[37] 0.00636572
3 *823:11 0.0129765
4 *823:9 0.0148468
5 *823:9 *824:9 0.000389094
6 gpio_dm1[36] *823:9 0.000157463
7 gpio_ib_mode_sel[37] gpio_vtrip_sel[37] 0
8 gpio_out[37] gpio_vtrip_sel[37] 0
9 *398:19 *823:11 0.00222653
10 *422:11 *823:11 0.0210767
11 *437:11 *823:11 0.00250276
12 *693:91 *823:11 0.00225887
13 *813:11 *823:11 0.00033276
14 *814:11 *823:11 0.0003816
15 *822:9 *823:9 0
*RES
1 *921:gpio_vtrip_sel[37] *823:9 22.5731 
2 *823:9 *823:11 48.7984 
3 *823:11 gpio_vtrip_sel[37] 17.1252 
*END

*D_NET *824 0.372051
*CONN
*P gpio_vtrip_sel[38] O
*I *921:gpio_vtrip_sel[38] O *D CF_CARAVEL_SOC
*CAP
1 gpio_vtrip_sel[38] 0.000418048
2 *921:gpio_vtrip_sel[38] 0.00248792
3 *824:23 0.0118976
4 *824:21 0.0114796
5 *824:19 0.00182861
6 *824:17 0.00189236
7 *824:11 0.0119359
8 *824:9 0.0143601
9 *824:9 *825:9 0
10 *824:9 *836:11 0.000227734
11 *824:11 *861:27 0.0286795
12 *824:19 *855:15 0
13 *824:19 *859:23 0.000371069
14 *824:19 *861:25 0.000645702
15 *824:19 *861:27 0.00187039
16 *824:23 *865:11 0.000130216
17 *824:23 *867:11 0.010279
18 *284:39 *824:23 0.00021859
19 *364:37 *824:19 1.69857e-05
20 *382:11 *824:11 0.000520342
21 *385:15 *824:23 0.0686411
22 *387:15 *824:23 0.000587916
23 *388:11 *824:11 0.0745832
24 *413:11 *824:11 0.0315934
25 *428:23 *824:23 0.0674637
26 *541:107 *824:17 9.41704e-05
27 *543:23 *824:11 0.00997326
28 *549:13 *824:23 0.0119756
29 *558:25 *824:11 0.0050937
30 *558:25 *824:19 0.00239643
31 *823:9 *824:9 0.000389094
*RES
1 *921:gpio_vtrip_sel[38] *824:9 14.0219 
2 *824:9 *824:11 948.994 
3 *824:11 *824:17 31.0979 
4 *824:17 *824:19 56.3118 
5 *824:19 *824:21 8 
6 *824:21 *824:23 129.715 
7 *824:23 gpio_vtrip_sel[38] 14.5354 
*END

*D_NET *825 0.458928
*CONN
*P gpio_vtrip_sel[39] O
*I *921:gpio_vtrip_sel[39] O *D CF_CARAVEL_SOC
*CAP
1 gpio_vtrip_sel[39] 0.000907617
2 *921:gpio_vtrip_sel[39] 0.00204547
3 *825:23 0.0251259
4 *825:21 0.0253116
5 *825:17 0.00115009
6 *825:11 0.0135631
7 *825:9 0.0155518
8 *825:9 *827:9 0
9 *825:9 *836:11 0.000227734
10 *825:11 *829:11 0.0749703
11 *825:11 *854:27 0.0275855
12 *825:17 *829:27 4.67488e-05
13 *825:21 *829:33 0
14 *825:21 *854:25 0.000457156
15 *825:21 *865:15 0
16 *825:23 *859:19 6.85171e-05
17 gpio_ib_mode_sel[39] gpio_vtrip_sel[39] 0
18 *248:29 *825:23 0.000256744
19 *250:33 *825:23 0.000531864
20 *335:25 *825:23 0.0123863
21 *386:11 *825:11 0.00166408
22 *390:21 *825:21 0.000359359
23 *429:11 *825:11 3.97759e-05
24 *429:17 *825:11 0.00199379
25 *429:17 *825:21 0.000191276
26 *435:11 *825:11 0.00609436
27 *446:27 *825:23 0.0107471
28 *447:21 *825:23 0.00978593
29 *449:29 *825:11 0.0259618
30 *453:49 *825:23 0.00011756
31 *473:15 *825:23 0.00622749
32 *541:59 *825:23 0.0015442
33 *546:23 *825:23 0.000383919
34 *553:21 *825:21 2.33476e-05
35 *554:13 *825:17 4.67488e-05
36 *558:23 *825:21 4.19894e-05
37 *739:122 *825:23 0.0284226
38 *781:23 *825:23 0.000128635
39 *783:15 *825:23 0.11946
40 *784:13 *825:23 0.042037
41 *785:25 *825:23 0.00102167
42 *786:21 *825:23 0.000124236
43 *797:11 *825:11 0.00232423
44 *824:9 *825:9 0
*RES
1 *921:gpio_vtrip_sel[39] *825:9 12.7339 
2 *825:9 *825:11 982.8 
3 *825:11 *825:17 31.0979 
4 *825:17 *825:21 30.5061 
5 *825:21 *825:23 229.492 
6 *825:23 gpio_vtrip_sel[39] 21.3089 
*END

*D_NET *826 0.806088
*CONN
*P gpio_vtrip_sel[3] O
*I *921:gpio_vtrip_sel[3] O *D CF_CARAVEL_SOC
*CAP
1 gpio_vtrip_sel[3] 0.00249609
2 *921:gpio_vtrip_sel[3] 0.00179916
3 *826:131 0.0277027
4 *826:129 0.0252066
5 *826:127 0.00961674
6 *826:125 0.00969071
7 *826:119 0.00460167
8 *826:117 0.00557137
9 *826:109 0.00157191
10 *826:101 0.00074439
11 *826:95 0.00257347
12 *826:93 0.00235733
13 *826:91 0.00250252
14 *826:79 0.00375043
15 *826:77 0.00125969
16 *826:71 0.00177279
17 *826:63 0.00273413
18 *826:61 0.000973118
19 *826:59 0.000591974
20 *826:47 0.0270646
21 *826:45 0.0264726
22 *826:43 0.000747967
23 *826:37 0.00107526
24 *826:31 0.0209856
25 *826:29 0.0206583
26 *826:27 0.00465111
27 *826:21 0.0407187
28 *826:11 0.0583423
29 *826:9 0.0240738
30 *826:11 *846:39 0.00420246
31 *826:11 *852:27 0.00166202
32 *826:11 *864:15 0.00225889
33 *826:21 *867:21 0.00228663
34 *826:27 *840:19 0.00761151
35 gpio_ib_mode_sel[3] gpio_vtrip_sel[3] 0.000657511
36 gpio_out[39] *826:27 0.00118806
37 *921:gpio_in[10] *826:21 0.000164637
38 *921:gpio_in[16] *826:21 0.00205973
39 *921:gpio_in[37] *826:43 0
40 *118:23 *826:127 0.00391548
41 *118:37 *826:125 0.000130582
42 *118:39 *826:127 5.50049e-05
43 *118:69 *826:101 0.000276894
44 *118:115 *826:47 0.00813343
45 *118:135 *826:47 0
46 *118:207 *826:21 0.00296231
47 *125:15 *826:127 0.00154349
48 *261:11 *826:131 0.065814
49 *283:11 *826:131 0
50 *293:15 *826:43 0.00015451
51 *322:39 *826:127 0.02057
52 *322:59 *826:125 0.000132813
53 *322:95 *826:101 2.68403e-05
54 *322:95 *826:109 6.32615e-05
55 *322:173 *826:43 1.00446e-05
56 *322:187 *826:31 0.00165577
57 *322:209 *826:27 0.000163779
58 *322:225 *826:21 0.0015292
59 *322:235 *826:21 0.000357202
60 *322:245 *826:21 0.00164185
61 *325:125 *826:21 0.00146069
62 *325:139 *826:21 0.00203176
63 *325:155 *826:21 0.00387052
64 *335:49 *826:21 0.000151136
65 *335:55 *826:21 0.000175945
66 *336:39 *826:71 1.24633e-05
67 *338:35 *826:47 0.0070283
68 *338:79 *826:21 0.00200775
69 *347:11 *826:131 0.0282113
70 *386:11 *826:11 0.0399289
71 *386:25 *826:21 0.00515517
72 *386:53 *826:21 0.0023002
73 *386:73 *826:21 0.00232446
74 *386:81 *826:21 0.000152538
75 *386:81 *826:27 0.000592356
76 *386:175 *826:79 0.00200615
77 *386:183 *826:91 0.00019162
78 *386:189 *826:101 1.01436e-05
79 *386:211 *826:131 0.00650145
80 *397:15 *826:21 0.00336866
81 *397:31 *826:21 0.000373162
82 *397:39 *826:21 0.00280592
83 *397:49 *826:21 0.000224933
84 *397:57 *826:21 0.00215783
85 *397:69 *826:21 0.000567912
86 *397:69 *826:27 0.000412834
87 *397:75 *826:27 0.000414937
88 *397:79 *826:43 0.00170274
89 *397:91 *826:59 0.000806895
90 *397:95 *826:63 0.000175708
91 *397:103 *826:71 0.0101107
92 *397:109 *826:77 2.33476e-05
93 *397:111 *826:79 4.34876e-05
94 *397:135 *826:109 0.000111943
95 *408:53 *826:79 2.18409e-05
96 *408:63 *826:95 0.00699099
97 *408:95 *826:119 0.000693437
98 *419:15 *826:21 0.00439142
99 *419:23 *826:27 0.00049019
100 *419:95 *826:63 0.00555895
101 *419:119 *826:79 0.00733358
102 *419:131 *826:91 0.00861297
103 *425:11 *826:11 0.00259791
104 *435:11 *826:11 0.00146427
105 *444:35 *826:117 0
106 *444:55 *826:47 0
107 *444:61 *826:43 7.45617e-05
108 *444:71 *826:27 0.00259388
109 *444:79 *826:21 0.0026379
110 *448:21 *826:11 0.00658013
111 *450:41 *826:27 0
112 *471:11 *826:11 0.000340272
113 *471:25 *826:21 0.000331988
114 *472:55 *826:27 0.0123504
115 *472:55 *826:43 0.000340525
116 *530:27 *826:63 1.03836e-05
117 *530:55 *826:95 2.32004e-05
118 *530:69 *826:109 2.85501e-06
119 *530:69 *826:117 0.00726659
120 *532:12 *826:47 0.000481385
121 *532:12 *826:59 0
122 *532:32 *826:127 0.00141577
123 *533:30 *826:63 0.000406541
124 *533:34 *826:63 0.00186881
125 *533:62 *826:91 1.65299e-05
126 *533:84 *826:109 0.000220782
127 *533:94 *826:119 0
128 *533:102 *826:127 0.000102375
129 *535:33 *826:79 0.000586255
130 *535:57 *826:91 0.000886082
131 *535:65 *826:95 0.000170857
132 *535:75 *826:109 0.00186288
133 *535:75 *826:117 7.20213e-06
134 *535:93 *826:117 0.00222892
135 *536:35 *826:109 0
136 *536:51 *826:119 0.00200446
137 *536:63 *826:119 0.000831332
138 *536:63 *826:127 0.00152238
139 *537:24 *826:109 0.000617576
140 *539:61 *826:43 7.60385e-05
141 *539:73 *826:31 0.00287915
142 *539:75 *826:31 0.00942683
143 *539:111 *826:21 0.0015283
144 *539:133 *826:21 0.00265518
145 *539:151 *826:21 0.000103036
146 *540:16 *826:59 0.000206249
147 *540:16 *826:71 0.000924931
148 *540:34 *826:119 0.00680025
149 *541:35 *826:31 0.00981475
150 *541:69 *826:21 0.00174137
151 *541:85 *826:21 0.00173548
152 *543:23 *826:11 0
153 *551:43 *826:59 0.00186973
154 *551:49 *826:59 1.1644e-05
155 *551:51 *826:63 0.00403904
156 *551:107 *826:117 4.42495e-05
157 *556:21 *826:21 0.000795974
158 *556:29 *826:21 0.0012869
159 *556:41 *826:21 0.00530751
160 *562:23 *826:47 0.000274382
161 *562:59 *826:71 0.0101563
162 *562:65 *826:77 2.11066e-05
163 *562:67 *826:79 0.00452077
164 *562:105 *826:117 0.00766826
165 *562:117 *826:119 0.000119224
166 *567:14 *826:127 0
167 *568:11 *826:127 0
168 *569:18 *826:47 0.00628134
169 *569:18 *826:127 0.0345073
170 *572:16 *826:127 0
171 *693:121 *826:21 0.00153262
172 *693:189 *826:27 0
173 *696:89 *826:119 0.000598728
174 *696:119 *826:63 5.50106e-05
175 *696:129 *826:71 2.24608e-05
176 *696:159 *826:47 0.000525841
177 *698:21 gpio_vtrip_sel[3] 3.52796e-05
178 *737:97 *826:21 0.00091636
179 *737:135 *826:21 0.00170427
180 *737:147 *826:21 0.000196739
181 *737:151 *826:21 0.00140257
182 *737:173 *826:21 0.000169145
183 *739:74 *826:21 0.00170947
184 *739:92 *826:21 0.0015292
185 *740:107 *826:119 5.50049e-05
186 *741:140 *826:95 0.000765651
187 *741:154 *826:91 0.000287108
188 *815:9 *826:9 0
189 *815:15 *826:21 0.000888656
190 *815:47 *826:21 0.00201164
*RES
1 *921:gpio_vtrip_sel[3] *826:9 12.9112 
2 *826:9 *826:11 128.132 
3 *826:11 *826:21 23.7892 
4 *826:21 *826:27 44.7174 
5 *826:27 *826:29 15 
6 *826:29 *826:31 518.976 
7 *826:31 *826:37 35.7793 
8 *826:37 *826:43 39.505 
9 *826:43 *826:45 15 
10 *826:45 *826:47 705.736 
11 *826:47 *826:59 39.9769 
12 *826:59 *826:61 15 
13 *826:61 *826:63 66.845 
14 *826:63 *826:71 42.096 
15 *826:71 *826:77 23.3211 
16 *826:77 *826:79 82.0907 
17 *826:79 *826:91 47.678 
18 *826:91 *826:93 15 
19 *826:93 *826:95 77.3264 
20 *826:95 *826:101 34.0186 
21 *826:101 *826:109 46.2104 
22 *826:109 *826:117 38.8678 
23 *826:117 *826:119 154.031 
24 *826:119 *826:125 31.9057 
25 *826:125 *826:127 437.506 
26 *826:127 *826:129 15 
27 *826:129 *826:131 1016.96 
28 *826:131 gpio_vtrip_sel[3] 13.5431 
*END

*D_NET *827 0.568427
*CONN
*P gpio_vtrip_sel[40] O
*I *921:gpio_vtrip_sel[40] O *D CF_CARAVEL_SOC
*CAP
1 gpio_vtrip_sel[40] 0.00168851
2 *921:gpio_vtrip_sel[40] 0.00324705
3 *827:19 0.0353976
4 *827:17 0.0338573
5 *827:11 0.0127211
6 *827:9 0.01582
7 *827:9 *828:9 0
8 *827:9 *836:11 0.000227734
9 *827:11 *857:15 6.99132e-06
10 *827:11 *857:23 0.0289887
11 *827:19 *828:15 0.147136
12 *827:19 *837:11 0.000414014
13 *164:43 *827:19 0.015376
14 *255:15 *827:19 0.00338874
15 *292:27 *827:11 0.0107901
16 *297:20 gpio_vtrip_sel[40] 0.00070421
17 *336:63 *827:19 0.000196876
18 *339:23 *827:19 0.00668567
19 *364:39 *827:19 0.022296
20 *389:11 *827:11 0.0107628
21 *431:19 gpio_vtrip_sel[40] 0
22 *438:19 *827:11 0.0281834
23 *453:41 *827:11 7.00754e-06
24 *453:47 *827:11 0.000573368
25 *462:21 *827:17 0.000111172
26 *464:21 *827:17 0.000105065
27 *464:21 *827:19 0.000175785
28 *472:11 *827:17 3.73024e-05
29 *472:11 *827:19 0.0629803
30 *482:15 *827:19 0.0223551
31 *555:17 *827:11 0.0782756
32 *558:13 *827:19 0.0259175
33 *825:9 *827:9 0
*RES
1 *921:gpio_vtrip_sel[40] *827:9 15.3957 
2 *827:9 *827:11 997.414 
3 *827:11 *827:17 8.62533 
4 *827:17 *827:19 283.115 
5 *827:19 gpio_vtrip_sel[40] 36.6375 
*END

*D_NET *828 0.659624
*CONN
*P gpio_vtrip_sel[41] O
*I *921:gpio_vtrip_sel[41] O *D CF_CARAVEL_SOC
*CAP
1 gpio_vtrip_sel[41] 0.00191937
2 *921:gpio_vtrip_sel[41] 0.000852813
3 *828:15 0.0311851
4 *828:13 0.0292657
5 *828:11 0.0150759
6 *828:9 0.0159287
7 *828:9 *836:11 0.000227734
8 *828:11 *830:11 0.0785441
9 *828:11 *856:17 0.000292538
10 *828:11 *856:19 0.0282286
11 *828:11 *858:23 0.000580104
12 *828:15 *837:11 0.174228
13 gpio_ib_mode_sel[41] gpio_vtrip_sel[41] 0
14 *255:15 *828:15 2.90716e-05
15 *297:14 *828:15 0.0270297
16 *400:11 *828:11 0.00650997
17 *403:11 *828:11 0.000579499
18 *405:11 *828:11 0.0371207
19 *434:11 *828:11 0
20 *450:27 *828:11 0.000531633
21 *483:23 *828:15 0.0267102
22 *555:13 *828:15 0.0309455
23 *558:13 *828:15 0.00402396
24 *786:11 *828:11 0.0026795
25 *827:9 *828:9 0
26 *827:19 *828:15 0.147136
*RES
1 *921:gpio_vtrip_sel[41] *828:9 10.1579 
2 *828:9 *828:11 1004.46 
3 *828:11 *828:13 8 
4 *828:13 *828:15 329.355 
5 *828:15 gpio_vtrip_sel[41] 36.2439 
*END

*D_NET *829 0.583082
*CONN
*P gpio_vtrip_sel[42] O
*I *921:gpio_vtrip_sel[42] O *D CF_CARAVEL_SOC
*CAP
1 gpio_vtrip_sel[42] 0.000649111
2 *921:gpio_vtrip_sel[42] 0.00192104
3 *829:43 0.0370232
4 *829:41 0.036402
5 *829:35 0.0179563
6 *829:33 0.0191629
7 *829:27 0.00230981
8 *829:21 0.0012995
9 *829:11 0.0124378
10 *829:9 0.0141346
11 *829:9 *830:9 0
12 *829:21 *865:15 0
13 *829:27 *865:15 0
14 *829:33 *852:27 9.94708e-05
15 *829:33 *854:25 0.000473671
16 *829:33 *854:27 9.72298e-05
17 *829:33 *864:15 0.000287757
18 *829:33 *865:15 0
19 *829:35 *859:11 0.00153325
20 *829:35 *859:19 0.00109616
21 *829:35 *863:21 9.92705e-05
22 *829:35 *873:13 0.00339139
23 *829:35 *873:29 0.00576676
24 gpio_ib_mode_sel[42] gpio_vtrip_sel[42] 0
25 *249:25 *829:33 0.000122266
26 *252:15 *829:35 0.000167423
27 *300:25 gpio_vtrip_sel[42] 4.88743e-05
28 *345:23 *829:43 0.000176157
29 *385:15 *829:35 0.0102989
30 *386:11 *829:11 0.00166408
31 *390:21 *829:27 7.23298e-05
32 *429:11 *829:11 0.0507492
33 *429:11 *829:21 0.000115228
34 *429:17 *829:21 2.61745e-05
35 *429:17 *829:27 0.00189528
36 *433:10 *829:35 0.0709759
37 *433:10 *829:43 0.0206506
38 *433:20 *829:43 0.00280472
39 *435:11 *829:11 0.00513286
40 *448:13 *829:11 0.0108857
41 *449:29 *829:11 0.000627725
42 *457:21 *829:27 7.45617e-05
43 *458:21 *829:27 2.31765e-05
44 *554:13 *829:27 1.89135e-05
45 *560:27 *829:35 0.007954
46 *693:95 *829:21 9.66585e-05
47 *771:23 *829:27 0.000157633
48 *784:21 *829:43 0.0121617
49 *785:27 *829:35 0.0137418
50 *785:27 *829:43 0.121926
51 *786:23 *829:35 0.0118073
52 *786:23 *829:43 0.00139285
53 *797:11 *829:11 0.000957986
54 *798:19 *829:11 0.00519677
55 *804:23 *829:43 0
56 *825:11 *829:11 0.0749703
57 *825:17 *829:27 4.67488e-05
58 *825:21 *829:33 0
*RES
1 *921:gpio_vtrip_sel[42] *829:9 12.5211 
2 *829:9 *829:11 976.109 
3 *829:11 *829:21 34.1532 
4 *829:21 *829:27 42.7261 
5 *829:27 *829:33 49.7318 
6 *829:33 *829:35 138.387 
7 *829:35 *829:41 23.3211 
8 *829:41 *829:43 1358.92 
9 *829:43 gpio_vtrip_sel[42] 24.9429 
*END

*D_NET *830 0.661855
*CONN
*P gpio_vtrip_sel[43] O
*I *921:gpio_vtrip_sel[43] O *D CF_CARAVEL_SOC
*CAP
1 gpio_vtrip_sel[43] 0.0011048
2 *921:gpio_vtrip_sel[43] 0.000802028
3 *830:15 0.0362321
4 *830:13 0.0351273
5 *830:11 0.0137129
6 *830:9 0.014515
7 *830:9 *836:11 0.000227734
8 *830:11 *856:17 0.000147944
9 *830:11 *860:15 0.00142587
10 *830:11 *860:19 0.0261186
11 *830:15 *856:11 0.224394
12 *830:15 *864:11 0.0482265
13 gpio_ib_mode_sel[43] gpio_vtrip_sel[43] 0
14 *207:23 *830:15 0.00472569
15 *284:21 gpio_vtrip_sel[43] 0.000648979
16 *353:31 *830:15 0.122736
17 *400:11 *830:11 0.00215784
18 *401:11 *830:11 0.0404387
19 *405:11 *830:11 0.000583924
20 *450:13 *830:11 0.00453882
21 *450:27 *830:11 0.000921857
22 *454:49 *830:11 0.00224006
23 *546:9 gpio_vtrip_sel[43] 0
24 *749:9 *830:9 0
25 *786:11 *830:11 0.00228424
26 *828:11 *830:11 0.0785441
27 *829:9 *830:9 0
*RES
1 *921:gpio_vtrip_sel[43] *830:9 10.072 
2 *830:9 *830:11 1026.82 
3 *830:11 *830:13 15 
4 *830:13 *830:15 2396.1 
5 *830:15 gpio_vtrip_sel[43] 33.0629 
*END

*D_NET *831 0.841039
*CONN
*P gpio_vtrip_sel[4] O
*I *921:gpio_vtrip_sel[4] O *D CF_CARAVEL_SOC
*CAP
1 gpio_vtrip_sel[4] 0.0096518
2 *921:gpio_vtrip_sel[4] 0.00198003
3 *831:83 0.0127743
4 *831:81 0.00597549
5 *831:75 0.00477294
6 *831:73 0.00191994
7 *831:71 0.00363389
8 *831:61 0.00392198
9 *831:55 0.000732891
10 *831:49 0.000681157
11 *831:43 0.0024871
12 *831:41 0.00560086
13 *831:31 0.0621222
14 *831:29 0.0587721
15 *831:27 0.00833001
16 *831:25 0.009526
17 *831:19 0.0019429
18 *831:17 0.00107093
19 *831:11 0.0143043
20 *831:9 0.0159603
21 *831:9 *832:9 0
22 gpio_ib_mode_sel[4] gpio_vtrip_sel[4] 0.00136623
23 gpio_oeb[4] gpio_vtrip_sel[4] 0
24 gpio_out[4] gpio_vtrip_sel[4] 0
25 *101:11 *831:75 0.00929544
26 *102:11 *831:71 0.000118027
27 *106:11 *831:71 0.00144279
28 *110:11 *831:71 0.00144543
29 *116:35 *831:61 2.34364e-05
30 *116:45 *831:41 0.000713255
31 *117:35 *831:41 0.000108674
32 *140:63 *831:41 0
33 *141:9 *831:81 0.00408191
34 *141:25 *831:31 0.00267352
35 *150:19 *831:55 0.00244863
36 *150:19 *831:61 0.000977059
37 *152:19 *831:55 0.00245085
38 *157:37 *831:43 0.000911662
39 *158:22 *831:41 0.000359398
40 *159:13 *831:75 0.000225986
41 *165:9 *831:71 0
42 *168:9 *831:71 0.00402423
43 *169:9 *831:71 0
44 *170:17 gpio_vtrip_sel[4] 0.000508793
45 *179:11 *831:75 0.00103337
46 *190:9 gpio_vtrip_sel[4] 0
47 *191:9 gpio_vtrip_sel[4] 0.000281183
48 *194:33 *831:81 0
49 *196:27 *831:41 0.00037317
50 *197:11 *831:83 0.01428
51 *204:21 *831:61 0.00146425
52 *212:17 gpio_vtrip_sel[4] 0.00167265
53 *213:11 *831:83 0.00396182
54 *214:11 *831:83 0.000875633
55 *227:11 *831:83 0.00143946
56 *228:25 *831:31 0.0123746
57 *230:25 *831:31 0.00481653
58 *242:25 *831:31 0.000214251
59 *247:15 *831:31 0.297549
60 *274:51 *831:83 0.00946373
61 *280:17 *831:71 7.20663e-06
62 *285:11 *831:83 0.000406154
63 *286:29 *831:31 0.000260563
64 *288:53 *831:71 0.00070528
65 *288:57 *831:75 6.17582e-05
66 *328:53 *831:43 0
67 *330:13 *831:43 0.00646904
68 *334:32 *831:55 0.000435696
69 *358:17 *831:25 0.00184649
70 *359:9 *831:25 0
71 *364:17 *831:11 0.00170017
72 *375:11 *831:11 0.000932421
73 *375:27 *831:27 0.000875309
74 *382:11 *831:11 0.00136344
75 *386:11 *831:11 0.0470972
76 *391:15 *831:31 0.0850124
77 *392:9 *831:17 0
78 *392:35 *831:41 0.000203065
79 *393:9 *831:17 0.000247641
80 *393:11 *831:11 7.51663e-05
81 *425:11 *831:11 0.0121589
82 *449:13 *831:27 0.00362535
83 *453:17 *831:27 0.013446
84 *456:19 *831:27 0.0123063
85 *472:27 *831:27 0
86 *530:113 *831:75 0.00334194
87 *542:39 *831:27 0.00839046
88 *705:23 *831:31 0.0168356
89 *758:9 *831:27 0.00218828
90 *788:37 *831:61 0.000449158
91 *797:19 *831:19 0.00452356
92 *798:19 *831:19 0.00452092
93 *808:11 *831:11 0.00135125
94 *819:11 *831:11 0.00106627
*RES
1 *921:gpio_vtrip_sel[4] *831:9 13.292 
2 *831:9 *831:11 113.788 
3 *831:11 *831:17 16.7 
4 *831:17 *831:19 57.8964 
5 *831:19 *831:25 19.6624 
6 *831:25 *831:27 369.191 
7 *831:27 *831:29 8 
8 *831:29 *831:31 543.635 
9 *831:31 *831:41 32.4616 
10 *831:41 *831:43 82.0182 
11 *831:43 *831:49 33.0036 
12 *831:49 *831:55 47.2314 
13 *831:55 *831:61 41.9846 
14 *831:61 *831:71 44.0138 
15 *831:71 *831:73 8 
16 *831:73 *831:75 118.465 
17 *831:75 *831:81 24.2133 
18 *831:81 *831:83 218.474 
19 *831:83 gpio_vtrip_sel[4] 30.5055 
*END

*D_NET *832 0.987043
*CONN
*P gpio_vtrip_sel[5] O
*I *921:gpio_vtrip_sel[5] O *D CF_CARAVEL_SOC
*CAP
1 gpio_vtrip_sel[5] 0.00331608
2 *921:gpio_vtrip_sel[5] 0.00365131
3 *832:59 0.00735737
4 *832:57 0.00483647
5 *832:51 0.00336739
6 *832:49 0.00431937
7 *832:39 0.0449158
8 *832:37 0.0451301
9 *832:27 0.0108538
10 *832:25 0.011218
11 *832:19 0.019702
12 *832:17 0.0173763
13 *832:15 0.00751625
14 *832:9 0.0111676
15 *832:9 *833:9 0
16 gpio_dm0[36] *832:15 0.000283743
17 gpio_ib_mode_sel[5] gpio_vtrip_sel[5] 0.000509807
18 gpio_inp_dis[36] *832:15 0
19 *114:23 *832:49 0.000308156
20 *138:11 *832:49 2.92718e-05
21 *141:25 *832:39 0.0129564
22 *168:11 *832:59 0
23 *178:19 *832:51 0.00259366
24 *193:57 *832:39 0.000357835
25 *203:15 *832:39 0.307414
26 *203:15 *832:49 0.000817541
27 *205:53 *832:37 0.00153442
28 *205:53 *832:39 0.307566
29 *205:53 *832:49 0.000544487
30 *218:11 *832:59 0.0105031
31 *223:19 *832:49 0.000109763
32 *273:11 *832:59 0
33 *283:15 *832:39 0.000350519
34 *284:59 *832:27 0
35 *365:11 *832:19 0
36 *366:9 *832:25 0.000381289
37 *367:9 *832:25 0
38 *384:11 *832:15 0.00302652
39 *391:33 *832:57 3.48285e-05
40 *409:11 *832:27 0
41 *414:11 *832:15 0.00195009
42 *420:11 *832:15 0.00923988
43 *422:11 *832:27 0.00281566
44 *422:27 *832:37 4.8098e-05
45 *445:11 *832:51 0.0114793
46 *456:27 *832:15 0.00190593
47 *469:11 *832:19 0
48 *539:159 *832:19 0.00511802
49 *539:165 *832:19 0.000804987
50 *539:167 *832:19 0.0196435
51 *546:25 *832:27 0.0241353
52 *691:11 *832:37 0.0031607
53 *691:11 *832:39 6.62996e-05
54 *705:23 *832:39 0.0528822
55 *733:10 *832:19 0
56 *737:55 *832:25 7.66408e-05
57 *760:11 *832:15 0.00301819
58 *765:17 *832:37 0.000277277
59 *782:15 *832:49 0
60 *787:19 *832:51 0.00619643
61 *821:13 *832:15 0.000174999
62 *831:9 *832:9 0
*RES
1 *921:gpio_vtrip_sel[5] *832:9 17.2493 
2 *832:9 *832:15 47.2205 
3 *832:15 *832:17 8 
4 *832:17 *832:19 522.725 
5 *832:19 *832:25 20.8645 
6 *832:25 *832:27 307.918 
7 *832:27 *832:37 15.0467 
8 *832:37 *832:39 563.298 
9 *832:39 *832:49 30.5898 
10 *832:49 *832:51 148.749 
11 *832:51 *832:57 17.344 
12 *832:57 *832:59 135.368 
13 *832:59 gpio_vtrip_sel[5] 15.1689 
*END

*D_NET *833 0.745249
*CONN
*P gpio_vtrip_sel[6] O
*I *921:gpio_vtrip_sel[6] O *D CF_CARAVEL_SOC
*CAP
1 gpio_vtrip_sel[6] 0.00193592
2 *921:gpio_vtrip_sel[6] 0.00447254
3 *833:35 0.00271559
4 *833:31 0.012861
5 *833:29 0.0122128
6 *833:23 0.063428
7 *833:21 0.066865
8 *833:11 0.01922
9 *833:9 0.0201242
10 gpio_ib_mode_sel[6] gpio_vtrip_sel[6] 0.000562062
11 *118:211 *833:11 0.0161816
12 *159:15 *833:23 0.272207
13 *161:15 *833:21 0.00407446
14 *161:15 *833:23 0.0748725
15 *271:15 *833:31 2.50118e-05
16 *274:125 *833:31 0
17 *315:15 *833:31 0.00914478
18 *393:27 *833:35 0.00212557
19 *413:17 *833:21 0.000129008
20 *440:19 *833:11 0.0788921
21 *471:9 *833:9 0
22 *689:15 *833:11 0.048724
23 *692:11 *833:23 0.00379823
24 *693:27 *833:23 0.00300478
25 *731:14 *833:21 0.00735061
26 *731:14 *833:23 0.00946491
27 *734:11 *833:21 0.000485779
28 *734:15 *833:11 0.00691003
29 *782:19 *833:35 0
30 *789:23 *833:31 0.00338182
31 *808:21 *833:21 7.94514e-05
32 *832:9 *833:9 0
*RES
1 *921:gpio_vtrip_sel[6] *833:9 18.9237 
2 *833:9 *833:11 1017.84 
3 *833:11 *833:21 40.2928 
4 *833:21 *833:23 513.968 
5 *833:23 *833:29 25.0818 
6 *833:29 *833:31 255.987 
7 *833:31 *833:35 42.0839 
8 *833:35 gpio_vtrip_sel[6] 12.5892 
*END

*D_NET *834 0.6668
*CONN
*P gpio_vtrip_sel[7] O
*I *921:gpio_vtrip_sel[7] O *D CF_CARAVEL_SOC
*CAP
1 gpio_vtrip_sel[7] 0.00015103
2 *921:gpio_vtrip_sel[7] 0.00146862
3 *834:15 0.160091
4 *834:13 0.15994
5 *834:11 0.0705246
6 *834:9 0.0719932
7 *834:9 *835:9 0
8 *834:11 *835:11 0.00100059
9 gpio_analog_pol[35] *834:11 0
10 gpio_ib_mode_sel[7] *834:15 0.0103533
11 *140:187 *834:15 0
12 *161:19 *834:11 0
13 *386:11 *834:11 0
14 *391:11 *834:11 0
15 *399:11 *834:11 0
16 *451:13 *834:11 0.016699
17 *702:13 *834:15 0
18 *746:13 *834:15 0
19 *785:11 *834:11 0.00785156
20 *791:21 *834:11 0
21 *792:11 *834:11 0.12181
22 *795:11 *834:11 0.0225254
23 *797:11 *834:11 0
24 *801:11 *834:11 0.00603018
25 *805:11 *834:11 0.00482549
26 *807:11 *834:11 0.0115363
27 *819:11 *834:11 0
*RES
1 *921:gpio_vtrip_sel[7] *834:9 11.7464 
2 *834:9 *834:11 340.618 
3 *834:11 *834:13 8 
4 *834:13 *834:15 571.125 
5 *834:15 gpio_vtrip_sel[7] 0.5796 
*END

*D_NET *835 0.957505
*CONN
*P gpio_vtrip_sel[8] O
*I *921:gpio_vtrip_sel[8] O *D CF_CARAVEL_SOC
*CAP
1 gpio_vtrip_sel[8] 3.04006e-05
2 *921:gpio_vtrip_sel[8] 0.00135396
3 *835:15 0.103079
4 *835:13 0.103048
5 *835:11 0.034768
6 *835:9 0.0361219
7 *835:9 *836:9 0
8 gpio_ib_mode_sel[8] *835:15 0.000926129
9 *399:11 *835:11 8.7823e-05
10 *439:15 *835:15 0.30945
11 *703:11 *835:15 0
12 *792:11 *835:11 0.140304
13 *794:11 *835:11 0.163739
14 *795:11 *835:11 0.0225081
15 *795:19 *835:11 0.0191702
16 *799:11 *835:11 0.000108674
17 *800:11 *835:11 0.0218094
18 *834:9 *835:9 0
19 *834:11 *835:11 0.00100059
*RES
1 *921:gpio_vtrip_sel[8] *835:9 11.4029 
2 *835:9 *835:11 381.998 
3 *835:11 *835:13 8 
4 *835:13 *835:15 570.782 
5 *835:15 gpio_vtrip_sel[8] 0.116667 
*END

*D_NET *836 0.710712
*CONN
*P gpio_vtrip_sel[9] O
*I *921:gpio_vtrip_sel[9] O *D CF_CARAVEL_SOC
*CAP
1 gpio_vtrip_sel[9] 0.000258041
2 *921:gpio_vtrip_sel[9] 0.000362375
3 *836:15 0.160262
4 *836:13 0.160004
5 *836:11 0.0579962
6 *836:9 0.0583586
7 gpio_holdover[9] *836:15 0
8 *322:367 *836:15 0.00143118
9 *375:27 *836:11 0.00220882
10 *449:13 *836:11 0.00563086
11 *453:17 *836:11 0.00634243
12 *456:19 *836:11 0.00192611
13 *472:27 *836:11 0.00179503
14 *538:283 *836:15 0
15 *544:25 *836:11 0.00220882
16 *704:11 *836:15 0
17 *748:11 *836:15 0
18 *749:9 *836:11 0.000227734
19 *750:9 *836:11 0.000227734
20 *752:9 *836:11 0.000227734
21 *752:11 *836:11 0
22 *755:9 *836:11 0.000227734
23 *756:6 *836:11 0.154545
24 *758:9 *836:11 0.0445982
25 *771:9 *836:11 0.000227734
26 *783:11 *836:11 0.00666023
27 *784:9 *836:11 0.041341
28 *790:9 *836:11 0.000227734
29 *791:21 *836:11 0.000227734
30 *792:9 *836:11 0.000227734
31 *794:9 *836:9 0
32 *794:9 *836:11 0.000227734
33 *795:9 *836:11 0.000227734
34 *796:9 *836:11 0.000227734
35 *797:9 *836:11 0.000227734
36 *798:15 *836:11 0.000227734
37 *799:9 *836:11 0.000227734
38 *800:9 *836:11 0.000227734
39 *801:9 *836:11 0.000227734
40 *824:9 *836:11 0.000227734
41 *825:9 *836:11 0.000227734
42 *827:9 *836:11 0.000227734
43 *828:9 *836:11 0.000227734
44 *830:9 *836:11 0.000227734
45 *835:9 *836:9 0
*RES
1 *921:gpio_vtrip_sel[9] *836:9 8.82693 
2 *836:9 *836:11 421.855 
3 *836:11 *836:13 8 
4 *836:13 *836:15 568.206 
5 *836:15 gpio_vtrip_sel[9] 0.990267 
*END

*D_NET *837 0.769839
*CONN
*P mask_rev[0] I
*I *921:mask_rev[0] I *D CF_CARAVEL_SOC
*CAP
1 mask_rev[0] 0.00134603
2 *921:mask_rev[0] 0.00178696
3 *837:15 0.00490764
4 *837:13 0.00312068
5 *837:11 0.0549624
6 *837:9 0.0563084
7 *921:mask_rev[0] *844:17 0.000112317
8 *837:9 *848:9 0
9 *837:9 *859:9 0
10 *837:9 *862:9 0
11 *837:9 *866:13 0.000308418
12 *837:11 *838:11 0.28653
13 *837:15 *845:25 5.4861e-05
14 *837:15 *845:27 0.0133924
15 *837:15 *865:15 0.00678813
16 *289:23 *837:11 0.00665884
17 *297:14 *837:11 0.055812
18 *336:63 *837:11 0.000687921
19 *428:21 *837:15 0.00106381
20 *430:11 *837:15 0.00199671
21 *433:6 *921:mask_rev[0] 0.000287215
22 *445:23 *837:11 0.0439323
23 *481:15 *837:11 0.0490976
24 *542:21 *921:mask_rev[0] 0
25 *555:13 *837:11 0.0045678
26 *566:9 *837:9 0.0011543
27 *760:21 *837:15 0.000320055
28 *785:15 *837:15 0
29 *827:19 *837:11 0.000414014
30 *828:15 *837:11 0.174228
*RES
1 mask_rev[0] *837:9 35.0943 
2 *837:9 *837:11 544.708 
3 *837:11 *837:13 8 
4 *837:13 *837:15 181.851 
5 *837:15 *921:mask_rev[0] 11.7483 
*END

*D_NET *838 0.7953
*CONN
*P mask_rev[10] I
*I *921:mask_rev[10] I *D CF_CARAVEL_SOC
*CAP
1 mask_rev[10] 0.00119545
2 *921:mask_rev[10] 0.000444089
3 *838:27 0.00289336
4 *838:25 0.00244927
5 *838:23 0.00102314
6 *838:17 0.00157221
7 *838:11 0.0640113
8 *838:9 0.0646577
9 *921:mask_rev[10] *921:mask_rev[11] 0
10 *921:mask_rev[10] *921:mask_rev[9] 0
11 *838:9 *839:15 4.01162e-06
12 *838:9 *840:7 0
13 *838:9 *868:9 0.00141235
14 *838:17 *841:15 0.000204701
15 *838:23 *840:25 0.00129206
16 *838:27 *839:219 0.00244898
17 *838:27 *840:27 0.0166761
18 *838:27 *841:23 1.37246e-05
19 *838:27 *842:23 0.0166466
20 *119:15 *838:11 0.0301624
21 *119:23 *838:11 0.0266905
22 *167:19 *838:11 0.0713184
23 *208:21 *838:11 0.0260696
24 *289:23 *838:11 0.0403319
25 *297:14 *838:11 0.000339058
26 *336:15 *838:11 0.0105738
27 *336:63 *838:11 0.0180438
28 *464:23 *838:11 0.00807676
29 *465:23 *838:11 0.0223454
30 *481:23 *838:11 0.0331022
31 *542:15 *838:23 0.000140304
32 *547:13 *838:11 0.0419804
33 *780:9 *838:17 0.000280861
34 *780:9 *838:23 0.000227855
35 *781:19 *838:17 0.000188437
36 *781:19 *838:23 0.00195297
37 *837:11 *838:11 0.28653
*RES
1 mask_rev[10] *838:9 33.6029 
2 *838:9 *838:11 544.107 
3 *838:11 *838:17 19.9729 
4 *838:17 *838:23 46.9932 
5 *838:23 *838:25 15 
6 *838:25 *838:27 211.959 
7 *838:27 *921:mask_rev[10] 8.83253 
*END

*D_NET *839 0.71514
*CONN
*P mask_rev[11] I
*I *921:mask_rev[11] I *D CF_CARAVEL_SOC
*CAP
1 mask_rev[11] 0.00420794
2 *921:mask_rev[11] 0.000508857
3 *839:219 0.00933121
4 *839:217 0.00882235
5 *839:215 0.00639158
6 *839:205 0.00926478
7 *839:197 0.00737057
8 *839:193 0.00740097
9 *839:187 0.00567033
10 *839:173 0.00565839
11 *839:165 0.00486446
12 *839:157 0.00534824
13 *839:149 0.0054426
14 *839:139 0.00445962
15 *839:125 0.0063596
16 *839:117 0.00513592
17 *839:103 0.00316457
18 *839:91 0.00420141
19 *839:77 0.00476469
20 *839:69 0.00343492
21 *839:59 0.00440404
22 *839:53 0.00412634
23 *839:45 0.00199409
24 *839:31 0.00358283
25 *839:17 0.0117903
26 *839:15 0.0138114
27 *921:mask_rev[11] *921:mask_rev[12] 0
28 *839:15 *840:7 1.33778e-05
29 *839:17 *840:11 0.0102122
30 *839:17 *846:13 0.0119002
31 *839:91 *858:11 0.00108827
32 *839:91 *866:17 0.00214428
33 *839:103 *858:11 0.00104818
34 *839:103 *866:17 0.0024053
35 *839:117 *866:17 0.00238268
36 *839:125 *858:11 0.00306139
37 *839:139 *858:11 0.000999845
38 *839:139 *866:17 0.00242404
39 *839:149 *866:17 0.00473368
40 *839:157 *858:11 0.00313149
41 *839:165 *866:17 0.0046549
42 *839:173 *858:11 0.00315154
43 *839:187 *858:11 0.00133031
44 *839:187 *866:17 0.002488
45 *839:193 *866:17 0.00131138
46 *839:205 *846:13 0.00179337
47 *839:205 *866:17 0.0056122
48 *839:215 *846:29 0.0166614
49 *839:215 *846:37 0.00335024
50 *839:215 *858:11 0.000961479
51 *839:215 *866:17 0.000688955
52 *839:219 *840:27 0.003131
53 *921:gpio_in[0] *839:215 0.000560725
54 *921:gpio_in[23] *839:173 0
55 *921:gpio_in[39] *839:139 2.63253e-05
56 *921:gpio_in[7] *839:205 0.00010853
57 *921:mask_rev[10] *921:mask_rev[11] 0
58 *120:15 *839:15 0.000158459
59 *211:13 *839:91 0.00245686
60 *211:13 *839:103 0.00238515
61 *211:13 *839:125 0.001911
62 *212:23 *839:17 0.0554314
63 *212:23 *839:45 0.007668
64 *212:23 *839:59 0.0190903
65 *212:23 *839:77 0.0135272
66 *258:29 *839:31 0.000107842
67 *292:15 *839:125 0.00129448
68 *292:15 *839:139 0.000764625
69 *292:15 *839:157 0.00149996
70 *295:15 *839:125 0.00114512
71 *295:15 *839:139 0.0006764
72 *297:10 *839:15 0.000441349
73 *299:23 *839:125 0.000772048
74 *325:77 *839:139 0.000108449
75 *325:133 *839:205 0.00231523
76 *338:25 *839:45 0
77 *344:15 *839:31 0.0109724
78 *344:15 *839:53 0.00275447
79 *344:15 *839:69 0.00471058
80 *344:15 *839:91 0.001163
81 *386:65 *839:205 2.5065e-05
82 *430:23 *839:31 0.00200245
83 *430:23 *839:53 0.000432254
84 *430:23 *839:69 0.000847175
85 *430:23 *839:91 0.00103804
86 *430:23 *839:103 0.000925274
87 *430:23 *839:117 0.000916598
88 *430:23 *839:139 0.000925255
89 *430:23 *839:149 0.0017769
90 *430:23 *839:165 0.00176675
91 *430:23 *839:187 0.000866016
92 *430:23 *839:193 0.00207187
93 *430:23 *839:205 0.00267336
94 *430:23 *839:215 0.000141263
95 *431:15 *839:125 0.00168394
96 *431:15 *839:139 0.00106099
97 *443:45 *839:193 0.00134465
98 *443:45 *839:197 0.00702821
99 *443:45 *839:205 0.000508323
100 *450:27 *839:219 0.000754217
101 *451:35 *839:193 0.00837657
102 *467:15 *839:215 2.43685e-05
103 *469:15 *839:157 0.00706147
104 *469:15 *839:173 0.00715244
105 *469:15 *839:187 0.00328489
106 *469:15 *839:193 0.000135504
107 *469:15 *839:197 0.00412287
108 *469:15 *839:205 0.000157577
109 *469:15 *839:215 0.0065427
110 *542:15 *839:219 0.00228516
111 *544:11 *839:45 0.00010853
112 *550:11 *839:197 0.00303827
113 *550:11 *839:205 0.000147655
114 *550:11 *839:215 0.00434657
115 *693:189 *839:187 0
116 *737:117 *839:215 0.00250689
117 *737:127 *839:215 0.000655413
118 *741:140 *839:31 2.39556e-05
119 *784:9 *839:219 0.010685
120 *786:11 *839:219 0
121 *793:25 *839:215 0.000421371
122 *815:25 *839:215 0.00103366
123 *815:39 *839:205 0.0133383
124 *815:39 *839:215 0.000230986
125 *815:49 *839:17 0.0554314
126 *815:49 *839:31 0.0109756
127 *815:49 *839:45 0.007668
128 *815:49 *839:53 0.00275447
129 *815:49 *839:59 0.0190864
130 *815:49 *839:69 0.00471058
131 *815:49 *839:77 0.0135195
132 *815:49 *839:91 0.0104417
133 *815:49 *839:103 0.00966686
134 *815:49 *839:117 0.00480945
135 *815:49 *839:125 0.0141978
136 *815:49 *839:139 0.00961743
137 *815:49 *839:149 0.0095709
138 *815:49 *839:157 0.014289
139 *815:49 *839:165 0.00940153
140 *815:49 *839:173 0.0144255
141 *815:49 *839:187 0.0116774
142 *815:49 *839:193 0.0117334
143 *838:9 *839:15 4.01162e-06
144 *838:27 *839:219 0.00244898
*RES
1 mask_rev[11] *839:15 32.3959 
2 *839:15 *839:17 104.942 
3 *839:17 *839:31 42.0527 
4 *839:31 *839:45 49.5887 
5 *839:45 *839:53 22.7616 
6 *839:53 *839:59 45.7594 
7 *839:59 *839:69 34.4538 
8 *839:69 *839:77 43.1978 
9 *839:77 *839:91 46.7967 
10 *839:91 *839:103 43.7834 
11 *839:103 *839:117 44.1791 
12 *839:117 *839:125 44.4858 
13 *839:125 *839:139 45.2511 
14 *839:139 *839:149 43.6416 
15 *839:149 *839:157 44.6576 
16 *839:157 *839:165 35.2981 
17 *839:165 *839:173 44.7434 
18 *839:173 *839:187 49.201 
19 *839:187 *839:193 31.8093 
20 *839:193 *839:197 27.2869 
21 *839:197 *839:205 44.2712 
22 *839:205 *839:215 48.0611 
23 *839:215 *839:217 8 
24 *839:217 *839:219 43.5941 
25 *839:219 *921:mask_rev[11] 8.96133 
*END

*D_NET *840 0.644205
*CONN
*P mask_rev[12] I
*I *921:mask_rev[12] I *D CF_CARAVEL_SOC
*CAP
1 mask_rev[12] 0.0020695
2 *921:mask_rev[12] 0.000473408
3 *840:27 0.00445526
4 *840:25 0.00447097
5 *840:19 0.0570579
6 *840:17 0.0569681
7 *840:11 0.0113213
8 *840:9 0.010922
9 *840:7 0.0020695
10 *840:7 *841:9 0.000475915
11 *840:11 *846:13 0.0577405
12 *840:25 *841:23 0.000441948
13 *840:27 *841:23 2.13808e-05
14 *840:27 *842:23 0.000580104
15 *840:27 *860:19 0
16 *921:gpio_in[10] *840:19 0.00143502
17 *921:gpio_in[16] *840:19 0.00353639
18 *921:mask_rev[11] *921:mask_rev[12] 0
19 *118:85 *840:19 0.000315321
20 *118:179 *840:19 0.00095657
21 *118:187 *840:19 0.00200588
22 *123:15 *840:19 0.0103581
23 *258:29 *840:11 0.000503148
24 *293:15 *840:19 0.030015
25 *302:13 *840:7 0.000241774
26 *302:19 *840:7 0.00157498
27 *322:115 *840:19 0.000116212
28 *322:159 *840:19 0.00809106
29 *322:163 *840:19 0.000918153
30 *322:167 *840:19 0.000867449
31 *325:147 *840:19 0.000521717
32 *338:63 *840:19 0.000697245
33 *340:35 *840:7 0.000357957
34 *346:15 *840:19 0.00284563
35 *386:81 *840:19 0.00212307
36 *397:31 *840:19 0.00113133
37 *397:69 *840:19 0.00158562
38 *397:79 *840:19 0.000686325
39 *408:23 *840:19 0.205243
40 *419:23 *840:19 0.00128063
41 *430:23 *840:11 0.0113877
42 *441:15 *840:19 0.00390103
43 *450:13 *840:27 0
44 *463:15 *840:19 0.00450554
45 *471:25 *840:19 0.00335338
46 *472:55 *840:19 0.015325
47 *476:19 *840:19 0.00975904
48 *529:9 *840:19 0.00573968
49 *531:16 *840:19 0.000204427
50 *536:11 *840:19 0.00810096
51 *539:55 *840:19 0.00408822
52 *539:133 *840:19 0.00120554
53 *539:151 *840:19 0.000407019
54 *540:22 *840:19 0.006621
55 *541:95 *840:19 0.000326996
56 *542:15 *840:25 1.11421e-05
57 *542:15 *840:27 0.0116592
58 *550:11 *840:11 0.0111966
59 *556:11 *840:19 0.00957513
60 *556:21 *840:19 0.00267223
61 *556:29 *840:19 0.00206444
62 *571:17 *840:19 0.00357972
63 *571:19 *840:19 0.000101624
64 *693:133 *840:19 0.000373033
65 *737:147 *840:19 0.00220049
66 *780:9 *840:25 0.000434027
67 *826:27 *840:19 0.00761151
68 *838:9 *840:7 0
69 *838:23 *840:25 0.00129206
70 *838:27 *840:27 0.0166761
71 *839:15 *840:7 1.33778e-05
72 *839:17 *840:11 0.0102122
73 *839:219 *840:27 0.003131
*RES
1 mask_rev[12] *840:7 44.3804 
2 *840:7 *840:9 15 
3 *840:9 *840:11 617.12 
4 *840:11 *840:17 28.2511 
5 *840:17 *840:19 433.425 
6 *840:19 *840:25 26.85 
7 *840:25 *840:27 226.925 
8 *840:27 *921:mask_rev[12] 8.9184 
*END

*D_NET *841 0.702202
*CONN
*P mask_rev[13] I
*I *921:mask_rev[13] I *D CF_CARAVEL_SOC
*CAP
1 mask_rev[13] 0.000771061
2 *921:mask_rev[13] 0.000225666
3 *841:23 0.00309433
4 *841:21 0.00293242
5 *841:15 0.00142118
6 *841:11 0.0801556
7 *841:9 0.0795693
8 *921:mask_rev[13] *921:mask_rev[14] 0
9 *841:9 *842:7 0.000253287
10 *841:11 *849:11 0.000161569
11 *841:11 *868:11 0.287613
12 *841:23 *842:23 0.0183872
13 *119:23 *841:11 0.014815
14 *167:19 *841:11 0.0195197
15 *208:29 *841:11 0.0391046
16 *301:13 *841:9 0.000250022
17 *302:19 *841:9 0.000457375
18 *435:23 *841:11 0.0332654
19 *541:107 *841:21 9.41704e-05
20 *544:13 *841:11 0.046694
21 *553:13 *841:11 0.0449127
22 *780:9 *841:15 0.00209686
23 *780:9 *841:23 0.0189103
24 *781:19 *841:15 0
25 *783:11 *841:15 0.00292764
26 *784:9 *841:23 0.00341141
27 *838:17 *841:15 0.000204701
28 *838:27 *841:23 1.37246e-05
29 *840:7 *841:9 0.000475915
30 *840:25 *841:23 0.000441948
31 *840:27 *841:23 2.13808e-05
*RES
1 mask_rev[13] *841:9 28.8179 
2 *841:9 *841:11 544.537 
3 *841:11 *841:15 48.8175 
4 *841:15 *841:21 31.0979 
5 *841:21 *841:23 240.835 
6 *841:23 *921:mask_rev[13] 8.4144 
*END

*D_NET *842 0.609554
*CONN
*P mask_rev[14] I
*I *921:mask_rev[14] I *D CF_CARAVEL_SOC
*CAP
1 mask_rev[14] 0.00125709
2 *921:mask_rev[14] 0.000257621
3 *842:23 0.00334094
4 *842:21 0.00324469
5 *842:15 0.00130965
6 *842:11 0.0537666
7 *842:9 0.0526183
8 *842:7 0.00125709
9 *842:7 *843:9 0.000417776
10 *842:15 *860:15 0
11 *921:mask_rev[13] *921:mask_rev[14] 0
12 *121:15 *842:11 0.0149044
13 *165:15 *842:11 0.0137795
14 *257:15 *842:11 0.0193103
15 *293:25 *842:15 0
16 *296:15 *842:11 0.0626439
17 *296:23 *842:11 0.00485119
18 *300:15 *842:7 0.0019827
19 *301:13 *842:7 0.00194749
20 *325:71 *842:11 0.0166392
21 *339:15 *842:11 0.0894832
22 *408:21 *842:15 0.000151216
23 *430:21 *842:15 1.30346e-05
24 *432:15 *842:11 0.0184556
25 *450:13 *842:23 0
26 *456:31 *842:11 0.0758757
27 *459:25 *842:11 0.0855239
28 *460:23 *842:11 0.00182586
29 *542:15 *842:15 0.00211427
30 *548:11 *842:11 0.00838149
31 *771:27 *842:11 0.0354853
32 *780:9 *842:23 0.000288137
33 *784:9 *842:23 0.00256095
34 *838:27 *842:23 0.0166466
35 *840:27 *842:23 0.000580104
36 *841:9 *842:7 0.000253287
37 *841:23 *842:23 0.0183872
*RES
1 mask_rev[14] *842:7 39.7404 
2 *842:7 *842:9 15 
3 *842:9 *842:11 3025.94 
4 *842:11 *842:15 43.6686 
5 *842:15 *842:21 32.0507 
6 *842:21 *842:23 240.835 
7 *842:23 *921:mask_rev[14] 8.50027 
*END

*D_NET *843 0.741615
*CONN
*P mask_rev[15] I
*I *921:mask_rev[15] I *D CF_CARAVEL_SOC
*CAP
1 mask_rev[15] 0.000714041
2 *921:mask_rev[15] 0.000189953
3 *843:15 0.00460721
4 *843:13 0.00441726
5 *843:11 0.0881232
6 *843:9 0.0888373
7 *843:9 *844:11 7.46721e-06
8 *843:9 *845:9 0
9 *843:11 *850:11 0.0567899
10 *843:11 *850:21 0.0185549
11 *843:11 *851:11 0.0487269
12 *843:11 *854:11 0.0353619
13 *843:11 *861:11 0.031092
14 *843:11 *862:11 0.0748314
15 *843:15 *921:resetb_l 0.000120752
16 *843:15 *844:17 0.0231382
17 *124:13 *843:11 0.118317
18 *248:19 *843:11 0.0191826
19 *300:15 *843:9 0.00029908
20 *301:17 *843:11 0.000197586
21 *302:21 *843:11 0.0186645
22 *388:23 *843:11 0.0364879
23 *433:6 *843:15 0.00341141
24 *477:11 *843:11 0.00530432
25 *565:13 *843:11 0.00569699
26 *737:173 *843:11 0.000776761
27 *783:11 *843:15 0.0231431
28 *784:13 *843:11 0.0342032
29 *842:7 *843:9 0.000417776
*RES
1 mask_rev[15] *843:9 24.53 
2 *843:9 *843:11 544.794 
3 *843:11 *843:13 8 
4 *843:13 *843:15 298.762 
5 *843:15 *921:mask_rev[15] 8.31733 
*END

*D_NET *844 0.698788
*CONN
*P mask_rev[16] I
*I *921:mask_rev[16] I *D CF_CARAVEL_SOC
*CAP
1 mask_rev[16] 0.000422297
2 *921:mask_rev[16] 0.000161778
3 *844:17 0.00817978
4 *844:15 0.00801801
5 *844:13 0.0392117
6 *844:11 0.039634
7 *844:11 *845:9 0.000812243
8 *844:13 *859:19 0.00614796
9 *844:17 *921:resetb_l 0.000120752
10 *844:17 *873:39 0.00398312
11 *921:mask_rev[0] *844:17 0.000112317
12 *250:23 *844:13 0.28322
13 *284:15 *844:13 7.41993e-05
14 *300:19 *844:13 0.0245648
15 *335:25 *844:13 0.166597
16 *433:6 *844:17 0.00420949
17 *433:10 *844:13 0.0010898
18 *446:27 *844:13 0.0261784
19 *447:21 *844:13 0.00116197
20 *449:37 *844:17 0
21 *453:49 *844:13 0.000655658
22 *541:59 *844:13 0.00274652
23 *561:18 *844:13 0.000139191
24 *563:14 *844:13 0.0273416
25 *564:13 *844:13 0.00118705
26 *695:67 *844:13 0.0121094
27 *783:11 *844:17 0.000424445
28 *783:15 *844:13 0.0171156
29 *793:25 *844:17 2.26497e-05
30 *843:9 *844:11 7.46721e-06
31 *843:15 *844:17 0.0231382
*RES
1 mask_rev[16] *844:11 26.4446 
2 *844:11 *844:13 3024.04 
3 *844:13 *844:15 15 
4 *844:15 *844:17 310.559 
5 *844:17 *921:mask_rev[16] 8.31733 
*END

*D_NET *845 0.716231
*CONN
*P mask_rev[17] I
*I *921:mask_rev[17] I *D CF_CARAVEL_SOC
*CAP
1 mask_rev[17] 0.00123091
2 *921:mask_rev[17] 0.00139217
3 *845:27 0.00668485
4 *845:25 0.00550279
5 *845:19 0.04312
6 *845:17 0.0429675
7 *845:11 0.0129945
8 *845:9 0.0141678
9 *921:mask_rev[17] *921:mask_rev[18] 0
10 *845:9 *846:9 0.000329864
11 *845:11 *847:8 0.063633
12 *845:25 *847:24 2.43883e-05
13 *845:27 *847:24 0.000836986
14 *845:27 *865:15 0.00120948
15 gpio_analog_en[43] *845:17 0
16 *124:9 *845:9 0.000963085
17 *168:15 *845:19 0.0531377
18 *208:19 *845:9 1.76016e-05
19 *238:15 *845:19 0.0101282
20 *249:15 *845:11 0.015566
21 *249:15 *845:19 0.0409725
22 *300:15 *845:9 0
23 *339:23 *845:19 0.198439
24 *340:39 *845:19 0.0251385
25 *343:15 *845:11 0.00903882
26 *343:15 *845:19 0.00767603
27 *429:19 *845:19 0.121149
28 *430:11 *845:27 0.00407064
29 *448:13 *845:27 0
30 *760:21 *845:25 0.00025755
31 *785:11 *845:27 0.0211573
32 *785:15 *845:25 0.000157309
33 *785:15 *845:27 7.28722e-06
34 *837:15 *845:25 5.4861e-05
35 *837:15 *845:27 0.0133924
36 *843:9 *845:9 0
37 *844:11 *845:9 0.000812243
*RES
1 mask_rev[17] *845:9 45.3775 
2 *845:9 *845:11 680.009 
3 *845:11 *845:17 24.0254 
4 *845:17 *845:19 425.697 
5 *845:19 *845:25 13.8621 
6 *845:25 *845:27 293.666 
7 *845:27 *921:mask_rev[17] 11.2816 
*END

*D_NET *846 0.671149
*CONN
*P mask_rev[18] I
*I *921:mask_rev[18] I *D CF_CARAVEL_SOC
*CAP
1 mask_rev[18] 0.0016251
2 *921:mask_rev[18] 0.00197589
3 *846:39 0.0103965
4 *846:37 0.0102557
5 *846:29 0.00469004
6 *846:21 0.0030261
7 *846:13 0.0405135
8 *846:11 0.0403424
9 *846:9 0.0016251
10 *846:9 *847:6 0.000274692
11 *846:9 *847:51 2.33085e-06
12 *846:13 *858:11 0.263813
13 *846:29 *866:17 0.000177456
14 *846:39 *864:15 0.0156216
15 *921:gpio_in[0] *846:29 0.0143575
16 *921:mask_rev[17] *921:mask_rev[18] 0
17 *121:11 *846:9 0.000263208
18 *124:9 *846:9 0.000472978
19 *126:11 *846:9 0.000917506
20 *258:29 *846:13 0.000580889
21 *293:25 *846:37 0.00174378
22 *345:11 *846:9 0.000896832
23 *386:65 *846:13 0.000326704
24 *430:23 *846:13 5.1117e-05
25 *430:23 *846:29 0.00292921
26 *469:15 *846:13 0.00224146
27 *469:15 *846:37 0.00155297
28 *471:11 *846:39 0.00383909
29 *550:11 *846:13 0.114642
30 *550:21 *846:39 0.000352264
31 *737:117 *846:21 9.72605e-05
32 *749:11 *846:39 0
33 *749:21 *846:39 0
34 *771:23 *846:39 0
35 *793:25 *846:37 0.00155647
36 *815:25 *846:29 0.00194618
37 *815:49 *846:13 0.032064
38 *826:11 *846:39 0.00420246
39 *839:17 *846:13 0.0119002
40 *839:205 *846:13 0.00179337
41 *839:215 *846:29 0.0166614
42 *839:215 *846:37 0.00335024
43 *840:11 *846:13 0.0577405
44 *845:9 *846:9 0.000329864
*RES
1 mask_rev[18] *846:9 43.9868 
2 *846:9 *846:11 15 
3 *846:11 *846:13 2818.22 
4 *846:13 *846:21 25.4754 
5 *846:21 *846:29 49.0368 
6 *846:29 *846:37 18.7707 
7 *846:37 *846:39 292.424 
8 *846:39 *921:mask_rev[18] 12.7413 
*END

*D_NET *847 0.635829
*CONN
*P mask_rev[19] I
*I *921:mask_rev[19] I *D CF_CARAVEL_SOC
*CAP
1 mask_rev[19] 0.000943447
2 *921:mask_rev[19] 0.00127437
3 *847:51 2.19374e-06
4 *847:38 0.00461984
5 *847:36 0.00354297
6 *847:24 0.00225657
7 *847:16 0.0607477
8 *847:14 0.0590191
9 *847:8 0.01697
10 *847:6 0.0175808
11 *921:mask_rev[19] *921:mask_rev[20] 0
12 *847:6 *849:9 0.00139244
13 *847:6 *852:9 0
14 *847:8 *852:11 0.0340286
15 *847:16 *852:19 0.00861656
16 *847:16 *852:25 2.97265e-05
17 *847:24 *852:25 0.000609225
18 *847:36 *853:19 6.80197e-05
19 *847:38 *853:19 0.000947328
20 *847:38 *853:23 0.0203358
21 *165:23 *847:16 0.0124711
22 *167:15 *847:6 8.68052e-05
23 *169:15 *847:16 0.00110971
24 *209:15 *847:16 0.0807956
25 *249:15 *847:8 0.0021238
26 *253:15 *847:16 0.000414177
27 *294:15 *847:16 0.000182031
28 *295:25 *847:24 0.000135641
29 *296:23 *847:16 0
30 *322:139 *847:14 0
31 *338:71 *847:16 0.0987706
32 *343:11 *847:6 3.2192e-05
33 *343:15 *847:8 0.0142417
34 *345:11 *847:6 0.00121371
35 *389:23 *847:8 0.000412504
36 *390:23 *847:8 0.0274794
37 *430:11 *847:38 0.00346899
38 *434:23 *847:16 0.00996684
39 *449:51 *847:16 0.00215961
40 *470:15 *847:16 0.0153618
41 *470:15 *847:24 0.000538012
42 *474:15 *847:16 0.000378691
43 *480:15 *847:16 0.038571
44 *541:107 *847:36 5.56279e-05
45 *559:19 *847:16 0.00337774
46 *739:104 *847:16 0.000605813
47 *740:167 *847:14 7.55695e-05
48 *785:11 *847:36 2.49913e-05
49 *785:11 *847:38 0.0222196
50 *785:15 *847:24 0.00178754
51 *785:15 *847:36 1.23884e-05
52 *845:11 *847:8 0.063633
53 *845:25 *847:24 2.43883e-05
54 *845:27 *847:24 0.000836986
55 *846:9 *847:6 0.000274692
56 *846:9 *847:51 2.33085e-06
*RES
1 mask_rev[19] *847:6 44.4039 
2 *847:6 *847:8 945.379 
3 *847:8 *847:14 27.8989 
4 *847:14 *847:16 373.962 
5 *847:16 *847:24 36.9689 
6 *847:24 *847:36 33.4696 
7 *847:36 *847:38 282.564 
8 *847:38 *921:mask_rev[19] 11.1099 
9 mask_rev[19] *847:51 0.25375 
*END

*D_NET *848 0.733521
*CONN
*P mask_rev[1] I
*I *921:mask_rev[1] I *D CF_CARAVEL_SOC
*CAP
1 mask_rev[1] 0.000229286
2 *921:mask_rev[1] 0.00351837
3 *848:23 0.00685958
4 *848:21 0.00334122
5 *848:19 0.00211743
6 *848:11 0.037313
7 *848:9 0.0354248
8 *921:mask_rev[1] *921:mask_rev[2] 0
9 *848:9 *859:9 0.000136346
10 *848:11 *863:11 0.272767
11 *848:23 *863:23 0.016453
12 *207:31 *848:11 0.176669
13 *284:39 *848:11 0.0113549
14 *297:22 *848:11 0.00607957
15 *385:11 *848:23 1.70419e-05
16 *385:15 *848:11 0.00334965
17 *387:15 *848:19 0.0132404
18 *419:11 *848:23 0.00245168
19 *428:23 *848:11 0.00733811
20 *467:11 *848:23 0.0133968
21 *542:21 *921:mask_rev[1] 0.000250046
22 *549:13 *848:11 0.0153222
23 *549:23 *848:23 0
24 *552:25 *848:23 0.00117028
25 *692:27 *848:11 0.0572928
26 *692:35 *848:11 0.00936766
27 *693:193 *848:11 0.00822293
28 *697:115 *848:11 0.0110942
29 *698:27 *848:11 0.00528342
30 *736:43 *848:19 0.0132442
31 *741:168 *848:11 0.000216853
32 *837:9 *848:9 0
*RES
1 mask_rev[1] *848:9 19.6918 
2 *848:9 *848:11 2912.55 
3 *848:11 *848:19 49.687 
4 *848:19 *848:21 8 
5 *848:21 *848:23 214.952 
6 *848:23 *921:mask_rev[1] 16.176 
*END

*D_NET *849 0.779561
*CONN
*P mask_rev[20] I
*I *921:mask_rev[20] I *D CF_CARAVEL_SOC
*CAP
1 mask_rev[20] 0.000619973
2 *921:mask_rev[20] 0.000783116
3 *849:15 0.00550739
4 *849:13 0.00472427
5 *849:11 0.049087
6 *849:9 0.049707
7 *921:mask_rev[20] *921:mask_rev[21] 0
8 *849:9 *850:9 0.000327772
9 *849:9 *852:9 0
10 *849:11 *864:11 0.28794
11 *849:11 *868:11 0.288446
12 *849:15 *850:23 0.025807
13 *849:15 *868:15 0.000609662
14 *921:mask_rev[19] *921:mask_rev[20] 0
15 *124:13 *849:11 0.00037266
16 *207:23 *849:11 0.000101881
17 *353:31 *849:11 0.0191002
18 *434:11 *849:15 0.0244065
19 *454:41 *849:15 0.0042325
20 *760:31 *849:11 0.0162343
21 *841:11 *849:11 0.000161569
22 *847:6 *849:9 0.00139244
*RES
1 mask_rev[20] *849:9 27.43 
2 *849:9 *849:11 547.628 
3 *849:11 *849:13 8 
4 *849:13 *849:15 331.864 
5 *849:15 *921:mask_rev[20] 9.9936 
*END

*D_NET *850 0.694534
*CONN
*P mask_rev[21] I
*I *921:mask_rev[21] I *D CF_CARAVEL_SOC
*CAP
1 mask_rev[21] 0.000590611
2 *921:mask_rev[21] 0.000729319
3 *850:23 0.00562636
4 *850:21 0.0081348
5 *850:17 0.00329479
6 *850:11 0.0538622
7 *850:9 0.0543958
8 *921:mask_rev[21] *921:mask_rev[22] 0
9 *850:9 *851:9 0.000322062
10 *850:11 *851:11 0.265504
11 *850:11 *856:11 0
12 *850:21 *854:21 0.00033028
13 *850:21 *862:11 0.0190391
14 *850:21 *862:21 0.000420683
15 *850:21 *864:11 2.90716e-05
16 *850:23 *851:15 0
17 *850:23 *856:17 0.00128732
18 *850:23 *856:19 0.000359345
19 *850:23 *858:23 0.0243125
20 *921:mask_rev[20] *921:mask_rev[21] 0
21 *335:39 *850:17 7.13521e-05
22 *388:23 *850:11 0.151056
23 *434:11 *850:23 0.000295125
24 *454:41 *850:23 0.0033278
25 *784:13 *850:21 1.71453e-05
26 *786:21 *850:21 2.91648e-06
27 *804:21 *850:21 4.55121e-05
28 *843:11 *850:11 0.0567899
29 *843:11 *850:21 0.0185549
30 *849:9 *850:9 0.000327772
31 *849:15 *850:23 0.025807
*RES
1 mask_rev[21] *850:9 31.1675 
2 *850:9 *850:11 2835.85 
3 *850:11 *850:17 24.0254 
4 *850:17 *850:21 44.7211 
5 *850:21 *850:23 341.019 
6 *850:23 *921:mask_rev[21] 9.90773 
*END

*D_NET *851 0.724827
*CONN
*P mask_rev[22] I
*I *921:mask_rev[22] I *D CF_CARAVEL_SOC
*CAP
1 mask_rev[22] 0.000514891
2 *921:mask_rev[22] 0.000922623
3 *851:19 0.00750967
4 *851:17 0.00661427
5 *851:15 0.00300829
6 *851:13 0.00298107
7 *851:11 0.0368006
8 *851:9 0.0373155
9 *851:9 *852:9 0.000548792
10 *851:11 *854:11 0.284376
11 *851:11 *856:11 0
12 *851:11 *861:11 0.000290059
13 *851:15 *853:17 0
14 *851:15 *853:19 0
15 *851:15 *861:21 2.4869e-05
16 *851:15 *868:15 0.00235955
17 *851:19 *868:15 0.00536732
18 *921:mask_rev[21] *921:mask_rev[22] 0
19 *207:49 *851:15 1.10604e-05
20 *295:25 *851:15 8.69846e-05
21 *353:29 *851:15 8.30305e-06
22 *388:21 *851:15 0.000203806
23 *388:23 *851:11 0.010758
24 *428:11 *851:15 0
25 *428:11 *851:19 0.00791275
26 *434:11 *851:19 0
27 *435:21 *851:15 5.69588e-05
28 *454:41 *851:15 0.000250774
29 *454:49 *851:15 0
30 *557:27 *851:15 2.90913e-05
31 *804:11 *851:19 0.00232243
32 *843:11 *851:11 0.0487269
33 *850:9 *851:9 0.000322062
34 *850:11 *851:11 0.265504
35 *850:23 *851:15 0
*RES
1 mask_rev[22] *851:9 30.5461 
2 *851:9 *851:11 3043.09 
3 *851:11 *851:13 15 
4 *851:13 *851:15 70.5839 
5 *851:15 *851:17 0.621429 
6 *851:17 *851:19 278.856 
7 *851:19 *921:mask_rev[22] 10.4229 
*END

*D_NET *852 0.673257
*CONN
*P mask_rev[23] I
*I *921:mask_rev[23] I *D CF_CARAVEL_SOC
*CAP
1 mask_rev[23] 0.00100703
2 *921:mask_rev[23] 0.00176535
3 *852:27 0.00649061
4 *852:25 0.0064404
5 *852:19 0.0113093
6 *852:17 0.00990866
7 *852:11 0.0388233
8 *852:9 0.0395158
9 *921:mask_rev[23] *921:mask_rev[24] 0
10 *852:9 *853:9 0.000204718
11 *852:27 *854:27 0.00624931
12 *852:27 *864:15 0.000505179
13 *164:43 *852:11 0.0100462
14 *167:15 *852:9 0
15 *249:15 *852:11 0
16 *249:25 *852:25 0.000111878
17 *252:11 *852:9 0.00170414
18 *255:15 *852:11 0.000297381
19 *289:21 *852:9 7.57281e-06
20 *295:25 *852:25 4.51543e-06
21 *322:145 *852:11 0.00182546
22 *338:71 *852:19 0.0362937
23 *339:23 *852:11 0.00404511
24 *343:15 *852:11 0.0302978
25 *364:39 *852:11 0.127674
26 *386:11 *852:27 0.00169135
27 *390:23 *852:11 0.169048
28 *429:19 *852:25 0.000114933
29 *448:21 *852:27 0.000112415
30 *448:31 *852:27 0.000256457
31 *449:29 *852:27 0.0141263
32 *471:11 *852:27 0.0254162
33 *472:11 *852:11 0.00066638
34 *474:15 *852:19 0.00428136
35 *545:11 *852:19 0.0116218
36 *554:13 *852:19 0.0100736
37 *559:27 *852:25 0.000700055
38 *693:163 *852:11 0.000270413
39 *760:21 *852:25 0.000626078
40 *780:13 *852:19 0.0537097
41 *780:13 *852:25 0.000419937
42 *826:11 *852:27 0.00166202
43 *829:33 *852:27 9.94708e-05
44 *847:6 *852:9 0
45 *847:8 *852:11 0.0340286
46 *847:16 *852:19 0.00861656
47 *847:16 *852:25 2.97265e-05
48 *847:24 *852:25 0.000609225
49 *849:9 *852:9 0
50 *851:9 *852:9 0.000548792
*RES
1 mask_rev[23] *852:9 44.1346 
2 *852:9 *852:11 2461.38 
3 *852:11 *852:17 27.1946 
4 *852:17 *852:19 101.507 
5 *852:19 *852:25 13.9491 
6 *852:25 *852:27 338.906 
7 *852:27 *921:mask_rev[23] 12.4837 
*END

*D_NET *853 0.612692
*CONN
*P mask_rev[24] I
*I *921:mask_rev[24] I *D CF_CARAVEL_SOC
*CAP
1 mask_rev[24] 0.000236669
2 *921:mask_rev[24] 0.0011794
3 *853:23 0.0049126
4 *853:21 0.00376056
5 *853:19 0.00114405
6 *853:17 0.00268389
7 *853:11 0.0547071
8 *853:9 0.0533766
9 *921:mask_rev[24] *921:mask_rev[25] 0
10 *853:9 *854:9 0.000216383
11 *853:11 *859:11 0.0828226
12 *853:11 *860:11 0.28464
13 *853:11 *865:11 0.000425201
14 *853:17 *861:21 0
15 *921:mask_rev[23] *921:mask_rev[24] 0
16 *207:49 *853:17 1.28019e-05
17 *248:29 *853:17 1.73315e-05
18 *252:11 *853:9 2.05503e-05
19 *252:15 *853:11 0.0470346
20 *295:25 *853:19 0
21 *353:29 *853:17 2.56706e-05
22 *385:15 *853:11 0.0105307
23 *397:11 *853:19 0.00032137
24 *397:11 *853:23 0.00443522
25 *428:21 *853:17 0
26 *431:11 *853:19 0.00345225
27 *431:11 *853:23 0.00536443
28 *432:11 *853:19 4.13136e-05
29 *435:21 *853:17 0
30 *542:23 *853:23 0.0129644
31 *546:23 *853:17 0
32 *785:11 *853:19 7.28722e-06
33 *785:11 *853:23 0.0014693
34 *785:15 *853:17 0.00074995
35 *785:15 *853:19 0.0018139
36 *785:27 *853:11 2.37424e-05
37 *786:23 *853:11 0.0127463
38 *847:36 *853:19 6.80197e-05
39 *847:38 *853:19 0.000947328
40 *847:38 *853:23 0.0203358
41 *851:15 *853:17 0
42 *851:15 *853:19 0
43 *852:9 *853:9 0.000204718
*RES
1 mask_rev[24] *853:9 21.8046 
2 *853:9 *853:11 3047.86 
3 *853:11 *853:17 45.3361 
4 *853:17 *853:19 50.17 
5 *853:19 *853:21 0.621429 
6 *853:21 *853:23 293.646 
7 *853:23 *921:mask_rev[24] 11.024 
*END

*D_NET *854 0.761529
*CONN
*P mask_rev[25] I
*I *921:mask_rev[25] I *D CF_CARAVEL_SOC
*CAP
1 mask_rev[25] 0.000639233
2 *921:mask_rev[25] 0.0015177
3 *854:27 0.00636806
4 *854:25 0.0055152
5 *854:21 0.00121179
6 *854:11 0.0367286
7 *854:9 0.0368209
8 *921:mask_rev[25] *921:mask_rev[26] 0.000341973
9 *854:9 *855:9 3.27264e-05
10 *854:9 *856:9 0
11 *854:11 *856:11 0
12 *854:11 *861:11 0.284631
13 *854:21 *860:15 0.000174046
14 *854:21 *861:21 0.000913801
15 *854:21 *862:21 0.000186408
16 *854:21 *864:11 0.00152792
17 *921:mask_rev[24] *921:mask_rev[25] 0
18 *248:17 *854:9 8.65972e-05
19 *249:25 *854:25 0.000120138
20 *252:11 *854:9 0.000170492
21 *302:21 *854:11 0.00877461
22 *429:17 *854:25 0.000157558
23 *429:17 *854:27 1.26108e-05
24 *435:11 *854:27 0.0027176
25 *448:21 *854:27 0.00189588
26 *448:31 *854:27 0.000251579
27 *449:29 *854:27 0.0152298
28 *737:173 *854:11 0.000354543
29 *781:19 *854:21 0
30 *825:11 *854:27 0.0275855
31 *825:21 *854:25 0.000457156
32 *829:33 *854:25 0.000473671
33 *829:33 *854:27 9.72298e-05
34 *843:11 *854:11 0.0353619
35 *850:21 *854:21 0.00033028
36 *851:11 *854:11 0.284376
37 *852:27 *854:27 0.00624931
38 *853:9 *854:9 0.000216383
*RES
1 mask_rev[25] *854:9 30.8154 
2 *854:9 *854:11 3040.24 
3 *854:11 *854:21 36.4094 
4 *854:21 *854:25 16.965 
5 *854:25 *854:27 352.992 
6 *854:27 *921:mask_rev[25] 12.312 
*END

*D_NET *855 0.643948
*CONN
*P mask_rev[26] I
*I *921:mask_rev[26] I *D CF_CARAVEL_SOC
*CAP
1 mask_rev[26] 8.08816e-05
2 *921:mask_rev[26] 0.00232457
3 *855:23 0.00601507
4 *855:21 0.0038334
5 *855:15 0.00273032
6 *855:13 0.00258742
7 *855:11 0.0864899
8 *855:9 0.0865708
9 *921:mask_rev[26] *921:mask_rev[27] 0
10 *855:9 *856:9 5.58487e-05
11 *855:15 *859:23 0.000222766
12 *855:15 *862:23 0.00346296
13 *855:23 *861:27 0.0257889
14 gpio_analog_en[38] *855:11 0.000496971
15 *921:mask_rev[25] *921:mask_rev[26] 0.000341973
16 *120:15 *855:11 0.0788485
17 *248:33 *855:15 0
18 *248:35 *855:15 0
19 *251:15 *855:11 0.287374
20 *251:25 *855:15 0
21 *384:15 *855:11 0.0251591
22 *433:6 *921:mask_rev[26] 0.000364411
23 *461:21 *855:15 0
24 *543:23 *855:23 0.00515774
25 *558:25 *855:23 0.0257915
26 *693:95 *855:21 0.000219101
27 *824:19 *855:15 0
28 *854:9 *855:9 3.27264e-05
*RES
1 mask_rev[26] *855:9 17.1646 
2 *855:9 *855:11 3068.34 
3 *855:11 *855:13 15 
4 *855:13 *855:15 61.0657 
5 *855:15 *855:21 32.5271 
6 *855:21 *855:23 327.462 
7 *855:23 *921:mask_rev[26] 14.1936 
*END

*D_NET *856 0.585754
*CONN
*P mask_rev[27] I
*I *921:mask_rev[27] I *D CF_CARAVEL_SOC
*CAP
1 mask_rev[27] 0.0008913
2 *921:mask_rev[27] 0.000865955
3 *856:19 0.00559065
4 *856:17 0.00546394
5 *856:11 0.0803959
6 *856:9 0.080548
7 *921:mask_rev[27] *921:mask_rev[28] 0
8 *856:9 *857:9 0
9 *856:9 *858:7 0
10 *856:11 *861:11 0
11 *856:11 *862:11 0.0518098
12 *856:19 *858:23 0.0273995
13 *921:mask_rev[26] *921:mask_rev[27] 0
14 *207:23 *856:11 0.00180083
15 *335:17 *856:11 0.0573682
16 *353:31 *856:11 4.5857e-05
17 *388:23 *856:11 0.0150154
18 *433:6 *921:mask_rev[27] 0.000364411
19 *786:11 *856:19 0.00342864
20 *828:11 *856:17 0.000292538
21 *828:11 *856:19 0.0282286
22 *830:11 *856:17 0.000147944
23 *830:15 *856:11 0.224394
24 *850:11 *856:11 0
25 *850:23 *856:17 0.00128732
26 *850:23 *856:19 0.000359345
27 *851:11 *856:11 0
28 *854:9 *856:9 0
29 *854:11 *856:11 0
30 *855:9 *856:9 5.58487e-05
*RES
1 mask_rev[27] *856:9 33.5704 
2 *856:9 *856:11 3045.48 
3 *856:11 *856:17 33.7154 
4 *856:17 *856:19 361.278 
5 *856:19 *921:mask_rev[27] 10.2437 
*END

*D_NET *857 0.729509
*CONN
*P mask_rev[28] I
*I *921:mask_rev[28] I *D CF_CARAVEL_SOC
*CAP
1 mask_rev[28] 0.000117543
2 *921:mask_rev[28] 0.00292532
3 *857:23 0.00736289
4 *857:21 0.00454971
5 *857:15 0.00155149
6 *857:11 0.0442095
7 *857:9 0.0428877
8 *921:mask_rev[28] *921:mask_rev[29] 0
9 *857:9 *858:7 0.000252946
10 *857:11 *863:11 0.283735
11 *921:mask_rev[27] *921:mask_rev[28] 0
12 *251:15 *857:11 0.0126995
13 *251:25 *857:15 0
14 *284:23 *857:11 0.168947
15 *284:31 *857:11 0.00772236
16 *284:39 *857:11 0.000602852
17 *353:19 *857:15 0
18 *385:11 *857:15 0
19 *385:15 *857:11 0.000128629
20 *387:15 *857:11 0.00425331
21 *387:23 *857:11 0.0209875
22 *389:11 *857:23 0.0289697
23 *428:23 *857:11 0.00214275
24 *433:6 *921:mask_rev[28] 0.000364411
25 *453:41 *857:23 5.36496e-06
26 *453:47 *857:15 0.000296812
27 *538:43 *857:11 0.0164803
28 *554:13 *857:21 2.66596e-05
29 *555:17 *857:15 0.000602852
30 *692:27 *857:11 0.000885588
31 *692:35 *857:11 0.0332627
32 *697:115 *857:11 0.000668004
33 *741:126 *857:11 0.00839341
34 *793:11 *857:23 0.00548157
35 *827:11 *857:15 6.99132e-06
36 *827:11 *857:23 0.0289887
37 *856:9 *857:9 0
*RES
1 mask_rev[28] *857:9 18.5484 
2 *857:9 *857:11 3076.44 
3 *857:11 *857:15 46.4857 
4 *857:15 *857:21 31.5743 
5 *857:21 *857:23 369.367 
6 *857:23 *921:mask_rev[28] 15.3099 
*END

*D_NET *858 0.660224
*CONN
*P mask_rev[29] I
*I *921:mask_rev[29] I *D CF_CARAVEL_SOC
*CAP
1 mask_rev[29] 0.00173954
2 *921:mask_rev[29] 0.000902249
3 *858:23 0.00558367
4 *858:21 0.00580964
5 *858:11 0.0469238
6 *858:9 0.0457956
7 *858:7 0.00173954
8 *921:mask_rev[29] *921:mask_rev[30] 0
9 *858:7 *860:9 0.000126004
10 *921:gpio_in[0] *858:21 5.39053e-05
11 *921:mask_rev[28] *921:mask_rev[29] 0
12 *118:107 *858:11 0.00682641
13 *118:197 *858:11 0.00236044
14 *170:19 *858:7 0
15 *211:13 *858:11 0.00201952
16 *212:23 *858:11 0.0211071
17 *248:11 *858:7 0
18 *249:11 *858:7 0
19 *292:15 *858:11 0.1495
20 *325:19 *858:7 0.00224344
21 *386:65 *858:11 0.000370034
22 *408:23 *858:21 0.00250978
23 *430:21 *858:21 0.000321544
24 *430:23 *858:11 0
25 *433:6 *921:mask_rev[29] 0.000364411
26 *434:11 *858:23 0.00151384
27 *466:15 *858:11 0.0017396
28 *467:15 *858:21 0.00289129
29 *469:15 *858:11 0.00762531
30 *471:25 *858:21 1.70415e-05
31 *539:43 *858:11 0.00541556
32 *550:11 *858:11 0.00626671
33 *786:11 *858:23 0.00508816
34 *815:49 *858:11 0.00223922
35 *828:11 *858:23 0.000580104
36 *839:91 *858:11 0.00108827
37 *839:103 *858:11 0.00104818
38 *839:125 *858:11 0.00306139
39 *839:139 *858:11 0.000999845
40 *839:157 *858:11 0.00313149
41 *839:173 *858:11 0.00315154
42 *839:187 *858:11 0.00133031
43 *839:215 *858:11 0.000961479
44 *846:13 *858:11 0.263813
45 *850:23 *858:23 0.0243125
46 *856:9 *858:7 0
47 *856:19 *858:23 0.0273995
48 *857:9 *858:7 0.000252946
*RES
1 mask_rev[29] *858:7 43.8625 
2 *858:7 *858:9 15 
3 *858:9 *858:11 3016.89 
4 *858:11 *858:21 41.1841 
5 *858:21 *858:23 363.556 
6 *858:23 *921:mask_rev[29] 10.3296 
*END

*D_NET *859 0.579844
*CONN
*P mask_rev[2] I
*I *921:mask_rev[2] I *D CF_CARAVEL_SOC
*CAP
1 mask_rev[2] 0.00039617
2 *921:mask_rev[2] 0.00281763
3 *859:23 0.00606392
4 *859:21 0.00324629
5 *859:19 0.00919015
6 *859:17 0.00935218
7 *859:11 0.0529153
8 *859:9 0.0531494
9 *921:mask_rev[2] *921:mask_rev[3] 0
10 *859:9 *862:9 0.000134221
11 *859:19 *863:21 0.000110233
12 *859:23 *862:23 0.0160348
13 *921:mask_rev[1] *921:mask_rev[2] 0
14 *250:33 *859:19 0.00246815
15 *252:15 *859:11 0.0088911
16 *300:27 *859:11 0.00510979
17 *345:23 *859:11 0.00504624
18 *364:27 *859:23 0.00245168
19 *364:37 *859:23 0.00107872
20 *433:6 *921:mask_rev[2] 0.000210019
21 *433:10 *859:19 0.0526267
22 *468:11 *859:23 0.0140288
23 *558:25 *859:23 1.26108e-05
24 *560:27 *859:11 0.0224675
25 *781:23 *859:19 0.0529629
26 *786:23 *859:11 0.166681
27 *804:23 *859:11 0
28 *824:19 *859:23 0.000371069
29 *825:23 *859:19 6.85171e-05
30 *829:35 *859:11 0.00153325
31 *829:35 *859:19 0.00109616
32 *837:9 *859:9 0
33 *844:13 *859:19 0.00614796
34 *848:9 *859:9 0.000136346
35 *853:11 *859:11 0.0828226
36 *855:15 *859:23 0.000222766
*RES
1 mask_rev[2] *859:9 23.0682 
2 *859:9 *859:11 2456.13 
3 *859:11 *859:17 25.4339 
4 *859:17 *859:19 105.157 
5 *859:19 *859:21 8 
6 *859:21 *859:23 212.839 
7 *859:23 *921:mask_rev[2] 14.1973 
*END

*D_NET *860 0.76157
*CONN
*P mask_rev[30] I
*I *921:mask_rev[30] I *D CF_CARAVEL_SOC
*CAP
1 mask_rev[30] 0.000194365
2 *921:mask_rev[30] 0.00075536
3 *860:19 0.00773859
4 *860:17 0.00701045
5 *860:15 0.00325597
6 *860:13 0.00322875
7 *860:11 0.036451
8 *860:9 0.0366454
9 *921:mask_rev[30] *921:mask_rev[31] 0
10 *860:9 *861:9 0.00021219
11 *860:11 *865:11 0.28273
12 *860:11 *867:11 0.000120344
13 gpio_dm0[43] *860:11 0.000615913
14 *921:mask_rev[29] *921:mask_rev[30] 0
15 *250:33 *860:15 5.03962e-05
16 *252:15 *860:11 0.0276791
17 *293:25 *860:15 0.000418517
18 *385:15 *860:11 0.0220358
19 *433:6 *921:mask_rev[30] 0.000364411
20 *450:13 *860:19 0.0114433
21 *454:49 *860:15 0.0026072
22 *465:21 *860:15 0.000272322
23 *538:51 *860:11 0.00233371
24 *542:15 *860:15 0
25 *542:15 *860:19 0
26 *559:27 *860:15 0.000120462
27 *692:27 *860:11 0.000537823
28 *739:140 *860:11 0.000346987
29 *781:19 *860:15 0
30 *785:25 *860:15 7.42681e-05
31 *786:11 *860:15 0.000164574
32 *786:11 *860:19 0.00167787
33 *786:21 *860:15 0
34 *830:11 *860:15 0.00142587
35 *830:11 *860:19 0.0261186
36 *840:27 *860:19 0
37 *842:15 *860:15 0
38 *853:11 *860:11 0.28464
39 *854:21 *860:15 0.000174046
40 *858:7 *860:9 0.000126004
*RES
1 mask_rev[30] *860:9 21.2661 
2 *860:9 *860:11 3046.91 
3 *860:11 *860:13 15 
4 *860:13 *860:15 80.0918 
5 *860:15 *860:17 0.621429 
6 *860:17 *860:19 332.381 
7 *860:19 *921:mask_rev[30] 9.98613 
*END

*D_NET *861 0.668391
*CONN
*P mask_rev[31] I
*I *921:mask_rev[31] I *D CF_CARAVEL_SOC
*CAP
1 mask_rev[31] 0.000663436
2 *921:mask_rev[31] 0.00239242
3 *861:27 0.00731336
4 *861:25 0.00558008
5 *861:21 0.00115065
6 *861:11 0.0457817
7 *861:9 0.0459537
8 *861:21 *862:21 0.00159366
9 *861:21 *864:11 0.000109188
10 *921:mask_rev[30] *921:mask_rev[31] 0
11 *248:19 *861:11 0.154224
12 *251:11 *861:9 0
13 *284:15 *861:11 0
14 *302:21 *861:11 0.00991911
15 *325:23 *861:11 0.000121191
16 *325:103 *861:11 0.00706077
17 *335:17 *861:11 0
18 *353:29 *861:21 3.501e-06
19 *388:11 *861:25 0.00124769
20 *388:11 *861:27 0.000826599
21 *388:21 *861:21 0.000167644
22 *388:23 *861:11 1.09834e-05
23 *397:9 *921:mask_rev[31] 0
24 *433:6 *921:mask_rev[31] 0.000364411
25 *460:21 *861:27 4.82477e-05
26 *539:19 *861:11 0.00200802
27 *543:21 *861:27 7.45617e-05
28 *543:23 *861:27 0.00571281
29 *558:25 *861:27 0.00151322
30 *737:173 *861:11 0.000400787
31 *824:11 *861:27 0.0286795
32 *824:19 *861:25 0.000645702
33 *824:19 *861:27 0.00187039
34 *843:11 *861:11 0.031092
35 *851:11 *861:11 0.000290059
36 *851:15 *861:21 2.4869e-05
37 *853:17 *861:21 0
38 *854:11 *861:11 0.284631
39 *854:21 *861:21 0.000913801
40 *855:23 *861:27 0.0257889
41 *856:11 *861:11 0
42 *860:9 *861:9 0.00021219
*RES
1 mask_rev[31] *861:9 30.2768 
2 *861:9 *861:11 3054.05 
3 *861:11 *861:21 36.1431 
4 *861:21 *861:25 19.9479 
5 *861:25 *861:27 389.449 
6 *861:27 *921:mask_rev[31] 14.1077 
*END

*D_NET *862 0.706969
*CONN
*P mask_rev[3] I
*I *921:mask_rev[3] I *D CF_CARAVEL_SOC
*CAP
1 mask_rev[3] 0.000974063
2 *921:mask_rev[3] 0.00286354
3 *862:23 0.00859482
4 *862:21 0.00673712
5 *862:11 0.0560509
6 *862:9 0.0560191
7 *862:9 *863:9 0.000125616
8 *862:9 *864:9 0
9 *862:11 *864:11 0.287274
10 *921:mask_rev[2] *921:mask_rev[3] 0
11 *124:13 *862:11 0.117042
12 *248:29 *862:21 5.36112e-05
13 *248:35 *862:23 0
14 *364:27 *862:23 0.00256033
15 *433:6 *921:mask_rev[3] 0.000210019
16 *468:11 *862:23 0.000291305
17 *552:23 *862:21 0.000416966
18 *804:21 *862:21 0.000243352
19 *837:9 *862:9 0
20 *843:11 *862:11 0.0748314
21 *850:21 *862:11 0.0190391
22 *850:21 *862:21 0.000420683
23 *854:21 *862:21 0.000186408
24 *855:15 *862:23 0.00346296
25 *856:11 *862:11 0.0518098
26 *859:9 *862:9 0.000134221
27 *859:23 *862:23 0.0160348
28 *861:21 *862:21 0.00159366
*RES
1 mask_rev[3] *862:9 25.835 
2 *862:9 *862:11 543.249 
3 *862:11 *862:21 30.504 
4 *862:21 *862:23 213.544 
5 *862:23 *921:mask_rev[3] 14.2832 
*END

*D_NET *863 0.739307
*CONN
*P mask_rev[4] I
*I *921:mask_rev[4] I *D CF_CARAVEL_SOC
*CAP
1 mask_rev[4] 0.00018576
2 *921:mask_rev[4] 0.0035459
3 *863:23 0.00690794
4 *863:21 0.00413256
5 *863:11 0.0368222
6 *863:9 0.0362374
7 *921:mask_rev[4] *921:mask_rev[5] 0
8 *863:9 *864:9 7.20988e-05
9 *863:21 *865:15 1.28019e-05
10 *251:25 *863:21 0.000790647
11 *284:31 *863:11 0.00669605
12 *284:39 *863:11 0.00597311
13 *385:11 *863:23 0.00141723
14 *385:15 *863:11 0.00142384
15 *385:15 *863:21 0.00219594
16 *387:15 *863:11 0.00162083
17 *387:15 *863:21 2.05341e-05
18 *419:11 *863:23 0.00243033
19 *428:21 *863:21 0
20 *428:23 *863:11 0.0026876
21 *451:21 *863:23 0.015121
22 *467:11 *863:23 0.000885376
23 *692:27 *863:11 0.000160936
24 *692:35 *863:11 0.0286361
25 *697:115 *863:11 0.000771217
26 *741:126 *863:11 0.00727012
27 *829:35 *863:21 9.92705e-05
28 *848:11 *863:11 0.272767
29 *848:23 *863:23 0.016453
30 *857:11 *863:11 0.283735
31 *859:19 *863:21 0.000110233
32 *862:9 *863:9 0.000125616
*RES
1 mask_rev[4] *863:9 19.4846 
2 *863:9 *863:11 3029.75 
3 *863:11 *863:21 37.7833 
4 *863:21 *863:23 232.559 
5 *863:23 *921:mask_rev[4] 16.0901 
*END

*D_NET *864 0.796933
*CONN
*P mask_rev[5] I
*I *921:mask_rev[5] I *D CF_CARAVEL_SOC
*CAP
1 mask_rev[5] 0.00101199
2 *921:mask_rev[5] 0.00225451
3 *864:15 0.00611226
4 *864:13 0.00385775
5 *864:11 0.0489406
6 *864:9 0.0499525
7 *921:mask_rev[5] *921:mask_rev[6] 0
8 *864:9 *865:9 0.00018416
9 *864:11 *868:11 4.52243e-05
10 *921:mask_rev[4] *921:mask_rev[5] 0
11 *124:13 *864:11 0.000109188
12 *207:23 *864:11 0.0117883
13 *335:17 *864:11 0.0121592
14 *388:11 *864:15 0
15 *388:21 *864:11 0.00117958
16 *433:6 *921:mask_rev[5] 0.000210019
17 *465:21 *864:11 1.08293e-05
18 *471:11 *864:15 0.0152652
19 *749:23 *864:15 0
20 *771:23 *864:15 0
21 *826:11 *864:15 0.00225889
22 *829:33 *864:15 0.000287757
23 *830:15 *864:11 0.0482265
24 *846:39 *864:15 0.0156216
25 *849:11 *864:11 0.28794
26 *850:21 *864:11 2.90716e-05
27 *852:27 *864:15 0.000505179
28 *854:21 *864:11 0.00152792
29 *861:21 *864:11 0.000109188
30 *862:9 *864:9 0
31 *862:11 *864:11 0.287274
32 *863:9 *864:9 7.20988e-05
*RES
1 mask_rev[5] *864:9 26.4771 
2 *864:9 *864:11 547.198 
3 *864:11 *864:13 8 
4 *864:13 *864:15 225.516 
5 *864:15 *921:mask_rev[5] 12.9093 
*END

*D_NET *865 0.720729
*CONN
*P mask_rev[6] I
*I *921:mask_rev[6] I *D CF_CARAVEL_SOC
*CAP
1 mask_rev[6] 0.000298776
2 *921:mask_rev[6] 0.00179949
3 *865:15 0.0100854
4 *865:13 0.00828586
5 *865:11 0.0361228
6 *865:9 0.0364216
7 *865:9 *866:11 1.17884e-06
8 *865:9 *867:9 0
9 *865:11 *867:11 0.272316
10 gpio_dm0[43] *865:11 0.000711077
11 *921:mask_rev[5] *921:mask_rev[6] 0
12 *252:15 *865:11 0.0237059
13 *292:25 *865:15 6.10958e-05
14 *385:15 *865:11 0.0255573
15 *389:21 *865:15 0
16 *428:21 *865:15 0.00254472
17 *429:11 *865:15 0
18 *430:11 *865:15 0.00158482
19 *433:6 *921:mask_rev[6] 0.000210019
20 *448:13 *865:15 0
21 *458:21 *865:15 0
22 *538:51 *865:11 0.00269428
23 *549:13 *865:11 0.00644834
24 *739:140 *865:11 0.0004006
25 *771:23 *865:15 0
26 *824:23 *865:11 0.000130216
27 *825:21 *865:15 0
28 *829:21 *865:15 0
29 *829:27 *865:15 0
30 *829:33 *865:15 0
31 *837:15 *865:15 0.00678813
32 *845:27 *865:15 0.00120948
33 *853:11 *865:11 0.000425201
34 *860:11 *865:11 0.28273
35 *863:21 *865:15 1.28019e-05
36 *864:9 *865:9 0.00018416
*RES
1 mask_rev[6] *865:9 21.1832 
2 *865:9 *865:11 3030.71 
3 *865:11 *865:13 15 
4 *865:13 *865:15 245.06 
5 *865:15 *921:mask_rev[6] 11.7931 
*END

*D_NET *866 0.725791
*CONN
*P mask_rev[7] I
*I *921:mask_rev[7] I *D CF_CARAVEL_SOC
*CAP
1 mask_rev[7] 0.000688726
2 *921:mask_rev[7] 0
3 *866:21 0.00654809
4 *866:17 0.0634528
5 *866:15 0.0569047
6 *866:13 0.00235754
7 *866:11 0.00304627
8 *866:11 *867:9 1.69988e-05
9 *866:21 *921:mask_rev[8] 0.0162243
10 *921:gpio_in[0] *866:17 0.0154903
11 *120:15 *866:11 0.00099108
12 *325:133 *866:17 0.00230478
13 *341:18 *866:17 0.168176
14 *344:15 *866:17 0.113996
15 *433:6 *866:21 0.000244705
16 *443:31 *866:17 0.026134
17 *443:45 *866:17 0.0160755
18 *448:33 *866:17 0.00777213
19 *449:37 *866:21 0.00118037
20 *450:29 *866:21 0.00118037
21 *451:25 *866:17 0.00636344
22 *451:35 *866:17 0.00837033
23 *457:23 *866:17 0.0143315
24 *467:15 *866:17 0.109343
25 *471:27 *866:17 0.0041329
26 *557:19 *866:17 0.000367064
27 *566:9 *866:13 0.00257101
28 *793:27 *866:17 0.023
29 *815:25 *866:17 0.00677088
30 *815:39 *866:17 4.842e-05
31 *815:49 *866:17 0.0183762
32 *837:9 *866:13 0.000308418
33 *839:91 *866:17 0.00214428
34 *839:103 *866:17 0.0024053
35 *839:117 *866:17 0.00238268
36 *839:139 *866:17 0.00242404
37 *839:149 *866:17 0.00473368
38 *839:165 *866:17 0.0046549
39 *839:187 *866:17 0.002488
40 *839:193 *866:17 0.00131138
41 *839:205 *866:17 0.0056122
42 *839:215 *866:17 0.000688955
43 *846:29 *866:17 0.000177456
44 *865:9 *866:11 1.17884e-06
*RES
1 mask_rev[7] *866:11 18.2079 
2 *866:11 *866:13 45.9236 
3 *866:13 *866:15 8 
4 *866:15 *866:17 540.973 
5 *866:17 *866:21 46.4533 
6 *866:21 *921:mask_rev[7] 8 
*END

*D_NET *867 0.709396
*CONN
*P mask_rev[8] I
*I *921:mask_rev[8] I *D CF_CARAVEL_SOC
*CAP
1 mask_rev[8] 0.000320756
2 *921:mask_rev[8] 0.00284172
3 *867:21 0.00576149
4 *867:15 0.0061975
5 *867:13 0.00327772
6 *867:11 0.0358712
7 *867:9 0.036192
8 *921:mask_rev[8] *873:39 0.00184545
9 *867:9 *868:9 0
10 gpio_dm0[43] *867:11 0.000602664
11 *252:15 *867:11 0.00810383
12 *297:22 *867:11 0.0033564
13 *385:15 *867:11 0.00135389
14 *386:25 *867:21 0.0102465
15 *433:6 *921:mask_rev[8] 0.0167287
16 *471:25 *867:21 0.000594634
17 *549:13 *867:11 0.223338
18 *692:27 *867:11 0.0274916
19 *693:193 *867:11 0.00878831
20 *697:115 *867:11 0.000962153
21 *698:27 *867:11 0.0109383
22 *739:140 *867:11 0.0004006
23 *741:168 *867:11 0.00293947
24 *824:23 *867:11 0.010279
25 *826:21 *867:21 0.00228663
26 *860:11 *867:11 0.000120344
27 *865:9 *867:9 0
28 *865:11 *867:11 0.272316
29 *866:11 *867:9 1.69988e-05
30 *866:21 *921:mask_rev[8] 0.0162243
*RES
1 mask_rev[8] *867:9 20.7689 
2 *867:9 *867:11 2910.17 
3 *867:11 *867:13 15 
4 *867:13 *867:15 48.2125 
5 *867:15 *867:21 34.6461 
6 *867:21 *921:mask_rev[8] 46.4533 
*END

*D_NET *868 0.813038
*CONN
*P mask_rev[9] I
*I *921:mask_rev[9] I *D CF_CARAVEL_SOC
*CAP
1 mask_rev[9] 0.00085955
2 *921:mask_rev[9] 0.0009852
3 *868:15 0.00580829
4 *868:13 0.00482309
5 *868:11 0.0494588
6 *868:9 0.0503184
7 *921:mask_rev[10] *921:mask_rev[9] 0
8 *119:23 *868:11 5.98468e-05
9 *336:47 *868:11 0.0376096
10 *434:11 *868:15 0.0183179
11 *450:27 *921:mask_rev[9] 8.76403e-05
12 *454:41 *868:15 0.00243031
13 *465:21 *868:11 0.000124215
14 *542:11 *868:11 0.0388921
15 *570:22 *868:11 0.0174109
16 *838:9 *868:9 0.00141235
17 *841:11 *868:11 0.287613
18 *849:11 *868:11 0.288446
19 *849:15 *868:15 0.000609662
20 *851:15 *868:15 0.00235955
21 *851:19 *868:15 0.00536732
22 *864:11 *868:11 4.52243e-05
23 *867:9 *868:9 0
*RES
1 mask_rev[9] *868:9 27.5957 
2 *868:9 *868:11 545.653 
3 *868:11 *868:13 8 
4 *868:13 *868:15 253.688 
5 *868:15 *921:mask_rev[9] 10.1653 
*END

*D_NET *871 0.0310227
*CONN
*P porb_l I
*I *921:porb_l I *D CF_CARAVEL_SOC
*CAP
1 porb_l 0.00939006
2 *921:porb_l 0.00349822
3 *871:15 0.0128883
4 *921:porb_l *873:47 0.000606975
5 *295:27 *871:15 0
6 *385:11 *871:15 0.000185252
7 *419:11 *871:15 0.00366792
8 *450:27 *921:porb_l 0.000103097
9 *737:81 *871:15 0.00068293
*RES
1 porb_l *871:15 45.5549 
2 *871:15 *921:porb_l 8.5624 
*END

*D_NET *873 0.542971
*CONN
*P resetb_l I
*I *921:resetb_l I *D CF_CARAVEL_SOC
*I *920:resetb I *D counter_macro
*CAP
1 resetb_l 0.00265632
2 *921:resetb_l 0.000261189
3 *920:resetb 0
4 *873:61 0.0170729
5 *873:59 0.0170729
6 *873:57 0.00477725
7 *873:55 0.00738335
8 *873:49 0.0316369
9 *873:47 0.0351647
10 *873:43 0.00657421
11 *873:39 0.00458344
12 *873:37 0.00561159
13 *873:31 0.00486105
14 *873:29 0.0064104
15 *873:23 0.00688987
16 *873:21 0.0112271
17 *873:15 0.0112728
18 *873:13 0.00683527
19 *921:gpio_in[10] *873:15 0
20 *921:mask_rev[8] *873:39 0.00184545
21 *921:porb_l *873:47 0.000606975
22 *202:27 *873:61 0.0687342
23 *322:235 *873:15 0
24 *325:159 *873:57 0.00641086
25 *334:44 *873:61 0.0380668
26 *335:57 *873:57 0.00283858
27 *361:33 *873:61 0.00935863
28 *381:9 *873:55 0
29 *385:15 *873:13 0.00339455
30 *385:15 *873:29 0.0057731
31 *398:15 *873:49 0.00133515
32 *398:19 *873:49 0
33 *410:11 *873:57 0.0200148
34 *422:11 *873:49 0.0136495
35 *433:6 *921:resetb_l 0.000364411
36 *448:21 *873:47 0
37 *449:37 *873:39 0
38 *539:155 *873:37 0.00197308
39 *541:85 *873:21 0
40 *541:89 *873:23 0
41 *546:25 *873:49 0.11078
42 *554:25 *873:57 0.00121861
43 *693:91 *873:49 0
44 *693:95 *873:37 0.00158758
45 *693:121 *873:21 0
46 *737:97 *873:37 0.0094681
47 *737:127 *873:23 0
48 *739:68 *873:23 0
49 *761:11 *873:49 0.0323291
50 *813:11 *873:49 0
51 *814:11 *873:49 0.0001977
52 *815:15 *873:37 0.0094681
53 *816:11 *873:49 0.0098817
54 *829:35 *873:13 0.00339139
55 *829:35 *873:29 0.00576676
56 *843:15 *921:resetb_l 0.000120752
57 *844:17 *921:resetb_l 0.000120752
58 *844:17 *873:39 0.00398312
*RES
1 resetb_l *873:13 37.4142 
2 *873:13 *873:15 64.9393 
3 *873:15 *873:21 43.104 
4 *873:21 *873:23 64.9393 
5 *873:23 *873:29 37.952 
6 *873:29 *873:31 55.0793 
7 *873:31 *873:37 33.2293 
8 *873:37 *873:39 138.185 
9 *873:39 *873:43 8.35653 
10 *873:43 *873:47 22.6963 
11 *873:47 *873:49 1408.01 
12 *873:49 *873:55 20.7787 
13 *873:55 *873:57 258.618 
14 *873:57 *873:59 8 
15 *873:59 *873:61 126.924 
16 *873:61 *920:resetb 8 
17 *873:43 *921:resetb_l 0.5992 
*END
