*SPEF "ieee 1481-1999"
*DESIGN "openframe_project_wrapper"
*DATE "03:39:41 Tuesday September 22, 2026"
*VENDOR "The OpenROAD Project"
*PROGRAM "OpenROAD"
*VERSION "edf00dff99f6c40d67a30c0e22a8191c5d2ed9d6"
*DESIGN_FLOW "NAME_SCOPE LOCAL" "PIN_CAP NONE"
*DIVIDER /
*DELIMITER :
*BUS_DELIMITER []
*T_UNIT 1 NS
*C_UNIT 1 PF
*R_UNIT 1 OHM
*L_UNIT 1 HENRY

*NAME_MAP
*1 analog_io[0]
*2 analog_io[10]
*3 analog_io[11]
*4 analog_io[12]
*5 analog_io[13]
*6 analog_io[14]
*7 analog_io[15]
*8 analog_io[16]
*9 analog_io[17]
*10 analog_io[18]
*11 analog_io[19]
*12 analog_io[1]
*13 analog_io[20]
*14 analog_io[21]
*15 analog_io[22]
*16 analog_io[23]
*17 analog_io[24]
*18 analog_io[25]
*19 analog_io[26]
*20 analog_io[27]
*21 analog_io[28]
*22 analog_io[29]
*23 analog_io[2]
*24 analog_io[30]
*25 analog_io[31]
*26 analog_io[32]
*27 analog_io[33]
*28 analog_io[34]
*29 analog_io[35]
*30 analog_io[36]
*31 analog_io[37]
*32 analog_io[38]
*33 analog_io[39]
*34 analog_io[3]
*35 analog_io[40]
*36 analog_io[41]
*37 analog_io[42]
*38 analog_io[43]
*39 analog_io[4]
*40 analog_io[5]
*41 analog_io[6]
*42 analog_io[7]
*43 analog_io[8]
*44 analog_io[9]
*45 analog_noesd_io[0]
*46 analog_noesd_io[10]
*47 analog_noesd_io[11]
*48 analog_noesd_io[12]
*49 analog_noesd_io[13]
*50 analog_noesd_io[14]
*51 analog_noesd_io[15]
*52 analog_noesd_io[16]
*53 analog_noesd_io[17]
*54 analog_noesd_io[18]
*55 analog_noesd_io[19]
*56 analog_noesd_io[1]
*57 analog_noesd_io[20]
*58 analog_noesd_io[21]
*59 analog_noesd_io[22]
*60 analog_noesd_io[23]
*61 analog_noesd_io[24]
*62 analog_noesd_io[25]
*63 analog_noesd_io[26]
*64 analog_noesd_io[27]
*65 analog_noesd_io[28]
*66 analog_noesd_io[29]
*67 analog_noesd_io[2]
*68 analog_noesd_io[30]
*69 analog_noesd_io[31]
*70 analog_noesd_io[32]
*71 analog_noesd_io[33]
*72 analog_noesd_io[34]
*73 analog_noesd_io[35]
*74 analog_noesd_io[36]
*75 analog_noesd_io[37]
*76 analog_noesd_io[38]
*77 analog_noesd_io[39]
*78 analog_noesd_io[3]
*79 analog_noesd_io[40]
*80 analog_noesd_io[41]
*81 analog_noesd_io[42]
*82 analog_noesd_io[43]
*83 analog_noesd_io[4]
*84 analog_noesd_io[5]
*85 analog_noesd_io[6]
*86 analog_noesd_io[7]
*87 analog_noesd_io[8]
*88 analog_noesd_io[9]
*89 gpio_analog_en[0]
*90 gpio_analog_en[10]
*91 gpio_analog_en[11]
*92 gpio_analog_en[12]
*93 gpio_analog_en[13]
*94 gpio_analog_en[14]
*95 gpio_analog_en[15]
*96 gpio_analog_en[16]
*97 gpio_analog_en[17]
*98 gpio_analog_en[18]
*99 gpio_analog_en[19]
*100 gpio_analog_en[1]
*101 gpio_analog_en[20]
*102 gpio_analog_en[21]
*103 gpio_analog_en[22]
*104 gpio_analog_en[23]
*105 gpio_analog_en[24]
*106 gpio_analog_en[25]
*107 gpio_analog_en[26]
*108 gpio_analog_en[27]
*109 gpio_analog_en[28]
*110 gpio_analog_en[29]
*111 gpio_analog_en[2]
*112 gpio_analog_en[30]
*113 gpio_analog_en[31]
*114 gpio_analog_en[32]
*115 gpio_analog_en[33]
*116 gpio_analog_en[34]
*117 gpio_analog_en[35]
*118 gpio_analog_en[36]
*119 gpio_analog_en[37]
*120 gpio_analog_en[38]
*121 gpio_analog_en[39]
*122 gpio_analog_en[3]
*123 gpio_analog_en[40]
*124 gpio_analog_en[41]
*125 gpio_analog_en[42]
*126 gpio_analog_en[43]
*127 gpio_analog_en[4]
*128 gpio_analog_en[5]
*129 gpio_analog_en[6]
*130 gpio_analog_en[7]
*131 gpio_analog_en[8]
*132 gpio_analog_en[9]
*133 gpio_analog_pol[0]
*134 gpio_analog_pol[10]
*135 gpio_analog_pol[11]
*136 gpio_analog_pol[12]
*137 gpio_analog_pol[13]
*138 gpio_analog_pol[14]
*139 gpio_analog_pol[15]
*140 gpio_analog_pol[16]
*141 gpio_analog_pol[17]
*142 gpio_analog_pol[18]
*143 gpio_analog_pol[19]
*144 gpio_analog_pol[1]
*145 gpio_analog_pol[20]
*146 gpio_analog_pol[21]
*147 gpio_analog_pol[22]
*148 gpio_analog_pol[23]
*149 gpio_analog_pol[24]
*150 gpio_analog_pol[25]
*151 gpio_analog_pol[26]
*152 gpio_analog_pol[27]
*153 gpio_analog_pol[28]
*154 gpio_analog_pol[29]
*155 gpio_analog_pol[2]
*156 gpio_analog_pol[30]
*157 gpio_analog_pol[31]
*158 gpio_analog_pol[32]
*159 gpio_analog_pol[33]
*160 gpio_analog_pol[34]
*161 gpio_analog_pol[35]
*162 gpio_analog_pol[36]
*163 gpio_analog_pol[37]
*164 gpio_analog_pol[38]
*165 gpio_analog_pol[39]
*166 gpio_analog_pol[3]
*167 gpio_analog_pol[40]
*168 gpio_analog_pol[41]
*169 gpio_analog_pol[42]
*170 gpio_analog_pol[43]
*171 gpio_analog_pol[4]
*172 gpio_analog_pol[5]
*173 gpio_analog_pol[6]
*174 gpio_analog_pol[7]
*175 gpio_analog_pol[8]
*176 gpio_analog_pol[9]
*177 gpio_analog_sel[0]
*178 gpio_analog_sel[10]
*179 gpio_analog_sel[11]
*180 gpio_analog_sel[12]
*181 gpio_analog_sel[13]
*182 gpio_analog_sel[14]
*183 gpio_analog_sel[15]
*184 gpio_analog_sel[16]
*185 gpio_analog_sel[17]
*186 gpio_analog_sel[18]
*187 gpio_analog_sel[19]
*188 gpio_analog_sel[1]
*189 gpio_analog_sel[20]
*190 gpio_analog_sel[21]
*191 gpio_analog_sel[22]
*192 gpio_analog_sel[23]
*193 gpio_analog_sel[24]
*194 gpio_analog_sel[25]
*195 gpio_analog_sel[26]
*196 gpio_analog_sel[27]
*197 gpio_analog_sel[28]
*198 gpio_analog_sel[29]
*199 gpio_analog_sel[2]
*200 gpio_analog_sel[30]
*201 gpio_analog_sel[31]
*202 gpio_analog_sel[32]
*203 gpio_analog_sel[33]
*204 gpio_analog_sel[34]
*205 gpio_analog_sel[35]
*206 gpio_analog_sel[36]
*207 gpio_analog_sel[37]
*208 gpio_analog_sel[38]
*209 gpio_analog_sel[39]
*210 gpio_analog_sel[3]
*211 gpio_analog_sel[40]
*212 gpio_analog_sel[41]
*213 gpio_analog_sel[42]
*214 gpio_analog_sel[43]
*215 gpio_analog_sel[4]
*216 gpio_analog_sel[5]
*217 gpio_analog_sel[6]
*218 gpio_analog_sel[7]
*219 gpio_analog_sel[8]
*220 gpio_analog_sel[9]
*221 gpio_dm0[0]
*222 gpio_dm0[10]
*223 gpio_dm0[11]
*224 gpio_dm0[12]
*225 gpio_dm0[13]
*226 gpio_dm0[14]
*227 gpio_dm0[15]
*228 gpio_dm0[16]
*229 gpio_dm0[17]
*230 gpio_dm0[18]
*231 gpio_dm0[19]
*232 gpio_dm0[1]
*233 gpio_dm0[20]
*234 gpio_dm0[21]
*235 gpio_dm0[22]
*236 gpio_dm0[23]
*237 gpio_dm0[24]
*238 gpio_dm0[25]
*239 gpio_dm0[26]
*240 gpio_dm0[27]
*241 gpio_dm0[28]
*242 gpio_dm0[29]
*243 gpio_dm0[2]
*244 gpio_dm0[30]
*245 gpio_dm0[31]
*246 gpio_dm0[32]
*247 gpio_dm0[33]
*248 gpio_dm0[34]
*249 gpio_dm0[35]
*250 gpio_dm0[36]
*251 gpio_dm0[37]
*252 gpio_dm0[38]
*253 gpio_dm0[39]
*254 gpio_dm0[3]
*255 gpio_dm0[40]
*256 gpio_dm0[41]
*257 gpio_dm0[42]
*258 gpio_dm0[43]
*259 gpio_dm0[4]
*260 gpio_dm0[5]
*261 gpio_dm0[6]
*262 gpio_dm0[7]
*263 gpio_dm0[8]
*264 gpio_dm0[9]
*265 gpio_dm1[0]
*266 gpio_dm1[10]
*267 gpio_dm1[11]
*268 gpio_dm1[12]
*269 gpio_dm1[13]
*270 gpio_dm1[14]
*271 gpio_dm1[15]
*272 gpio_dm1[16]
*273 gpio_dm1[17]
*274 gpio_dm1[18]
*275 gpio_dm1[19]
*276 gpio_dm1[1]
*277 gpio_dm1[20]
*278 gpio_dm1[21]
*279 gpio_dm1[22]
*280 gpio_dm1[23]
*281 gpio_dm1[24]
*282 gpio_dm1[25]
*283 gpio_dm1[26]
*284 gpio_dm1[27]
*285 gpio_dm1[28]
*286 gpio_dm1[29]
*287 gpio_dm1[2]
*288 gpio_dm1[30]
*289 gpio_dm1[31]
*290 gpio_dm1[32]
*291 gpio_dm1[33]
*292 gpio_dm1[34]
*293 gpio_dm1[35]
*294 gpio_dm1[36]
*295 gpio_dm1[37]
*296 gpio_dm1[38]
*297 gpio_dm1[39]
*298 gpio_dm1[3]
*299 gpio_dm1[40]
*300 gpio_dm1[41]
*301 gpio_dm1[42]
*302 gpio_dm1[43]
*303 gpio_dm1[4]
*304 gpio_dm1[5]
*305 gpio_dm1[6]
*306 gpio_dm1[7]
*307 gpio_dm1[8]
*308 gpio_dm1[9]
*309 gpio_dm2[0]
*310 gpio_dm2[10]
*311 gpio_dm2[11]
*312 gpio_dm2[12]
*313 gpio_dm2[13]
*314 gpio_dm2[14]
*315 gpio_dm2[15]
*316 gpio_dm2[16]
*317 gpio_dm2[17]
*318 gpio_dm2[18]
*319 gpio_dm2[19]
*320 gpio_dm2[1]
*321 gpio_dm2[20]
*322 gpio_dm2[21]
*323 gpio_dm2[22]
*324 gpio_dm2[23]
*325 gpio_dm2[24]
*326 gpio_dm2[25]
*327 gpio_dm2[26]
*328 gpio_dm2[27]
*329 gpio_dm2[28]
*330 gpio_dm2[29]
*331 gpio_dm2[2]
*332 gpio_dm2[30]
*333 gpio_dm2[31]
*334 gpio_dm2[32]
*335 gpio_dm2[33]
*336 gpio_dm2[34]
*337 gpio_dm2[35]
*338 gpio_dm2[36]
*339 gpio_dm2[37]
*340 gpio_dm2[38]
*341 gpio_dm2[39]
*342 gpio_dm2[3]
*343 gpio_dm2[40]
*344 gpio_dm2[41]
*345 gpio_dm2[42]
*346 gpio_dm2[43]
*347 gpio_dm2[4]
*348 gpio_dm2[5]
*349 gpio_dm2[6]
*350 gpio_dm2[7]
*351 gpio_dm2[8]
*352 gpio_dm2[9]
*353 gpio_holdover[0]
*354 gpio_holdover[10]
*355 gpio_holdover[11]
*356 gpio_holdover[12]
*357 gpio_holdover[13]
*358 gpio_holdover[14]
*359 gpio_holdover[15]
*360 gpio_holdover[16]
*361 gpio_holdover[17]
*362 gpio_holdover[18]
*363 gpio_holdover[19]
*364 gpio_holdover[1]
*365 gpio_holdover[20]
*366 gpio_holdover[21]
*367 gpio_holdover[22]
*368 gpio_holdover[23]
*369 gpio_holdover[24]
*370 gpio_holdover[25]
*371 gpio_holdover[26]
*372 gpio_holdover[27]
*373 gpio_holdover[28]
*374 gpio_holdover[29]
*375 gpio_holdover[2]
*376 gpio_holdover[30]
*377 gpio_holdover[31]
*378 gpio_holdover[32]
*379 gpio_holdover[33]
*380 gpio_holdover[34]
*381 gpio_holdover[35]
*382 gpio_holdover[36]
*383 gpio_holdover[37]
*384 gpio_holdover[38]
*385 gpio_holdover[39]
*386 gpio_holdover[3]
*387 gpio_holdover[40]
*388 gpio_holdover[41]
*389 gpio_holdover[42]
*390 gpio_holdover[43]
*391 gpio_holdover[4]
*392 gpio_holdover[5]
*393 gpio_holdover[6]
*394 gpio_holdover[7]
*395 gpio_holdover[8]
*396 gpio_holdover[9]
*397 gpio_ib_mode_sel[0]
*398 gpio_ib_mode_sel[10]
*399 gpio_ib_mode_sel[11]
*400 gpio_ib_mode_sel[12]
*401 gpio_ib_mode_sel[13]
*402 gpio_ib_mode_sel[14]
*403 gpio_ib_mode_sel[15]
*404 gpio_ib_mode_sel[16]
*405 gpio_ib_mode_sel[17]
*406 gpio_ib_mode_sel[18]
*407 gpio_ib_mode_sel[19]
*408 gpio_ib_mode_sel[1]
*409 gpio_ib_mode_sel[20]
*410 gpio_ib_mode_sel[21]
*411 gpio_ib_mode_sel[22]
*412 gpio_ib_mode_sel[23]
*413 gpio_ib_mode_sel[24]
*414 gpio_ib_mode_sel[25]
*415 gpio_ib_mode_sel[26]
*416 gpio_ib_mode_sel[27]
*417 gpio_ib_mode_sel[28]
*418 gpio_ib_mode_sel[29]
*419 gpio_ib_mode_sel[2]
*420 gpio_ib_mode_sel[30]
*421 gpio_ib_mode_sel[31]
*422 gpio_ib_mode_sel[32]
*423 gpio_ib_mode_sel[33]
*424 gpio_ib_mode_sel[34]
*425 gpio_ib_mode_sel[35]
*426 gpio_ib_mode_sel[36]
*427 gpio_ib_mode_sel[37]
*428 gpio_ib_mode_sel[38]
*429 gpio_ib_mode_sel[39]
*430 gpio_ib_mode_sel[3]
*431 gpio_ib_mode_sel[40]
*432 gpio_ib_mode_sel[41]
*433 gpio_ib_mode_sel[42]
*434 gpio_ib_mode_sel[43]
*435 gpio_ib_mode_sel[4]
*436 gpio_ib_mode_sel[5]
*437 gpio_ib_mode_sel[6]
*438 gpio_ib_mode_sel[7]
*439 gpio_ib_mode_sel[8]
*440 gpio_ib_mode_sel[9]
*441 gpio_in[0]
*442 gpio_in[10]
*443 gpio_in[11]
*444 gpio_in[12]
*445 gpio_in[13]
*446 gpio_in[14]
*447 gpio_in[15]
*448 gpio_in[16]
*449 gpio_in[17]
*450 gpio_in[18]
*451 gpio_in[19]
*452 gpio_in[1]
*453 gpio_in[20]
*454 gpio_in[21]
*455 gpio_in[22]
*456 gpio_in[23]
*457 gpio_in[24]
*458 gpio_in[25]
*459 gpio_in[26]
*460 gpio_in[27]
*461 gpio_in[28]
*462 gpio_in[29]
*463 gpio_in[2]
*464 gpio_in[30]
*465 gpio_in[31]
*466 gpio_in[32]
*467 gpio_in[33]
*468 gpio_in[34]
*469 gpio_in[35]
*470 gpio_in[36]
*471 gpio_in[37]
*472 gpio_in[38]
*473 gpio_in[39]
*474 gpio_in[3]
*475 gpio_in[40]
*476 gpio_in[41]
*477 gpio_in[42]
*478 gpio_in[43]
*479 gpio_in[4]
*480 gpio_in[5]
*481 gpio_in[6]
*482 gpio_in[7]
*483 gpio_in[8]
*484 gpio_in[9]
*485 gpio_in_h[0]
*486 gpio_in_h[10]
*487 gpio_in_h[11]
*488 gpio_in_h[12]
*489 gpio_in_h[13]
*490 gpio_in_h[14]
*491 gpio_in_h[15]
*492 gpio_in_h[16]
*493 gpio_in_h[17]
*494 gpio_in_h[18]
*495 gpio_in_h[19]
*496 gpio_in_h[1]
*497 gpio_in_h[20]
*498 gpio_in_h[21]
*499 gpio_in_h[22]
*500 gpio_in_h[23]
*501 gpio_in_h[24]
*502 gpio_in_h[25]
*503 gpio_in_h[26]
*504 gpio_in_h[27]
*505 gpio_in_h[28]
*506 gpio_in_h[29]
*507 gpio_in_h[2]
*508 gpio_in_h[30]
*509 gpio_in_h[31]
*510 gpio_in_h[32]
*511 gpio_in_h[33]
*512 gpio_in_h[34]
*513 gpio_in_h[35]
*514 gpio_in_h[36]
*515 gpio_in_h[37]
*516 gpio_in_h[38]
*517 gpio_in_h[39]
*518 gpio_in_h[3]
*519 gpio_in_h[40]
*520 gpio_in_h[41]
*521 gpio_in_h[42]
*522 gpio_in_h[43]
*523 gpio_in_h[4]
*524 gpio_in_h[5]
*525 gpio_in_h[6]
*526 gpio_in_h[7]
*527 gpio_in_h[8]
*528 gpio_in_h[9]
*529 gpio_inp_dis[0]
*530 gpio_inp_dis[10]
*531 gpio_inp_dis[11]
*532 gpio_inp_dis[12]
*533 gpio_inp_dis[13]
*534 gpio_inp_dis[14]
*535 gpio_inp_dis[15]
*536 gpio_inp_dis[16]
*537 gpio_inp_dis[17]
*538 gpio_inp_dis[18]
*539 gpio_inp_dis[19]
*540 gpio_inp_dis[1]
*541 gpio_inp_dis[20]
*542 gpio_inp_dis[21]
*543 gpio_inp_dis[22]
*544 gpio_inp_dis[23]
*545 gpio_inp_dis[24]
*546 gpio_inp_dis[25]
*547 gpio_inp_dis[26]
*548 gpio_inp_dis[27]
*549 gpio_inp_dis[28]
*550 gpio_inp_dis[29]
*551 gpio_inp_dis[2]
*552 gpio_inp_dis[30]
*553 gpio_inp_dis[31]
*554 gpio_inp_dis[32]
*555 gpio_inp_dis[33]
*556 gpio_inp_dis[34]
*557 gpio_inp_dis[35]
*558 gpio_inp_dis[36]
*559 gpio_inp_dis[37]
*560 gpio_inp_dis[38]
*561 gpio_inp_dis[39]
*562 gpio_inp_dis[3]
*563 gpio_inp_dis[40]
*564 gpio_inp_dis[41]
*565 gpio_inp_dis[42]
*566 gpio_inp_dis[43]
*567 gpio_inp_dis[4]
*568 gpio_inp_dis[5]
*569 gpio_inp_dis[6]
*570 gpio_inp_dis[7]
*571 gpio_inp_dis[8]
*572 gpio_inp_dis[9]
*573 gpio_loopback_one[0]
*574 gpio_loopback_one[10]
*575 gpio_loopback_one[11]
*576 gpio_loopback_one[12]
*577 gpio_loopback_one[13]
*578 gpio_loopback_one[14]
*579 gpio_loopback_one[15]
*580 gpio_loopback_one[16]
*581 gpio_loopback_one[17]
*582 gpio_loopback_one[18]
*583 gpio_loopback_one[19]
*584 gpio_loopback_one[1]
*585 gpio_loopback_one[20]
*586 gpio_loopback_one[21]
*587 gpio_loopback_one[22]
*588 gpio_loopback_one[23]
*589 gpio_loopback_one[24]
*590 gpio_loopback_one[25]
*591 gpio_loopback_one[26]
*592 gpio_loopback_one[27]
*593 gpio_loopback_one[28]
*594 gpio_loopback_one[29]
*595 gpio_loopback_one[2]
*596 gpio_loopback_one[30]
*597 gpio_loopback_one[31]
*598 gpio_loopback_one[32]
*599 gpio_loopback_one[33]
*600 gpio_loopback_one[34]
*601 gpio_loopback_one[35]
*602 gpio_loopback_one[36]
*603 gpio_loopback_one[37]
*604 gpio_loopback_one[38]
*605 gpio_loopback_one[39]
*606 gpio_loopback_one[3]
*607 gpio_loopback_one[40]
*608 gpio_loopback_one[41]
*609 gpio_loopback_one[42]
*610 gpio_loopback_one[43]
*611 gpio_loopback_one[4]
*612 gpio_loopback_one[5]
*613 gpio_loopback_one[6]
*614 gpio_loopback_one[7]
*615 gpio_loopback_one[8]
*616 gpio_loopback_one[9]
*617 gpio_loopback_zero[0]
*618 gpio_loopback_zero[10]
*619 gpio_loopback_zero[11]
*620 gpio_loopback_zero[12]
*621 gpio_loopback_zero[13]
*622 gpio_loopback_zero[14]
*623 gpio_loopback_zero[15]
*624 gpio_loopback_zero[16]
*625 gpio_loopback_zero[17]
*626 gpio_loopback_zero[18]
*627 gpio_loopback_zero[19]
*628 gpio_loopback_zero[1]
*629 gpio_loopback_zero[20]
*630 gpio_loopback_zero[21]
*631 gpio_loopback_zero[22]
*632 gpio_loopback_zero[23]
*633 gpio_loopback_zero[24]
*634 gpio_loopback_zero[25]
*635 gpio_loopback_zero[26]
*636 gpio_loopback_zero[27]
*637 gpio_loopback_zero[28]
*638 gpio_loopback_zero[29]
*639 gpio_loopback_zero[2]
*640 gpio_loopback_zero[30]
*641 gpio_loopback_zero[31]
*642 gpio_loopback_zero[32]
*643 gpio_loopback_zero[33]
*644 gpio_loopback_zero[34]
*645 gpio_loopback_zero[35]
*646 gpio_loopback_zero[36]
*647 gpio_loopback_zero[37]
*648 gpio_loopback_zero[38]
*649 gpio_loopback_zero[39]
*650 gpio_loopback_zero[3]
*651 gpio_loopback_zero[40]
*652 gpio_loopback_zero[41]
*653 gpio_loopback_zero[42]
*654 gpio_loopback_zero[43]
*655 gpio_loopback_zero[4]
*656 gpio_loopback_zero[5]
*657 gpio_loopback_zero[6]
*658 gpio_loopback_zero[7]
*659 gpio_loopback_zero[8]
*660 gpio_loopback_zero[9]
*661 gpio_oeb[0]
*662 gpio_oeb[10]
*663 gpio_oeb[11]
*664 gpio_oeb[12]
*665 gpio_oeb[13]
*666 gpio_oeb[14]
*667 gpio_oeb[15]
*668 gpio_oeb[16]
*669 gpio_oeb[17]
*670 gpio_oeb[18]
*671 gpio_oeb[19]
*672 gpio_oeb[1]
*673 gpio_oeb[20]
*674 gpio_oeb[21]
*675 gpio_oeb[22]
*676 gpio_oeb[23]
*677 gpio_oeb[24]
*678 gpio_oeb[25]
*679 gpio_oeb[26]
*680 gpio_oeb[27]
*681 gpio_oeb[28]
*682 gpio_oeb[29]
*683 gpio_oeb[2]
*684 gpio_oeb[30]
*685 gpio_oeb[31]
*686 gpio_oeb[32]
*687 gpio_oeb[33]
*688 gpio_oeb[34]
*689 gpio_oeb[35]
*690 gpio_oeb[36]
*691 gpio_oeb[37]
*692 gpio_oeb[38]
*693 gpio_oeb[39]
*694 gpio_oeb[3]
*695 gpio_oeb[40]
*696 gpio_oeb[41]
*697 gpio_oeb[42]
*698 gpio_oeb[43]
*699 gpio_oeb[4]
*700 gpio_oeb[5]
*701 gpio_oeb[6]
*702 gpio_oeb[7]
*703 gpio_oeb[8]
*704 gpio_oeb[9]
*705 gpio_out[0]
*706 gpio_out[10]
*707 gpio_out[11]
*708 gpio_out[12]
*709 gpio_out[13]
*710 gpio_out[14]
*711 gpio_out[15]
*712 gpio_out[16]
*713 gpio_out[17]
*714 gpio_out[18]
*715 gpio_out[19]
*716 gpio_out[1]
*717 gpio_out[20]
*718 gpio_out[21]
*719 gpio_out[22]
*720 gpio_out[23]
*721 gpio_out[24]
*722 gpio_out[25]
*723 gpio_out[26]
*724 gpio_out[27]
*725 gpio_out[28]
*726 gpio_out[29]
*727 gpio_out[2]
*728 gpio_out[30]
*729 gpio_out[31]
*730 gpio_out[32]
*731 gpio_out[33]
*732 gpio_out[34]
*733 gpio_out[35]
*734 gpio_out[36]
*735 gpio_out[37]
*736 gpio_out[38]
*737 gpio_out[39]
*738 gpio_out[3]
*739 gpio_out[40]
*740 gpio_out[41]
*741 gpio_out[42]
*742 gpio_out[43]
*743 gpio_out[4]
*744 gpio_out[5]
*745 gpio_out[6]
*746 gpio_out[7]
*747 gpio_out[8]
*748 gpio_out[9]
*749 gpio_slow_sel[0]
*750 gpio_slow_sel[10]
*751 gpio_slow_sel[11]
*752 gpio_slow_sel[12]
*753 gpio_slow_sel[13]
*754 gpio_slow_sel[14]
*755 gpio_slow_sel[15]
*756 gpio_slow_sel[16]
*757 gpio_slow_sel[17]
*758 gpio_slow_sel[18]
*759 gpio_slow_sel[19]
*760 gpio_slow_sel[1]
*761 gpio_slow_sel[20]
*762 gpio_slow_sel[21]
*763 gpio_slow_sel[22]
*764 gpio_slow_sel[23]
*765 gpio_slow_sel[24]
*766 gpio_slow_sel[25]
*767 gpio_slow_sel[26]
*768 gpio_slow_sel[27]
*769 gpio_slow_sel[28]
*770 gpio_slow_sel[29]
*771 gpio_slow_sel[2]
*772 gpio_slow_sel[30]
*773 gpio_slow_sel[31]
*774 gpio_slow_sel[32]
*775 gpio_slow_sel[33]
*776 gpio_slow_sel[34]
*777 gpio_slow_sel[35]
*778 gpio_slow_sel[36]
*779 gpio_slow_sel[37]
*780 gpio_slow_sel[38]
*781 gpio_slow_sel[39]
*782 gpio_slow_sel[3]
*783 gpio_slow_sel[40]
*784 gpio_slow_sel[41]
*785 gpio_slow_sel[42]
*786 gpio_slow_sel[43]
*787 gpio_slow_sel[4]
*788 gpio_slow_sel[5]
*789 gpio_slow_sel[6]
*790 gpio_slow_sel[7]
*791 gpio_slow_sel[8]
*792 gpio_slow_sel[9]
*793 gpio_vtrip_sel[0]
*794 gpio_vtrip_sel[10]
*795 gpio_vtrip_sel[11]
*796 gpio_vtrip_sel[12]
*797 gpio_vtrip_sel[13]
*798 gpio_vtrip_sel[14]
*799 gpio_vtrip_sel[15]
*800 gpio_vtrip_sel[16]
*801 gpio_vtrip_sel[17]
*802 gpio_vtrip_sel[18]
*803 gpio_vtrip_sel[19]
*804 gpio_vtrip_sel[1]
*805 gpio_vtrip_sel[20]
*806 gpio_vtrip_sel[21]
*807 gpio_vtrip_sel[22]
*808 gpio_vtrip_sel[23]
*809 gpio_vtrip_sel[24]
*810 gpio_vtrip_sel[25]
*811 gpio_vtrip_sel[26]
*812 gpio_vtrip_sel[27]
*813 gpio_vtrip_sel[28]
*814 gpio_vtrip_sel[29]
*815 gpio_vtrip_sel[2]
*816 gpio_vtrip_sel[30]
*817 gpio_vtrip_sel[31]
*818 gpio_vtrip_sel[32]
*819 gpio_vtrip_sel[33]
*820 gpio_vtrip_sel[34]
*821 gpio_vtrip_sel[35]
*822 gpio_vtrip_sel[36]
*823 gpio_vtrip_sel[37]
*824 gpio_vtrip_sel[38]
*825 gpio_vtrip_sel[39]
*826 gpio_vtrip_sel[3]
*827 gpio_vtrip_sel[40]
*828 gpio_vtrip_sel[41]
*829 gpio_vtrip_sel[42]
*830 gpio_vtrip_sel[43]
*831 gpio_vtrip_sel[4]
*832 gpio_vtrip_sel[5]
*833 gpio_vtrip_sel[6]
*834 gpio_vtrip_sel[7]
*835 gpio_vtrip_sel[8]
*836 gpio_vtrip_sel[9]
*837 mask_rev[0]
*838 mask_rev[10]
*839 mask_rev[11]
*840 mask_rev[12]
*841 mask_rev[13]
*842 mask_rev[14]
*843 mask_rev[15]
*844 mask_rev[16]
*845 mask_rev[17]
*846 mask_rev[18]
*847 mask_rev[19]
*848 mask_rev[1]
*849 mask_rev[20]
*850 mask_rev[21]
*851 mask_rev[22]
*852 mask_rev[23]
*853 mask_rev[24]
*854 mask_rev[25]
*855 mask_rev[26]
*856 mask_rev[27]
*857 mask_rev[28]
*858 mask_rev[29]
*859 mask_rev[2]
*860 mask_rev[30]
*861 mask_rev[31]
*862 mask_rev[3]
*863 mask_rev[4]
*864 mask_rev[5]
*865 mask_rev[6]
*866 mask_rev[7]
*867 mask_rev[8]
*868 mask_rev[9]
*869 por_l
*870 porb_h
*871 porb_l
*872 resetb_h
*873 resetb_l
*888 soc_gpio_oeb_unused\[0\]
*889 soc_gpio_oeb_unused\[10\]
*890 soc_gpio_oeb_unused\[11\]
*891 soc_gpio_oeb_unused\[12\]
*892 soc_gpio_oeb_unused\[13\]
*893 soc_gpio_oeb_unused\[14\]
*894 soc_gpio_oeb_unused\[15\]
*895 soc_gpio_oeb_unused\[1\]
*896 soc_gpio_oeb_unused\[2\]
*897 soc_gpio_oeb_unused\[3\]
*898 soc_gpio_oeb_unused\[4\]
*899 soc_gpio_oeb_unused\[5\]
*900 soc_gpio_oeb_unused\[6\]
*901 soc_gpio_oeb_unused\[7\]
*902 soc_gpio_oeb_unused\[8\]
*903 soc_gpio_oeb_unused\[9\]
*904 soc_gpio_out_unused\[0\]
*905 soc_gpio_out_unused\[10\]
*906 soc_gpio_out_unused\[11\]
*907 soc_gpio_out_unused\[12\]
*908 soc_gpio_out_unused\[13\]
*909 soc_gpio_out_unused\[14\]
*910 soc_gpio_out_unused\[15\]
*911 soc_gpio_out_unused\[1\]
*912 soc_gpio_out_unused\[2\]
*913 soc_gpio_out_unused\[3\]
*914 soc_gpio_out_unused\[4\]
*915 soc_gpio_out_unused\[5\]
*916 soc_gpio_out_unused\[6\]
*917 soc_gpio_out_unused\[7\]
*918 soc_gpio_out_unused\[8\]
*919 soc_gpio_out_unused\[9\]
*920 u_counter
*921 u_soc

*PORTS
analog_io[0] I
analog_io[10] I
analog_io[11] I
analog_io[12] I
analog_io[13] I
analog_io[14] I
analog_io[15] I
analog_io[16] I
analog_io[17] I
analog_io[18] I
analog_io[19] I
analog_io[1] I
analog_io[20] I
analog_io[21] I
analog_io[22] I
analog_io[23] I
analog_io[24] I
analog_io[25] I
analog_io[26] I
analog_io[27] I
analog_io[28] I
analog_io[29] I
analog_io[2] I
analog_io[30] I
analog_io[31] I
analog_io[32] I
analog_io[33] I
analog_io[34] I
analog_io[35] I
analog_io[36] I
analog_io[37] I
analog_io[38] I
analog_io[39] I
analog_io[3] I
analog_io[40] I
analog_io[41] I
analog_io[42] I
analog_io[43] I
analog_io[4] I
analog_io[5] I
analog_io[6] I
analog_io[7] I
analog_io[8] I
analog_io[9] I
analog_noesd_io[0] I
analog_noesd_io[10] I
analog_noesd_io[11] I
analog_noesd_io[12] I
analog_noesd_io[13] I
analog_noesd_io[14] I
analog_noesd_io[15] I
analog_noesd_io[16] I
analog_noesd_io[17] I
analog_noesd_io[18] I
analog_noesd_io[19] I
analog_noesd_io[1] I
analog_noesd_io[20] I
analog_noesd_io[21] I
analog_noesd_io[22] I
analog_noesd_io[23] I
analog_noesd_io[24] I
analog_noesd_io[25] I
analog_noesd_io[26] I
analog_noesd_io[27] I
analog_noesd_io[28] I
analog_noesd_io[29] I
analog_noesd_io[2] I
analog_noesd_io[30] I
analog_noesd_io[31] I
analog_noesd_io[32] I
analog_noesd_io[33] I
analog_noesd_io[34] I
analog_noesd_io[35] I
analog_noesd_io[36] I
analog_noesd_io[37] I
analog_noesd_io[38] I
analog_noesd_io[39] I
analog_noesd_io[3] I
analog_noesd_io[40] I
analog_noesd_io[41] I
analog_noesd_io[42] I
analog_noesd_io[43] I
analog_noesd_io[4] I
analog_noesd_io[5] I
analog_noesd_io[6] I
analog_noesd_io[7] I
analog_noesd_io[8] I
analog_noesd_io[9] I
gpio_analog_en[0] O
gpio_analog_en[10] O
gpio_analog_en[11] O
gpio_analog_en[12] O
gpio_analog_en[13] O
gpio_analog_en[14] O
gpio_analog_en[15] O
gpio_analog_en[16] O
gpio_analog_en[17] O
gpio_analog_en[18] O
gpio_analog_en[19] O
gpio_analog_en[1] O
gpio_analog_en[20] O
gpio_analog_en[21] O
gpio_analog_en[22] O
gpio_analog_en[23] O
gpio_analog_en[24] O
gpio_analog_en[25] O
gpio_analog_en[26] O
gpio_analog_en[27] O
gpio_analog_en[28] O
gpio_analog_en[29] O
gpio_analog_en[2] O
gpio_analog_en[30] O
gpio_analog_en[31] O
gpio_analog_en[32] O
gpio_analog_en[33] O
gpio_analog_en[34] O
gpio_analog_en[35] O
gpio_analog_en[36] O
gpio_analog_en[37] O
gpio_analog_en[38] O
gpio_analog_en[39] O
gpio_analog_en[3] O
gpio_analog_en[40] O
gpio_analog_en[41] O
gpio_analog_en[42] O
gpio_analog_en[43] O
gpio_analog_en[4] O
gpio_analog_en[5] O
gpio_analog_en[6] O
gpio_analog_en[7] O
gpio_analog_en[8] O
gpio_analog_en[9] O
gpio_analog_pol[0] O
gpio_analog_pol[10] O
gpio_analog_pol[11] O
gpio_analog_pol[12] O
gpio_analog_pol[13] O
gpio_analog_pol[14] O
gpio_analog_pol[15] O
gpio_analog_pol[16] O
gpio_analog_pol[17] O
gpio_analog_pol[18] O
gpio_analog_pol[19] O
gpio_analog_pol[1] O
gpio_analog_pol[20] O
gpio_analog_pol[21] O
gpio_analog_pol[22] O
gpio_analog_pol[23] O
gpio_analog_pol[24] O
gpio_analog_pol[25] O
gpio_analog_pol[26] O
gpio_analog_pol[27] O
gpio_analog_pol[28] O
gpio_analog_pol[29] O
gpio_analog_pol[2] O
gpio_analog_pol[30] O
gpio_analog_pol[31] O
gpio_analog_pol[32] O
gpio_analog_pol[33] O
gpio_analog_pol[34] O
gpio_analog_pol[35] O
gpio_analog_pol[36] O
gpio_analog_pol[37] O
gpio_analog_pol[38] O
gpio_analog_pol[39] O
gpio_analog_pol[3] O
gpio_analog_pol[40] O
gpio_analog_pol[41] O
gpio_analog_pol[42] O
gpio_analog_pol[43] O
gpio_analog_pol[4] O
gpio_analog_pol[5] O
gpio_analog_pol[6] O
gpio_analog_pol[7] O
gpio_analog_pol[8] O
gpio_analog_pol[9] O
gpio_analog_sel[0] O
gpio_analog_sel[10] O
gpio_analog_sel[11] O
gpio_analog_sel[12] O
gpio_analog_sel[13] O
gpio_analog_sel[14] O
gpio_analog_sel[15] O
gpio_analog_sel[16] O
gpio_analog_sel[17] O
gpio_analog_sel[18] O
gpio_analog_sel[19] O
gpio_analog_sel[1] O
gpio_analog_sel[20] O
gpio_analog_sel[21] O
gpio_analog_sel[22] O
gpio_analog_sel[23] O
gpio_analog_sel[24] O
gpio_analog_sel[25] O
gpio_analog_sel[26] O
gpio_analog_sel[27] O
gpio_analog_sel[28] O
gpio_analog_sel[29] O
gpio_analog_sel[2] O
gpio_analog_sel[30] O
gpio_analog_sel[31] O
gpio_analog_sel[32] O
gpio_analog_sel[33] O
gpio_analog_sel[34] O
gpio_analog_sel[35] O
gpio_analog_sel[36] O
gpio_analog_sel[37] O
gpio_analog_sel[38] O
gpio_analog_sel[39] O
gpio_analog_sel[3] O
gpio_analog_sel[40] O
gpio_analog_sel[41] O
gpio_analog_sel[42] O
gpio_analog_sel[43] O
gpio_analog_sel[4] O
gpio_analog_sel[5] O
gpio_analog_sel[6] O
gpio_analog_sel[7] O
gpio_analog_sel[8] O
gpio_analog_sel[9] O
gpio_dm0[0] O
gpio_dm0[10] O
gpio_dm0[11] O
gpio_dm0[12] O
gpio_dm0[13] O
gpio_dm0[14] O
gpio_dm0[15] O
gpio_dm0[16] O
gpio_dm0[17] O
gpio_dm0[18] O
gpio_dm0[19] O
gpio_dm0[1] O
gpio_dm0[20] O
gpio_dm0[21] O
gpio_dm0[22] O
gpio_dm0[23] O
gpio_dm0[24] O
gpio_dm0[25] O
gpio_dm0[26] O
gpio_dm0[27] O
gpio_dm0[28] O
gpio_dm0[29] O
gpio_dm0[2] O
gpio_dm0[30] O
gpio_dm0[31] O
gpio_dm0[32] O
gpio_dm0[33] O
gpio_dm0[34] O
gpio_dm0[35] O
gpio_dm0[36] O
gpio_dm0[37] O
gpio_dm0[38] O
gpio_dm0[39] O
gpio_dm0[3] O
gpio_dm0[40] O
gpio_dm0[41] O
gpio_dm0[42] O
gpio_dm0[43] O
gpio_dm0[4] O
gpio_dm0[5] O
gpio_dm0[6] O
gpio_dm0[7] O
gpio_dm0[8] O
gpio_dm0[9] O
gpio_dm1[0] O
gpio_dm1[10] O
gpio_dm1[11] O
gpio_dm1[12] O
gpio_dm1[13] O
gpio_dm1[14] O
gpio_dm1[15] O
gpio_dm1[16] O
gpio_dm1[17] O
gpio_dm1[18] O
gpio_dm1[19] O
gpio_dm1[1] O
gpio_dm1[20] O
gpio_dm1[21] O
gpio_dm1[22] O
gpio_dm1[23] O
gpio_dm1[24] O
gpio_dm1[25] O
gpio_dm1[26] O
gpio_dm1[27] O
gpio_dm1[28] O
gpio_dm1[29] O
gpio_dm1[2] O
gpio_dm1[30] O
gpio_dm1[31] O
gpio_dm1[32] O
gpio_dm1[33] O
gpio_dm1[34] O
gpio_dm1[35] O
gpio_dm1[36] O
gpio_dm1[37] O
gpio_dm1[38] O
gpio_dm1[39] O
gpio_dm1[3] O
gpio_dm1[40] O
gpio_dm1[41] O
gpio_dm1[42] O
gpio_dm1[43] O
gpio_dm1[4] O
gpio_dm1[5] O
gpio_dm1[6] O
gpio_dm1[7] O
gpio_dm1[8] O
gpio_dm1[9] O
gpio_dm2[0] O
gpio_dm2[10] O
gpio_dm2[11] O
gpio_dm2[12] O
gpio_dm2[13] O
gpio_dm2[14] O
gpio_dm2[15] O
gpio_dm2[16] O
gpio_dm2[17] O
gpio_dm2[18] O
gpio_dm2[19] O
gpio_dm2[1] O
gpio_dm2[20] O
gpio_dm2[21] O
gpio_dm2[22] O
gpio_dm2[23] O
gpio_dm2[24] O
gpio_dm2[25] O
gpio_dm2[26] O
gpio_dm2[27] O
gpio_dm2[28] O
gpio_dm2[29] O
gpio_dm2[2] O
gpio_dm2[30] O
gpio_dm2[31] O
gpio_dm2[32] O
gpio_dm2[33] O
gpio_dm2[34] O
gpio_dm2[35] O
gpio_dm2[36] O
gpio_dm2[37] O
gpio_dm2[38] O
gpio_dm2[39] O
gpio_dm2[3] O
gpio_dm2[40] O
gpio_dm2[41] O
gpio_dm2[42] O
gpio_dm2[43] O
gpio_dm2[4] O
gpio_dm2[5] O
gpio_dm2[6] O
gpio_dm2[7] O
gpio_dm2[8] O
gpio_dm2[9] O
gpio_holdover[0] O
gpio_holdover[10] O
gpio_holdover[11] O
gpio_holdover[12] O
gpio_holdover[13] O
gpio_holdover[14] O
gpio_holdover[15] O
gpio_holdover[16] O
gpio_holdover[17] O
gpio_holdover[18] O
gpio_holdover[19] O
gpio_holdover[1] O
gpio_holdover[20] O
gpio_holdover[21] O
gpio_holdover[22] O
gpio_holdover[23] O
gpio_holdover[24] O
gpio_holdover[25] O
gpio_holdover[26] O
gpio_holdover[27] O
gpio_holdover[28] O
gpio_holdover[29] O
gpio_holdover[2] O
gpio_holdover[30] O
gpio_holdover[31] O
gpio_holdover[32] O
gpio_holdover[33] O
gpio_holdover[34] O
gpio_holdover[35] O
gpio_holdover[36] O
gpio_holdover[37] O
gpio_holdover[38] O
gpio_holdover[39] O
gpio_holdover[3] O
gpio_holdover[40] O
gpio_holdover[41] O
gpio_holdover[42] O
gpio_holdover[43] O
gpio_holdover[4] O
gpio_holdover[5] O
gpio_holdover[6] O
gpio_holdover[7] O
gpio_holdover[8] O
gpio_holdover[9] O
gpio_ib_mode_sel[0] O
gpio_ib_mode_sel[10] O
gpio_ib_mode_sel[11] O
gpio_ib_mode_sel[12] O
gpio_ib_mode_sel[13] O
gpio_ib_mode_sel[14] O
gpio_ib_mode_sel[15] O
gpio_ib_mode_sel[16] O
gpio_ib_mode_sel[17] O
gpio_ib_mode_sel[18] O
gpio_ib_mode_sel[19] O
gpio_ib_mode_sel[1] O
gpio_ib_mode_sel[20] O
gpio_ib_mode_sel[21] O
gpio_ib_mode_sel[22] O
gpio_ib_mode_sel[23] O
gpio_ib_mode_sel[24] O
gpio_ib_mode_sel[25] O
gpio_ib_mode_sel[26] O
gpio_ib_mode_sel[27] O
gpio_ib_mode_sel[28] O
gpio_ib_mode_sel[29] O
gpio_ib_mode_sel[2] O
gpio_ib_mode_sel[30] O
gpio_ib_mode_sel[31] O
gpio_ib_mode_sel[32] O
gpio_ib_mode_sel[33] O
gpio_ib_mode_sel[34] O
gpio_ib_mode_sel[35] O
gpio_ib_mode_sel[36] O
gpio_ib_mode_sel[37] O
gpio_ib_mode_sel[38] O
gpio_ib_mode_sel[39] O
gpio_ib_mode_sel[3] O
gpio_ib_mode_sel[40] O
gpio_ib_mode_sel[41] O
gpio_ib_mode_sel[42] O
gpio_ib_mode_sel[43] O
gpio_ib_mode_sel[4] O
gpio_ib_mode_sel[5] O
gpio_ib_mode_sel[6] O
gpio_ib_mode_sel[7] O
gpio_ib_mode_sel[8] O
gpio_ib_mode_sel[9] O
gpio_in[0] I
gpio_in[10] I
gpio_in[11] I
gpio_in[12] I
gpio_in[13] I
gpio_in[14] I
gpio_in[15] I
gpio_in[16] I
gpio_in[17] I
gpio_in[18] I
gpio_in[19] I
gpio_in[1] I
gpio_in[20] I
gpio_in[21] I
gpio_in[22] I
gpio_in[23] I
gpio_in[24] I
gpio_in[25] I
gpio_in[26] I
gpio_in[27] I
gpio_in[28] I
gpio_in[29] I
gpio_in[2] I
gpio_in[30] I
gpio_in[31] I
gpio_in[32] I
gpio_in[33] I
gpio_in[34] I
gpio_in[35] I
gpio_in[36] I
gpio_in[37] I
gpio_in[38] I
gpio_in[39] I
gpio_in[3] I
gpio_in[40] I
gpio_in[41] I
gpio_in[42] I
gpio_in[43] I
gpio_in[4] I
gpio_in[5] I
gpio_in[6] I
gpio_in[7] I
gpio_in[8] I
gpio_in[9] I
gpio_in_h[0] I
gpio_in_h[10] I
gpio_in_h[11] I
gpio_in_h[12] I
gpio_in_h[13] I
gpio_in_h[14] I
gpio_in_h[15] I
gpio_in_h[16] I
gpio_in_h[17] I
gpio_in_h[18] I
gpio_in_h[19] I
gpio_in_h[1] I
gpio_in_h[20] I
gpio_in_h[21] I
gpio_in_h[22] I
gpio_in_h[23] I
gpio_in_h[24] I
gpio_in_h[25] I
gpio_in_h[26] I
gpio_in_h[27] I
gpio_in_h[28] I
gpio_in_h[29] I
gpio_in_h[2] I
gpio_in_h[30] I
gpio_in_h[31] I
gpio_in_h[32] I
gpio_in_h[33] I
gpio_in_h[34] I
gpio_in_h[35] I
gpio_in_h[36] I
gpio_in_h[37] I
gpio_in_h[38] I
gpio_in_h[39] I
gpio_in_h[3] I
gpio_in_h[40] I
gpio_in_h[41] I
gpio_in_h[42] I
gpio_in_h[43] I
gpio_in_h[4] I
gpio_in_h[5] I
gpio_in_h[6] I
gpio_in_h[7] I
gpio_in_h[8] I
gpio_in_h[9] I
gpio_inp_dis[0] O
gpio_inp_dis[10] O
gpio_inp_dis[11] O
gpio_inp_dis[12] O
gpio_inp_dis[13] O
gpio_inp_dis[14] O
gpio_inp_dis[15] O
gpio_inp_dis[16] O
gpio_inp_dis[17] O
gpio_inp_dis[18] O
gpio_inp_dis[19] O
gpio_inp_dis[1] O
gpio_inp_dis[20] O
gpio_inp_dis[21] O
gpio_inp_dis[22] O
gpio_inp_dis[23] O
gpio_inp_dis[24] O
gpio_inp_dis[25] O
gpio_inp_dis[26] O
gpio_inp_dis[27] O
gpio_inp_dis[28] O
gpio_inp_dis[29] O
gpio_inp_dis[2] O
gpio_inp_dis[30] O
gpio_inp_dis[31] O
gpio_inp_dis[32] O
gpio_inp_dis[33] O
gpio_inp_dis[34] O
gpio_inp_dis[35] O
gpio_inp_dis[36] O
gpio_inp_dis[37] O
gpio_inp_dis[38] O
gpio_inp_dis[39] O
gpio_inp_dis[3] O
gpio_inp_dis[40] O
gpio_inp_dis[41] O
gpio_inp_dis[42] O
gpio_inp_dis[43] O
gpio_inp_dis[4] O
gpio_inp_dis[5] O
gpio_inp_dis[6] O
gpio_inp_dis[7] O
gpio_inp_dis[8] O
gpio_inp_dis[9] O
gpio_loopback_one[0] I
gpio_loopback_one[10] I
gpio_loopback_one[11] I
gpio_loopback_one[12] I
gpio_loopback_one[13] I
gpio_loopback_one[14] I
gpio_loopback_one[15] I
gpio_loopback_one[16] I
gpio_loopback_one[17] I
gpio_loopback_one[18] I
gpio_loopback_one[19] I
gpio_loopback_one[1] I
gpio_loopback_one[20] I
gpio_loopback_one[21] I
gpio_loopback_one[22] I
gpio_loopback_one[23] I
gpio_loopback_one[24] I
gpio_loopback_one[25] I
gpio_loopback_one[26] I
gpio_loopback_one[27] I
gpio_loopback_one[28] I
gpio_loopback_one[29] I
gpio_loopback_one[2] I
gpio_loopback_one[30] I
gpio_loopback_one[31] I
gpio_loopback_one[32] I
gpio_loopback_one[33] I
gpio_loopback_one[34] I
gpio_loopback_one[35] I
gpio_loopback_one[36] I
gpio_loopback_one[37] I
gpio_loopback_one[38] I
gpio_loopback_one[39] I
gpio_loopback_one[3] I
gpio_loopback_one[40] I
gpio_loopback_one[41] I
gpio_loopback_one[42] I
gpio_loopback_one[43] I
gpio_loopback_one[4] I
gpio_loopback_one[5] I
gpio_loopback_one[6] I
gpio_loopback_one[7] I
gpio_loopback_one[8] I
gpio_loopback_one[9] I
gpio_loopback_zero[0] I
gpio_loopback_zero[10] I
gpio_loopback_zero[11] I
gpio_loopback_zero[12] I
gpio_loopback_zero[13] I
gpio_loopback_zero[14] I
gpio_loopback_zero[15] I
gpio_loopback_zero[16] I
gpio_loopback_zero[17] I
gpio_loopback_zero[18] I
gpio_loopback_zero[19] I
gpio_loopback_zero[1] I
gpio_loopback_zero[20] I
gpio_loopback_zero[21] I
gpio_loopback_zero[22] I
gpio_loopback_zero[23] I
gpio_loopback_zero[24] I
gpio_loopback_zero[25] I
gpio_loopback_zero[26] I
gpio_loopback_zero[27] I
gpio_loopback_zero[28] I
gpio_loopback_zero[29] I
gpio_loopback_zero[2] I
gpio_loopback_zero[30] I
gpio_loopback_zero[31] I
gpio_loopback_zero[32] I
gpio_loopback_zero[33] I
gpio_loopback_zero[34] I
gpio_loopback_zero[35] I
gpio_loopback_zero[36] I
gpio_loopback_zero[37] I
gpio_loopback_zero[38] I
gpio_loopback_zero[39] I
gpio_loopback_zero[3] I
gpio_loopback_zero[40] I
gpio_loopback_zero[41] I
gpio_loopback_zero[42] I
gpio_loopback_zero[43] I
gpio_loopback_zero[4] I
gpio_loopback_zero[5] I
gpio_loopback_zero[6] I
gpio_loopback_zero[7] I
gpio_loopback_zero[8] I
gpio_loopback_zero[9] I
gpio_oeb[0] O
gpio_oeb[10] O
gpio_oeb[11] O
gpio_oeb[12] O
gpio_oeb[13] O
gpio_oeb[14] O
gpio_oeb[15] O
gpio_oeb[16] O
gpio_oeb[17] O
gpio_oeb[18] O
gpio_oeb[19] O
gpio_oeb[1] O
gpio_oeb[20] O
gpio_oeb[21] O
gpio_oeb[22] O
gpio_oeb[23] O
gpio_oeb[24] O
gpio_oeb[25] O
gpio_oeb[26] O
gpio_oeb[27] O
gpio_oeb[28] O
gpio_oeb[29] O
gpio_oeb[2] O
gpio_oeb[30] O
gpio_oeb[31] O
gpio_oeb[32] O
gpio_oeb[33] O
gpio_oeb[34] O
gpio_oeb[35] O
gpio_oeb[36] O
gpio_oeb[37] O
gpio_oeb[38] O
gpio_oeb[39] O
gpio_oeb[3] O
gpio_oeb[40] O
gpio_oeb[41] O
gpio_oeb[42] O
gpio_oeb[43] O
gpio_oeb[4] O
gpio_oeb[5] O
gpio_oeb[6] O
gpio_oeb[7] O
gpio_oeb[8] O
gpio_oeb[9] O
gpio_out[0] O
gpio_out[10] O
gpio_out[11] O
gpio_out[12] O
gpio_out[13] O
gpio_out[14] O
gpio_out[15] O
gpio_out[16] O
gpio_out[17] O
gpio_out[18] O
gpio_out[19] O
gpio_out[1] O
gpio_out[20] O
gpio_out[21] O
gpio_out[22] O
gpio_out[23] O
gpio_out[24] O
gpio_out[25] O
gpio_out[26] O
gpio_out[27] O
gpio_out[28] O
gpio_out[29] O
gpio_out[2] O
gpio_out[30] O
gpio_out[31] O
gpio_out[32] O
gpio_out[33] O
gpio_out[34] O
gpio_out[35] O
gpio_out[36] O
gpio_out[37] O
gpio_out[38] O
gpio_out[39] O
gpio_out[3] O
gpio_out[40] O
gpio_out[41] O
gpio_out[42] O
gpio_out[43] O
gpio_out[4] O
gpio_out[5] O
gpio_out[6] O
gpio_out[7] O
gpio_out[8] O
gpio_out[9] O
gpio_slow_sel[0] O
gpio_slow_sel[10] O
gpio_slow_sel[11] O
gpio_slow_sel[12] O
gpio_slow_sel[13] O
gpio_slow_sel[14] O
gpio_slow_sel[15] O
gpio_slow_sel[16] O
gpio_slow_sel[17] O
gpio_slow_sel[18] O
gpio_slow_sel[19] O
gpio_slow_sel[1] O
gpio_slow_sel[20] O
gpio_slow_sel[21] O
gpio_slow_sel[22] O
gpio_slow_sel[23] O
gpio_slow_sel[24] O
gpio_slow_sel[25] O
gpio_slow_sel[26] O
gpio_slow_sel[27] O
gpio_slow_sel[28] O
gpio_slow_sel[29] O
gpio_slow_sel[2] O
gpio_slow_sel[30] O
gpio_slow_sel[31] O
gpio_slow_sel[32] O
gpio_slow_sel[33] O
gpio_slow_sel[34] O
gpio_slow_sel[35] O
gpio_slow_sel[36] O
gpio_slow_sel[37] O
gpio_slow_sel[38] O
gpio_slow_sel[39] O
gpio_slow_sel[3] O
gpio_slow_sel[40] O
gpio_slow_sel[41] O
gpio_slow_sel[42] O
gpio_slow_sel[43] O
gpio_slow_sel[4] O
gpio_slow_sel[5] O
gpio_slow_sel[6] O
gpio_slow_sel[7] O
gpio_slow_sel[8] O
gpio_slow_sel[9] O
gpio_vtrip_sel[0] O
gpio_vtrip_sel[10] O
gpio_vtrip_sel[11] O
gpio_vtrip_sel[12] O
gpio_vtrip_sel[13] O
gpio_vtrip_sel[14] O
gpio_vtrip_sel[15] O
gpio_vtrip_sel[16] O
gpio_vtrip_sel[17] O
gpio_vtrip_sel[18] O
gpio_vtrip_sel[19] O
gpio_vtrip_sel[1] O
gpio_vtrip_sel[20] O
gpio_vtrip_sel[21] O
gpio_vtrip_sel[22] O
gpio_vtrip_sel[23] O
gpio_vtrip_sel[24] O
gpio_vtrip_sel[25] O
gpio_vtrip_sel[26] O
gpio_vtrip_sel[27] O
gpio_vtrip_sel[28] O
gpio_vtrip_sel[29] O
gpio_vtrip_sel[2] O
gpio_vtrip_sel[30] O
gpio_vtrip_sel[31] O
gpio_vtrip_sel[32] O
gpio_vtrip_sel[33] O
gpio_vtrip_sel[34] O
gpio_vtrip_sel[35] O
gpio_vtrip_sel[36] O
gpio_vtrip_sel[37] O
gpio_vtrip_sel[38] O
gpio_vtrip_sel[39] O
gpio_vtrip_sel[3] O
gpio_vtrip_sel[40] O
gpio_vtrip_sel[41] O
gpio_vtrip_sel[42] O
gpio_vtrip_sel[43] O
gpio_vtrip_sel[4] O
gpio_vtrip_sel[5] O
gpio_vtrip_sel[6] O
gpio_vtrip_sel[7] O
gpio_vtrip_sel[8] O
gpio_vtrip_sel[9] O
mask_rev[0] I
mask_rev[10] I
mask_rev[11] I
mask_rev[12] I
mask_rev[13] I
mask_rev[14] I
mask_rev[15] I
mask_rev[16] I
mask_rev[17] I
mask_rev[18] I
mask_rev[19] I
mask_rev[1] I
mask_rev[20] I
mask_rev[21] I
mask_rev[22] I
mask_rev[23] I
mask_rev[24] I
mask_rev[25] I
mask_rev[26] I
mask_rev[27] I
mask_rev[28] I
mask_rev[29] I
mask_rev[2] I
mask_rev[30] I
mask_rev[31] I
mask_rev[3] I
mask_rev[4] I
mask_rev[5] I
mask_rev[6] I
mask_rev[7] I
mask_rev[8] I
mask_rev[9] I
por_l I
porb_h I
porb_l I
resetb_h I
resetb_l I

*D_NET *89 0.102586
*CONN
*P gpio_analog_en[0] O
*I *921:gpio_analog_en[0] O *D CF_CARAVEL_SOC
*CAP
1 gpio_analog_en[0] 0.00305099
2 *921:gpio_analog_en[0] 0.00453375
3 *89:11 0.0178223
4 *89:9 0.0193051
5 gpio_analog_en[0] gpio_analog_pol[0] 0.000363287
6 gpio_analog_en[0] gpio_dm0[0] 0.00160609
7 gpio_analog_en[0] gpio_dm1[0] 0
8 gpio_analog_en[0] *120:11 0.000137025
9 gpio_analog_en[0] *529:13 0.000201736
10 *89:9 *100:9 0
11 *89:11 *100:13 0
12 *89:11 *133:11 0.0407679
13 *89:11 *222:17 0
14 *89:11 *224:17 0.00368147
15 *89:11 *224:19 0.00383478
16 *89:11 *232:13 0.000952386
17 *89:11 *307:11 0.00632945
*RES
1 *921:gpio_analog_en[0] *89:9 9.8062 
2 *89:9 *89:11 73.2513 
3 *89:11 gpio_analog_en[0] 12.3249 
*END

*D_NET *90 0.344475
*CONN
*P gpio_analog_en[10] O
*I *921:gpio_analog_en[10] O *D CF_CARAVEL_SOC
*CAP
1 gpio_analog_en[10] 0.00500332
2 *921:gpio_analog_en[10] 0.00314319
3 *90:11 0.0540683
4 *90:9 0.0522081
5 gpio_analog_en[10] gpio_analog_pol[10] 0.000275076
6 gpio_analog_en[10] gpio_dm0[10] 0
7 gpio_analog_en[10] gpio_dm1[10] 0
8 *90:9 *91:9 0
9 *90:11 *98:11 0.000103095
10 *90:11 *144:11 0.0125089
11 *90:11 *159:13 0.00164031
12 *90:11 *179:11 0
13 *90:11 *226:11 0.00955796
14 *90:11 *247:11 0.00127401
15 *90:11 *288:67 0.0273042
16 *90:11 *308:11 0.145162
17 *90:11 *391:33 0.0110668
18 *90:11 *445:19 0.00112898
19 *90:11 *562:123 0.000469668
20 *90:11 *694:10 0.00444331
21 *90:11 *727:15 0.00869226
22 *90:11 *738:15 0.00516721
23 *90:11 *788:55 0.00125733
*RES
1 *921:gpio_analog_en[10] *90:9 6.80167 
2 *90:9 *90:11 287.723 
3 *90:11 gpio_analog_en[10] 11.0697 
*END

*D_NET *91 0.399225
*CONN
*P gpio_analog_en[11] O
*I *921:gpio_analog_en[11] O *D CF_CARAVEL_SOC
*CAP
1 gpio_analog_en[11] 0.00465431
2 *921:gpio_analog_en[11] 0.00217873
3 *91:11 0.0882277
4 *91:9 0.0857521
5 gpio_analog_en[11] gpio_dm0[11] 0.00335197
6 gpio_analog_en[11] gpio_dm1[11] 0
7 *91:9 *92:9 0
8 *91:9 *314:17 0.000140784
9 *91:9 *334:6 0.000229581
10 *91:11 *97:11 0.0043302
11 *91:11 *99:11 0.0043302
12 *91:11 *105:27 0
13 *91:11 *107:11 0.00627168
14 *91:11 *152:11 0.000968789
15 *91:11 *153:25 0
16 *91:11 *160:11 0.00230879
17 *91:11 *212:11 0.000868518
18 *91:11 *245:11 0
19 *91:11 *274:11 0.000330995
20 *91:11 *279:11 0
21 *91:11 *280:19 0
22 *91:11 *282:11 0
23 *91:11 *314:17 4.27064e-05
24 *91:11 *352:11 0.146683
25 *91:11 *534:15 0.0485552
26 *90:9 *91:9 0
*RES
1 *921:gpio_analog_en[11] *91:9 4.90673 
2 *91:9 *91:11 315.803 
3 *91:11 gpio_analog_en[11] 12.6961 
*END

*D_NET *92 0.393756
*CONN
*P gpio_analog_en[12] O
*I *921:gpio_analog_en[12] O *D CF_CARAVEL_SOC
*CAP
1 gpio_analog_en[12] 0.00508958
2 *921:gpio_analog_en[12] 0.00227543
3 *92:11 0.0652386
4 *92:9 0.0624245
5 gpio_analog_en[12] gpio_analog_pol[12] 0.000587084
6 gpio_analog_en[12] gpio_dm0[12] 0.000395514
7 gpio_analog_en[12] gpio_dm1[12] 0
8 *92:9 *93:9 0.000831292
9 *92:9 *314:17 0
10 *92:9 *334:6 0.000229581
11 *92:9 *474:9 8.94722e-05
12 *92:11 *105:11 0.0372176
13 *92:11 *105:27 0.010405
14 *92:11 *106:19 0.00640327
15 *92:11 *108:11 0.0742079
16 *92:11 *140:57 0.000287721
17 *92:11 *350:11 0
18 *92:11 *443:11 0.0275493
19 *92:11 *569:22 0.00743137
20 *92:11 *570:26 0.0192469
21 *92:11 *572:28 0.0605028
22 *92:11 *661:19 0.00746498
23 *92:11 *698:23 0.000746853
24 *92:11 *743:15 0.00463465
25 *92:11 *745:21 0.00049621
26 *91:9 *92:9 0
*RES
1 *921:gpio_analog_en[12] *92:9 5.839 
2 *92:9 *92:11 343.107 
3 *92:11 gpio_analog_en[12] 12.2705 
*END

*D_NET *93 0.507034
*CONN
*P gpio_analog_en[13] O
*I *921:gpio_analog_en[13] O *D CF_CARAVEL_SOC
*CAP
1 gpio_analog_en[13] 0.00443294
2 *921:gpio_analog_en[13] 0.00295565
3 *93:11 0.054185
4 *93:9 0.0527077
5 gpio_analog_en[13] gpio_dm0[13] 0
6 gpio_analog_en[13] gpio_inp_dis[13] 0
7 *93:9 *94:17 0
8 *93:9 *327:17 0.000124201
9 *93:9 *474:9 0
10 *93:11 *130:11 0.00151719
11 *93:11 *138:11 0.18031
12 *93:11 *179:11 0.037387
13 *93:11 *223:19 0
14 *93:11 *254:11 0.00025992
15 *93:11 *321:25 0.00179544
16 *93:11 *342:11 0.000218944
17 *93:11 *530:113 0.153113
18 *93:11 *533:200 0
19 *93:11 *567:18 0.0171957
20 *92:9 *93:9 0.000831292
*RES
1 *921:gpio_analog_en[13] *93:9 7.32987 
2 *93:9 *93:11 2365.49 
3 *93:11 gpio_analog_en[13] 10.1666 
*END

*D_NET *94 0.475276
*CONN
*P gpio_analog_en[14] O
*I *921:gpio_analog_en[14] O *D CF_CARAVEL_SOC
*CAP
1 gpio_analog_en[14] 0.00245253
2 *921:gpio_analog_en[14] 0.0127447
3 *94:19 0.0956243
4 *94:17 0.105916
5 gpio_analog_en[14] gpio_dm0[14] 0.00189342
6 gpio_analog_en[14] gpio_inp_dis[14] 0
7 *94:17 gpio_analog_en[3] 0.000700405
8 *94:17 gpio_analog_en[4] 0.000546496
9 *94:17 gpio_analog_sel[4] 0.00215463
10 *94:17 gpio_slow_sel[4] 0
11 *94:17 *133:11 0.00224317
12 *94:17 *177:11 0.00429118
13 *94:17 *181:9 8.4111e-05
14 *94:17 *181:11 6.35858e-05
15 *94:17 *259:11 0.000210055
16 *94:17 *260:19 0.00283166
17 *94:17 *288:11 0.00163815
18 *94:17 *312:19 0.00316634
19 *94:17 *326:11 0.00317485
20 *94:17 *327:17 0.000247316
21 *94:17 *535:121 0.00283166
22 *94:19 *104:25 0.00236088
23 *94:19 *114:21 0.00102368
24 *94:19 *137:11 0.0186353
25 *94:19 *169:11 0.0266235
26 *94:19 *174:11 0.00892332
27 *94:19 *178:17 0.00256376
28 *94:19 *224:19 0.166757
29 *94:19 *242:11 0.0046352
30 *94:19 *274:107 0.000938815
31 *94:19 *313:11 0
32 *94:19 *531:28 0
33 *93:9 *94:17 0
*RES
1 *921:gpio_analog_en[14] *94:17 41.2657 
2 *94:17 *94:19 2521.03 
3 *94:19 gpio_analog_en[14] 6.7643 
*END

*D_NET *95 0.37659
*CONN
*P gpio_analog_en[15] O
*I *921:gpio_analog_en[15] O *D CF_CARAVEL_SOC
*CAP
1 gpio_analog_en[15] 7.97879e-05
2 *921:gpio_analog_en[15] 0.00256774
3 *95:19 0.118045
4 *95:17 0.121039
5 *95:11 0.0246458
6 *95:9 0.0241392
7 gpio_analog_en[15] gpio_dm0[15] 0
8 *95:9 *96:9 0
9 *95:9 *334:6 0.000229581
10 *95:11 *96:11 0.0228285
11 *95:11 *105:11 0.000109931
12 *95:11 *105:25 0.00229756
13 *95:11 *105:27 0.00222971
14 *95:11 *108:11 0.00441649
15 *95:11 *125:11 0.00945742
16 *95:11 *350:11 0.000250377
17 *95:11 *443:11 0
18 *95:17 *107:25 4.20804e-05
19 *95:17 *112:25 4.20745e-05
20 *95:17 *116:53 0.000176125
21 *95:17 *139:17 0.00879123
22 *95:17 *196:25 8.05889e-05
23 *95:17 *198:25 4.20745e-05
24 *95:17 *683:11 0
25 *95:17 *744:11 0.00285402
26 *95:19 *140:95 0.027929
27 *95:19 *227:19 0
28 *95:19 *274:139 0.00429659
*RES
1 *921:gpio_analog_en[15] *95:9 5.5768 
2 *95:9 *95:11 573.855 
3 *95:11 *95:17 14.7307 
4 *95:17 *95:19 2260.43 
5 *95:19 gpio_analog_en[15] 1.35 
*END

*D_NET *96 0.595542
*CONN
*P gpio_analog_en[16] O
*I *921:gpio_analog_en[16] O *D CF_CARAVEL_SOC
*CAP
1 gpio_analog_en[16] 7.63108e-05
2 *921:gpio_analog_en[16] 0.00251448
3 *96:15 0.0194519
4 *96:13 0.0193756
5 *96:11 0.0901313
6 *96:9 0.0926458
7 gpio_analog_en[16] gpio_dm0[16] 0
8 *96:9 *97:9 0
9 *96:9 *334:6 0.000229581
10 *96:11 *105:25 0.00230218
11 *96:11 *105:27 0.0437383
12 *96:11 *125:11 0.00908814
13 *96:11 *314:19 0.243181
14 *96:11 *350:11 0.00484944
15 *96:11 *443:11 0
16 *96:15 *359:23 0.0417454
17 *96:15 *535:125 0.00338364
18 *95:9 *96:9 0
19 *95:11 *96:11 0.0228285
*RES
1 *921:gpio_analog_en[16] *96:9 5.46027 
2 *96:9 *96:11 2830.09 
3 *96:11 *96:13 0.5 
4 *96:13 *96:15 78.1153 
5 *96:15 gpio_analog_en[16] 1.5725 
*END

*D_NET *97 0.57967
*CONN
*P gpio_analog_en[17] O
*I *921:gpio_analog_en[17] O *D CF_CARAVEL_SOC
*CAP
1 gpio_analog_en[17] 0.0794766
2 *921:gpio_analog_en[17] 0.00182001
3 *97:17 0.0794766
4 *97:15 0.0265974
5 *97:13 0.0265974
6 *97:11 0.00904024
7 *97:9 0.0108602
8 gpio_analog_en[17] gpio_dm0[17] 0
9 gpio_analog_en[17] *757:19 0.199958
10 *97:9 *98:9 0.000626288
11 *97:9 *334:6 0.000229581
12 *97:11 *99:11 0.0498708
13 *97:11 *107:11 0.0472251
14 *97:11 *160:11 1.97442e-05
15 *97:11 *274:11 0.000682563
16 *97:11 *316:11 0
17 *97:11 *534:15 0
18 *97:15 *107:15 0.00284642
19 *97:15 *183:17 0.0014598
20 *97:15 *195:15 0.00333004
21 *97:15 *204:33 0.0179712
22 *97:15 *693:11 0.00364682
23 *97:15 *700:6 0.013605
24 *91:11 *97:11 0.0043302
25 *96:9 *97:9 0
*RES
1 *921:gpio_analog_en[17] *97:9 4.64453 
2 *97:9 *97:11 564.037 
3 *97:11 *97:13 2 
4 *97:13 *97:15 650.43 
5 *97:15 *97:17 2 
6 *97:17 gpio_analog_en[17] 2263.05 
*END

*D_NET *98 0.698524
*CONN
*P gpio_analog_en[18] O
*I *921:gpio_analog_en[18] O *D CF_CARAVEL_SOC
*CAP
1 gpio_analog_en[18] 0.124951
2 *921:gpio_analog_en[18] 0.00292726
3 *98:17 0.124951
4 *98:15 0.0137483
5 *98:13 0.0137483
6 *98:11 0.00900806
7 *98:9 0.0119353
8 gpio_analog_en[18] gpio_dm0[18] 0
9 gpio_analog_en[18] *230:27 0.0542966
10 gpio_analog_en[18] *538:409 0
11 *98:9 gpio_inp_dis[3] 0.000208514
12 *98:9 *99:9 0
13 *98:11 *101:11 0.0505338
14 *98:11 *144:11 0.0040642
15 *98:11 *159:13 0.00247778
16 *98:11 *170:11 0.0238695
17 *98:11 *179:11 0.000981505
18 *98:11 *207:19 0.0132433
19 *98:11 *247:11 0.00816034
20 *98:11 *288:67 0.000141767
21 *98:11 *530:113 0
22 *98:15 *99:15 0.108903
23 *98:15 *101:15 0.00101934
24 *98:15 *114:23 0.00025083
25 *98:15 *142:15 0.106944
26 *98:15 *184:15 0.00213138
27 *98:15 *227:17 0.00107312
28 *98:15 *689:11 0.0182272
29 *90:11 *98:11 0.000103095
30 *97:9 *98:9 0.000626288
*RES
1 *921:gpio_analog_en[18] *98:9 6.98027 
2 *98:9 *98:11 572.963 
3 *98:11 *98:13 2 
4 *98:13 *98:15 999.915 
5 *98:15 *98:17 2 
6 *98:17 gpio_analog_en[18] 2252.08 
*END

*D_NET *99 0.720564
*CONN
*P gpio_analog_en[19] O
*I *921:gpio_analog_en[19] O *D CF_CARAVEL_SOC
*CAP
1 gpio_analog_en[19] 0.124978
2 *921:gpio_analog_en[19] 0.00209938
3 *99:17 0.124978
4 *99:15 0.0267174
5 *99:13 0.0267174
6 *99:11 0.00912557
7 *99:9 0.011225
8 gpio_analog_en[19] gpio_dm0[19] 0
9 gpio_analog_en[19] *759:19 0
10 *99:9 *101:9 0
11 *99:11 *160:11 0.000135053
12 *99:11 *316:11 0
13 *99:11 *483:11 0.0485546
14 *99:11 *534:15 0
15 *99:15 *101:15 0.151224
16 *99:15 *142:15 0.000322409
17 *99:15 *227:17 0.000707054
18 *99:15 *328:59 0.000322636
19 *99:15 *689:11 0.0182229
20 *99:15 *745:11 0.0121296
21 *91:11 *99:11 0.0043302
22 *97:11 *99:11 0.0498708
23 *98:9 *99:9 0
24 *98:15 *99:15 0.108903
*RES
1 *921:gpio_analog_en[19] *99:9 4.414 
2 *99:9 *99:11 567.607 
3 *99:11 *99:13 2 
4 *99:13 *99:15 1365.61 
5 *99:15 *99:17 2 
6 *99:17 gpio_analog_en[19] 2252.34 
*END

*D_NET *100 0.0716651
*CONN
*P gpio_analog_en[1] O
*I *921:gpio_analog_en[1] O *D CF_CARAVEL_SOC
*CAP
1 gpio_analog_en[1] 0.00307013
2 *921:gpio_analog_en[1] 0.00427501
3 *100:18 0
4 *100:13 0.0134252
5 *100:9 0.0146301
6 gpio_analog_en[1] gpio_dm0[1] 0.00224376
7 gpio_analog_en[1] gpio_dm1[1] 0
8 gpio_analog_en[1] *260:17 3.92635e-05
9 *100:9 gpio_analog_en[2] 0
10 *100:13 *133:11 0
11 *100:13 *177:11 0.0259377
12 *100:13 *232:13 0.000100798
13 *100:13 *260:19 0.00444037
14 *100:13 *266:11 0.0014996
15 *100:13 *326:11 0.00100156
16 *100:13 *535:121 0.00100156
17 *89:9 *100:9 0
18 *89:11 *100:13 0
*RES
1 *921:gpio_analog_en[1] *100:9 9.22353 
2 *100:9 *100:13 46.5332 
3 *100:13 gpio_analog_en[1] 7.18453 
4 gpio_analog_en[1] *100:18 0.04 
*END

*D_NET *101 0.777232
*CONN
*P gpio_analog_en[20] O
*I *921:gpio_analog_en[20] O *D CF_CARAVEL_SOC
*CAP
1 gpio_analog_en[20] 9.87705e-05
2 *921:gpio_analog_en[20] 0.00327715
3 *101:19 0.125066
4 *101:17 0.124968
5 *101:15 0.0255407
6 *101:13 0.0255407
7 *101:11 0.0157142
8 *101:9 0.0189914
9 gpio_analog_en[20] gpio_dm0[20] 0
10 gpio_analog_en[20] *233:19 0
11 *101:11 *159:13 0.00188792
12 *101:11 *179:11 0.0033561
13 *101:11 *274:37 0.000422311
14 *101:11 *288:57 0.00161579
15 *101:11 *288:59 0.00787474
16 *101:11 *288:67 0.00013192
17 *101:11 *530:113 0
18 *101:11 *831:75 0.00771673
19 *101:15 *104:31 0.174423
20 *101:15 *114:23 0.00291739
21 *101:15 *184:15 8.73389e-06
22 *101:15 *227:17 0.000771396
23 *101:15 *328:59 0.000295725
24 *101:15 *407:27 0
25 *101:15 *689:11 0.0300854
26 *101:15 *745:11 0.00374993
27 *101:19 *233:19 0
28 *98:11 *101:11 0.0505338
29 *98:15 *101:15 0.00101934
30 *99:9 *101:9 0
31 *99:15 *101:15 0.151224
*RES
1 *921:gpio_analog_en[20] *101:9 7.03853 
2 *101:9 *101:11 564.292 
3 *101:11 *101:13 2 
4 *101:13 *101:15 1575.38 
5 *101:15 *101:17 2 
6 *101:17 *101:19 2251.63 
7 *101:19 gpio_analog_en[20] 1.35 
*END

*D_NET *102 0.793874
*CONN
*P gpio_analog_en[21] O
*I *921:gpio_analog_en[21] O *D CF_CARAVEL_SOC
*CAP
1 gpio_analog_en[21] 9.87705e-05
2 *921:gpio_analog_en[21] 0.00257292
3 *102:27 0.10658
4 *102:25 0.106482
5 *102:23 0.0373669
6 *102:21 0.0373669
7 *102:19 0.0150586
8 *102:17 0.0151008
9 *102:11 0.0100954
10 *102:9 0.0126262
11 gpio_analog_en[21] gpio_dm0[21] 0
12 gpio_analog_en[21] *234:19 0
13 *102:9 *103:9 0.000886795
14 *102:9 *334:6 0.000229581
15 *102:11 *110:11 0.000164905
16 *102:11 *119:11 0.000838838
17 *102:11 *150:11 0.0011578
18 *102:11 *206:17 0.000283551
19 *102:11 *226:11 0.017456
20 *102:11 *288:53 0.00029583
21 *102:11 *483:19 0.000169048
22 *102:11 *572:28 0.0421033
23 *102:11 *831:73 0.00015346
24 *102:17 *170:9 8.1472e-05
25 *102:19 *106:11 0.0126483
26 *102:19 *110:11 0.0110061
27 *102:19 *110:19 0.00734911
28 *102:19 *570:26 0
29 *102:19 *572:28 0.00183138
30 *102:19 *683:15 0.00404304
31 *102:19 *745:21 0
32 *102:23 *103:15 0.00179574
33 *102:23 *147:17 0.199134
34 *102:23 *324:15 0
35 *102:23 *679:13 0.148898
36 *102:27 *234:19 0
*RES
1 *921:gpio_analog_en[21] *102:9 6.30513 
2 *102:9 *102:11 75.4908 
3 *102:11 *102:17 1.1254 
4 *102:17 *102:19 443.295 
5 *102:19 *102:21 0.5 
6 *102:21 *102:23 297.664 
7 *102:23 *102:25 0.5 
8 *102:25 *102:27 1919.74 
9 *102:27 gpio_analog_en[21] 1.35 
*END

*D_NET *103 0.761562
*CONN
*P gpio_analog_en[22] O
*I *921:gpio_analog_en[22] O *D CF_CARAVEL_SOC
*CAP
1 gpio_analog_en[22] 0.106517
2 *921:gpio_analog_en[22] 0.00333101
3 *103:17 0.106517
4 *103:15 0.0743284
5 *103:13 0.0743284
6 *103:11 0.021204
7 *103:9 0.024535
8 gpio_analog_en[22] gpio_dm0[22] 0
9 gpio_analog_en[22] *710:7 0
10 *103:9 gpio_dm2[3] 0
11 *103:9 *104:9 0
12 *103:11 *115:11 0.0452034
13 *103:11 *130:11 0.00550871
14 *103:11 *141:21 0.0040052
15 *103:11 *216:13 0.00213829
16 *103:11 *246:11 0.0496397
17 *103:11 *270:19 0.0174305
18 *103:11 *444:11 0
19 *103:11 *788:19 0.000514944
20 *103:15 *147:17 0.221337
21 *103:15 *454:13 0
22 *103:15 *542:51 0
23 *103:15 *720:9 0.0023407
24 *102:9 *103:9 0.000886795
25 *102:23 *103:15 0.00179574
*RES
1 *921:gpio_analog_en[22] *103:9 7.796 
2 *103:9 *103:11 886.995 
3 *103:11 *103:13 0.5 
4 *103:13 *103:15 331.983 
5 *103:15 *103:17 0.5 
6 *103:17 gpio_analog_en[22] 1921.73 
*END

*D_NET *104 0.778858
*CONN
*P gpio_analog_en[23] O
*I *921:gpio_analog_en[23] O *D CF_CARAVEL_SOC
*CAP
1 gpio_analog_en[23] 9.64467e-05
2 *921:gpio_analog_en[23] 0.0043231
3 *104:35 0.125003
4 *104:33 0.124906
5 *104:31 0.0908922
6 *104:29 0.0908922
7 *104:27 0.0022499
8 *104:25 0.00594902
9 *104:11 0.00892308
10 *104:9 0.00954706
11 *104:9 gpio_out[3] 0.00195411
12 *104:11 *113:11 0.009509
13 *104:11 *133:11 0.00238574
14 *104:11 *181:11 0.00218714
15 *104:11 *202:11 0.00530789
16 *104:11 *288:11 0.00124823
17 *104:11 *307:11 0.0142834
18 *104:25 gpio_analog_pol[5] 0.00300758
19 *104:25 *114:11 0.00199223
20 *104:25 *166:9 4.61529e-05
21 *104:25 *166:13 0.00025732
22 *104:25 *169:11 0.00274624
23 *104:25 *173:13 0.00462814
24 *104:25 *174:11 0.00496843
25 *104:25 *178:17 0.00129285
26 *104:25 *181:11 0.000105073
27 *104:25 *224:19 0.0017176
28 *104:25 *242:11 0.0021408
29 *104:25 *391:43 0.00191398
30 *104:25 *391:49 0
31 *104:27 *113:11 0.0131692
32 *104:27 *161:13 0.00206686
33 *104:27 *202:25 0.000164905
34 *104:27 *326:11 0.0118773
35 *104:27 *535:121 0.000727517
36 *104:31 *184:15 0.000179069
37 *104:31 *193:37 0
38 *104:31 *203:15 0.00893583
39 *104:31 *283:15 0
40 *104:31 *407:27 0
41 *104:31 *705:35 0
42 *104:31 *745:11 0.0404783
43 *104:35 gpio_dm0[23] 0
44 *104:35 *236:19 0
45 *104:35 *322:385 0
46 *104:35 *539:253 0
47 *104:35 *539:269 0
48 *94:19 *104:25 0.00236088
49 *101:15 *104:31 0.174423
50 *103:9 *104:9 0
*RES
1 *921:gpio_analog_en[23] *104:9 9.77707 
2 *104:9 *104:11 274.995 
3 *104:11 *104:25 25.1572 
4 *104:25 *104:27 147.367 
5 *104:27 *104:29 2 
6 *104:29 *104:31 2169.12 
7 *104:31 *104:33 2 
8 *104:33 *104:35 2252.39 
9 *104:35 gpio_analog_en[23] 1.4625 
*END

*D_NET *105 0.836961
*CONN
*P gpio_analog_en[24] O
*I *921:gpio_analog_en[24] O *D CF_CARAVEL_SOC
*CAP
1 gpio_analog_en[24] 8.48453e-05
2 *921:gpio_analog_en[24] 0.00269178
3 *105:31 0.14146
4 *105:29 0.141375
5 *105:27 0.0824648
6 *105:25 0.0829448
7 *105:11 0.00853047
8 *105:9 0.0107423
9 *105:9 *106:9 0
10 *105:11 *108:11 0.0362663
11 *105:11 *125:11 0.000102302
12 *105:11 *350:11 0.000123161
13 *105:11 *443:11 0.00493517
14 *105:25 *108:11 0.000448949
15 *105:25 *159:13 0.000152029
16 *105:25 *165:9 4.2145e-05
17 *105:25 *788:53 2.57399e-05
18 *105:27 *106:19 0
19 *105:27 *108:11 0.123297
20 *105:27 *226:11 0
21 *105:27 *314:19 0.0499866
22 *105:27 *350:11 0.041462
23 *105:27 *351:11 0.00679586
24 *105:27 *352:11 0.00211981
25 *105:31 gpio_analog_pol[24] 0
26 *105:31 gpio_dm0[24] 0.000121436
27 *105:31 *140:361 0.000148871
28 *105:31 *358:23 0
29 *105:31 *402:15 0
30 *105:31 *538:377 0.00233989
31 *105:31 *710:11 0
32 *91:11 *105:27 0
33 *92:11 *105:11 0.0372176
34 *92:11 *105:27 0.010405
35 *95:11 *105:11 0.000109931
36 *95:11 *105:25 0.00229756
37 *95:11 *105:27 0.00222971
38 *96:11 *105:25 0.00230218
39 *96:11 *105:27 0.0437383
*RES
1 *921:gpio_analog_en[24] *105:9 5.63633 
2 *105:9 *105:11 66.5329 
3 *105:11 *105:25 27.9141 
4 *105:25 *105:27 382.039 
5 *105:27 *105:29 0.5 
6 *105:29 *105:31 389.881 
7 *105:31 gpio_analog_en[24] 0.243833 
*END

*D_NET *106 0.590107
*CONN
*P gpio_analog_en[25] O
*I *921:gpio_analog_en[25] O *D CF_CARAVEL_SOC
*CAP
1 gpio_analog_en[25] 6.89782e-05
2 *921:gpio_analog_en[25] 0.00320894
3 *106:23 0.142637
4 *106:21 0.142568
5 *106:19 0.0218377
6 *106:17 0.0219628
7 *106:11 0.0391877
8 *106:9 0.0422715
9 *106:9 *107:9 0
10 *106:9 *334:6 0.000229581
11 *106:9 *698:21 0.000131664
12 *106:11 *110:11 0.0242718
13 *106:11 *119:11 0.000604189
14 *106:11 *140:43 0.00484145
15 *106:11 *226:11 0.0382619
16 *106:11 *442:11 0.054587
17 *106:11 *831:73 0.00119739
18 *106:19 *226:11 0.0253663
19 *106:19 *572:28 0.00782226
20 *106:23 gpio_dm0[25] 0
21 *106:23 *150:31 0
22 *106:23 *282:15 0
23 *92:11 *106:19 0.00640327
24 *102:19 *106:11 0.0126483
25 *105:9 *106:9 0
26 *105:27 *106:19 0
*RES
1 *921:gpio_analog_en[25] *106:9 6.56733 
2 *106:9 *106:11 1398.02 
3 *106:11 *106:17 1.3002 
4 *106:17 *106:19 108.48 
5 *106:19 *106:21 0.5 
6 *106:21 *106:23 390.697 
7 *106:23 gpio_analog_en[25] 0.198233 
*END

*D_NET *107 0.742123
*CONN
*P gpio_analog_en[26] O
*I *921:gpio_analog_en[26] O *D CF_CARAVEL_SOC
*CAP
1 gpio_analog_en[26] 0.00498906
2 *921:gpio_analog_en[26] 0.00181696
3 *107:31 0.0880331
4 *107:29 0.083044
5 *107:27 0.0555651
6 *107:25 0.0557482
7 *107:15 0.00137053
8 *107:11 0.0149925
9 *107:9 0.015622
10 gpio_analog_en[26] gpio_dm0[26] 0.000441797
11 gpio_analog_en[26] gpio_dm1[26] 0
12 gpio_analog_en[26] *239:15 0
13 gpio_analog_en[26] *283:31 0.000761395
14 *107:9 *108:9 0.000874149
15 *107:9 *334:6 0.000229581
16 *107:11 *152:11 0.00139796
17 *107:11 *160:11 0.0122835
18 *107:11 *212:11 0.00662139
19 *107:11 *534:15 0
20 *107:15 *112:15 0.00493868
21 *107:15 *183:17 0.000261942
22 *107:15 *195:15 1.19928e-05
23 *107:15 *204:33 6.63221e-05
24 *107:25 *112:25 7.55509e-05
25 *107:25 *744:11 1.91843e-05
26 *107:27 *112:27 0.0656764
27 *107:27 *283:27 0
28 *107:27 *328:61 0.0185692
29 *107:31 *239:15 0.252327
30 *107:31 *283:31 0
31 *91:11 *107:11 0.00627168
32 *95:17 *107:25 4.20804e-05
33 *97:11 *107:11 0.0472251
34 *97:15 *107:15 0.00284642
35 *106:9 *107:9 0
*RES
1 *921:gpio_analog_en[26] *107:9 4.7028 
2 *107:9 *107:11 526.807 
3 *107:11 *107:15 49.37 
4 *107:15 *107:25 5.84963 
5 *107:25 *107:27 226.569 
6 *107:27 *107:29 0.5 
7 *107:29 *107:31 370.672 
8 *107:31 gpio_analog_en[26] 11.2904 
*END

*D_NET *108 0.612992
*CONN
*P gpio_analog_en[27] O
*I *921:gpio_analog_en[27] O *D CF_CARAVEL_SOC
*CAP
1 gpio_analog_en[27] 0.0025323
2 *921:gpio_analog_en[27] 0.00208568
3 *108:15 0.14302
4 *108:13 0.140488
5 *108:11 0.032979
6 *108:9 0.0350647
7 gpio_analog_en[27] gpio_analog_pol[27] 0
8 gpio_analog_en[27] gpio_dm0[27] 0.000211669
9 gpio_analog_en[27] gpio_dm1[27] 0
10 *108:11 *125:11 0.000968789
11 *108:11 *350:11 0.016132
12 *108:15 *152:31 0
13 *92:11 *108:11 0.0742079
14 *95:11 *108:11 0.00441649
15 *105:11 *108:11 0.0362663
16 *105:25 *108:11 0.000448949
17 *105:27 *108:11 0.123297
18 *107:9 *108:9 0.000874149
*RES
1 *921:gpio_analog_en[27] *108:9 5.2614 
2 *108:9 *108:11 288.585 
3 *108:11 *108:13 0.5 
4 *108:13 *108:15 385.647 
5 *108:15 gpio_analog_en[27] 4.94443 
*END

*D_NET *109 0.602453
*CONN
*P gpio_analog_en[28] O
*I *921:gpio_analog_en[28] O *D CF_CARAVEL_SOC
*CAP
1 gpio_analog_en[28] 0.000100713
2 *921:gpio_analog_en[28] 0.000424086
3 *109:31 0.140665
4 *109:29 0.140565
5 *109:27 0.0404989
6 *109:25 0.0491898
7 *109:21 0.0118695
8 *109:11 0.00998016
9 *109:9 0.00722565
10 *109:9 *110:9 0
11 *109:11 *121:11 0.00375174
12 *109:11 *123:11 0.000263998
13 *109:11 *126:11 0.000415424
14 *109:11 *164:15 0.0198859
15 *109:11 *193:9 0
16 *109:11 *209:11 0.00158482
17 *109:11 *211:9 0
18 *109:21 *116:27 0.00118884
19 *109:21 *140:17 0.000129951
20 *109:21 *194:33 0.00725076
21 *109:21 *204:9 0.000221865
22 *109:21 *205:27 0
23 *109:21 *209:9 0.000229788
24 *109:21 *209:11 2.18186e-05
25 *109:21 *321:41 0.00553154
26 *109:21 *334:6 0.00057541
27 *109:25 *148:11 0.0198398
28 *109:25 *150:19 0.000668714
29 *109:25 *151:9 0.00275284
30 *109:25 *153:27 0.000665513
31 *109:25 *156:11 0.000906853
32 *109:25 *157:17 0.000158482
33 *109:25 *167:13 0.000229581
34 *109:25 *204:21 0.0019653
35 *109:25 *241:19 0.000401495
36 *109:25 *321:41 0.000108729
37 *109:25 *329:52 0.00414193
38 *109:25 *334:6 0.000137759
39 *109:25 *334:34 0.0112141
40 *109:25 *788:49 0.000141767
41 *109:27 *146:17 0.00703467
42 *109:27 *151:9 0.0278208
43 *109:27 *152:27 0
44 *109:27 *153:27 0.0124393
45 *109:27 *154:9 0.0149273
46 *109:27 *156:11 0.0358065
47 *109:27 *241:19 0.0172614
48 *109:27 *285:11 0
49 *109:31 gpio_dm0[28] 0.0011578
50 *109:31 *153:31 0
51 *109:31 *241:31 0
52 *109:31 *285:15 0
53 *109:31 *538:305 0.0011017
*RES
1 *921:gpio_analog_en[28] *109:9 1.32587 
2 *109:9 *109:11 222.465 
3 *109:11 *109:21 18.6915 
4 *109:21 *109:25 42.5119 
5 *109:25 *109:27 163.491 
6 *109:27 *109:29 0.5 
7 *109:29 *109:31 385.57 
8 *109:31 gpio_analog_en[28] 0.289433 
*END

*D_NET *110 0.534707
*CONN
*P gpio_analog_en[29] O
*I *921:gpio_analog_en[29] O *D CF_CARAVEL_SOC
*CAP
1 gpio_analog_en[29] 2.18174e-05
2 *921:gpio_analog_en[29] 0.00297589
3 *110:23 0.143595
4 *110:21 0.143573
5 *110:19 0.0157199
6 *110:17 0.0157806
7 *110:11 0.0156449
8 *110:9 0.0185601
9 *110:9 *112:9 0
10 *110:11 *119:11 0.00261834
11 *110:11 *140:43 0.00484145
12 *110:11 *150:11 0.00628433
13 *110:11 *206:17 0.00138397
14 *110:11 *226:11 0.00571333
15 *110:11 *683:15 0
16 *110:11 *831:73 0.00119969
17 *110:17 *273:15 0.000119762
18 *110:19 *226:11 0.0335017
19 *110:19 *572:28 0.0799169
20 *110:23 gpio_dm0[29] 0
21 *110:23 gpio_dm1[29] 0
22 *110:23 *242:33 0
23 *110:23 *242:35 0
24 *110:23 *281:25 0.000464554
25 *102:11 *110:11 0.000164905
26 *102:19 *110:11 0.0110061
27 *102:19 *110:19 0.00734911
28 *106:11 *110:11 0.0242718
29 *109:9 *110:9 0
*RES
1 *921:gpio_analog_en[29] *110:9 6.27853 
2 *110:9 *110:11 539.175 
3 *110:11 *110:17 1.18367 
4 *110:17 *110:19 141.727 
5 *110:19 *110:21 0.5 
6 *110:21 *110:23 390.697 
7 *110:23 gpio_analog_en[29] 0.0627 
*END

*D_NET *111 0.037649
*CONN
*P gpio_analog_en[2] O
*I *921:gpio_analog_en[2] O *D CF_CARAVEL_SOC
*CAP
1 gpio_analog_en[2] 0.0110534
2 *921:gpio_analog_en[2] 0.0110534
3 gpio_analog_en[2] gpio_analog_en[3] 0
4 gpio_analog_en[2] gpio_dm0[2] 0.00054873
5 gpio_analog_en[2] gpio_inp_dis[2] 0.00304037
6 gpio_analog_en[2] *155:11 0.000755455
7 gpio_analog_en[2] *188:11 0
8 gpio_analog_en[2] *223:19 0.00200438
9 gpio_analog_en[2] *243:11 4.11026e-05
10 gpio_analog_en[2] *270:19 0.00181939
11 gpio_analog_en[2] *321:9 0.000675465
12 gpio_analog_en[2] *342:11 0.0066573
13 *100:9 gpio_analog_en[2] 0
*RES
1 *921:gpio_analog_en[2] gpio_analog_en[2] 35.2842 
*END

*D_NET *112 0.5307
*CONN
*P gpio_analog_en[30] O
*I *921:gpio_analog_en[30] O *D CF_CARAVEL_SOC
*CAP
1 gpio_analog_en[30] 0.00272479
2 *921:gpio_analog_en[30] 0.00415714
3 *112:31 0.140314
4 *112:29 0.137589
5 *112:27 0.0127178
6 *112:25 0.0129203
7 *112:15 0.00202756
8 *112:13 0.00182509
9 *112:11 0.0090279
10 *112:9 0.013185
11 gpio_analog_en[30] gpio_dm0[30] 9.37775e-05
12 gpio_analog_en[30] gpio_dm1[30] 0
13 *112:9 *113:9 0
14 *112:11 *128:11 0.00153918
15 *112:11 *139:11 0.0192637
16 *112:11 *182:17 0.00125232
17 *112:11 *203:11 0.00523011
18 *112:11 *225:19 0.0250441
19 *112:11 *274:45 0.00194252
20 *112:11 *274:91 0.000694746
21 *112:11 *315:11 0.00388603
22 *112:11 *321:11 0.0177623
23 *112:15 *162:15 0.000256565
24 *112:15 *183:17 0.000387171
25 *112:15 *195:15 0.000759459
26 *112:15 *196:15 0.005891
27 *112:15 *198:15 6.44082e-05
28 *112:15 *204:33 0.00102153
29 *112:25 *744:11 1.91769e-05
30 *112:27 *328:61 0.0383709
31 *112:31 gpio_inp_dis[30] 0
32 *112:31 *156:15 0
33 *112:31 *288:71 0
34 *95:17 *112:25 4.20745e-05
35 *107:15 *112:15 0.00493868
36 *107:25 *112:25 7.55509e-05
37 *107:27 *112:27 0.0656764
38 *110:9 *112:9 0
*RES
1 *921:gpio_analog_en[30] *112:9 8.67 
2 *112:9 *112:11 512.273 
3 *112:11 *112:13 2 
4 *112:13 *112:15 71.865 
5 *112:15 *112:25 6.10463 
6 *112:25 *112:27 117.265 
7 *112:27 *112:29 0.5 
8 *112:29 *112:31 376.907 
9 *112:31 gpio_analog_en[30] 5.03563 
*END

*D_NET *113 0.511566
*CONN
*P gpio_analog_en[31] O
*I *921:gpio_analog_en[31] O *D CF_CARAVEL_SOC
*CAP
1 gpio_analog_en[31] 0.000102476
2 *921:gpio_analog_en[31] 0.00468451
3 *113:23 0.156588
4 *113:21 0.156486
5 *113:19 0.0104593
6 *113:17 0.0105749
7 *113:11 0.00991007
8 *113:9 0.0144789
9 *113:9 *114:9 0
10 *113:11 *133:11 0.00109729
11 *113:11 *161:13 0.00192342
12 *113:11 *181:11 0.0044526
13 *113:11 *202:11 0.0289926
14 *113:11 *202:25 0.000467784
15 *113:11 *288:11 0.0196464
16 *113:11 *307:11 0
17 *113:11 *326:11 0.00795918
18 *113:11 *535:121 0.00108026
19 *113:19 *176:11 0.0281067
20 *113:19 *181:11 0.0199359
21 *113:19 *182:19 0.000316979
22 *113:19 *202:25 1.86715e-05
23 *113:19 *312:19 0.000354443
24 *113:19 *535:121 0.0102812
25 *113:23 gpio_analog_pol[31] 0
26 *113:23 gpio_dm0[31] 0.000138483
27 *113:23 gpio_dm1[31] 0
28 *113:23 *140:157 0.000831618
29 *104:11 *113:11 0.009509
30 *104:27 *113:11 0.0131692
31 *112:9 *113:9 0
*RES
1 *921:gpio_analog_en[31] *113:9 9.66053 
2 *113:9 *113:11 547.845 
3 *113:11 *113:17 1.24193 
4 *113:17 *113:19 84.018 
5 *113:19 *113:21 0.5 
6 *113:21 *113:23 394.193 
7 *113:23 gpio_analog_en[31] 0.2945 
*END

*D_NET *114 0.615701
*CONN
*P gpio_analog_en[32] O
*I *921:gpio_analog_en[32] O *D CF_CARAVEL_SOC
*CAP
1 gpio_analog_en[32] 0.00127107
2 *921:gpio_analog_en[32] 0.00510515
3 *114:33 0.00718082
4 *114:29 0.00807089
5 *114:23 0.0530222
6 *114:21 0.0540878
7 *114:11 0.014622
8 *114:9 0.0165005
9 gpio_analog_en[32] gpio_dm0[32] 0.000508691
10 gpio_analog_en[32] *447:17 0
11 gpio_analog_en[32] *548:23 7.25022e-05
12 *114:9 *115:9 0
13 *114:11 *166:13 0.000169377
14 *114:11 *173:13 0.00149821
15 *114:11 *178:17 0.00326933
16 *114:11 *199:13 0.00120939
17 *114:11 *242:11 0.0409432
18 *114:11 *337:11 0.0197479
19 *114:11 *531:28 0
20 *114:21 *174:11 0.00225584
21 *114:21 *242:11 0.000760724
22 *114:21 *337:33 2.0877e-05
23 *114:23 *141:29 0.0174028
24 *114:23 *142:15 0.0129194
25 *114:23 *184:15 0.0104637
26 *114:23 *203:15 0
27 *114:23 *227:17 0.00404385
28 *114:23 *272:15 0.0100726
29 *114:23 *283:25 0.00013749
30 *114:23 *407:27 0.0135403
31 *114:23 *689:11 0.11878
32 *114:23 *705:33 0.0166597
33 *114:23 *745:11 0.00650087
34 *114:23 *782:15 0.100295
35 *114:23 *832:49 0.000334223
36 *114:29 *158:30 0
37 *114:29 *246:29 0.0030964
38 *114:29 *334:42 7.86462e-05
39 *114:33 *158:32 0.0321387
40 *114:33 *246:33 0.0327369
41 *94:19 *114:21 0.00102368
42 *98:15 *114:23 0.00025083
43 *101:15 *114:23 0.00291739
44 *104:25 *114:11 0.00199223
45 *113:9 *114:9 0
*RES
1 *921:gpio_analog_en[32] *114:9 10.4763 
2 *114:9 *114:11 455.535 
3 *114:11 *114:21 11.9994 
4 *114:21 *114:23 344.044 
5 *114:23 *114:29 8.35933 
6 *114:29 *114:33 49.5694 
7 *114:33 gpio_analog_en[32] 5.5167 
*END

*D_NET *115 0.740868
*CONN
*P gpio_analog_en[33] O
*I *921:gpio_analog_en[33] O *D CF_CARAVEL_SOC
*CAP
1 gpio_analog_en[33] 0.00578481
2 *921:gpio_analog_en[33] 0.003752
3 *115:35 0.00718232
4 *115:33 0.00231123
5 *115:15 0.0326975
6 *115:13 0.0317838
7 *115:11 0.0169648
8 *115:9 0.0207168
9 gpio_analog_en[33] gpio_dm0[33] 0.00253648
10 gpio_analog_en[33] gpio_slow_sel[33] 0
11 gpio_analog_en[33] *206:57 0.00029061
12 gpio_analog_en[33] *455:19 0
13 gpio_analog_en[33] *543:37 0.000104615
14 *115:11 *141:21 0.00372702
15 *115:11 *155:11 0.00063334
16 *115:11 *180:11 0.00213093
17 *115:11 *216:13 0.000110459
18 *115:11 *444:11 0
19 *115:11 *788:19 0.00350328
20 *115:15 *291:15 0.240256
21 *115:15 *393:23 0.000237448
22 *115:15 *437:31 0.242975
23 *115:15 *688:11 0.00312634
24 *115:15 *716:11 0.000709488
25 *115:15 *744:11 0.0494507
26 *115:33 *162:15 3.64998e-06
27 *115:33 *436:23 8.35068e-05
28 *115:33 *449:13 0
29 *115:33 *450:13 0.000101791
30 *115:33 *687:17 0.0018315
31 *115:33 *688:11 0.00182874
32 *115:33 *787:11 0.000553638
33 *115:33 *790:11 0.000551088
34 *115:35 gpio_analog_pol[33] 0.00188082
35 *115:35 *355:11 0.00892197
36 *115:35 *790:11 0.00892197
37 *103:11 *115:11 0.0452034
38 *114:9 *115:9 0
*RES
1 *921:gpio_analog_en[33] *115:9 7.85427 
2 *115:9 *115:11 503.858 
3 *115:11 *115:13 2 
4 *115:13 *115:15 2236.4 
5 *115:15 *115:33 18.6063 
6 *115:33 *115:35 99.1725 
7 *115:35 gpio_analog_en[33] 12.9355 
*END

*D_NET *116 0.648085
*CONN
*P gpio_analog_en[34] O
*I *921:gpio_analog_en[34] O *D CF_CARAVEL_SOC
*CAP
1 gpio_analog_en[34] 0.00704301
2 *921:gpio_analog_en[34] 0.000766375
3 *116:69 0.0199706
4 *116:63 0.0381351
5 *116:61 0.0252438
6 *116:55 0.0378524
7 *116:53 0.0416856
8 *116:41 0.00488137
9 *116:27 0.0035758
10 *116:25 0.00285476
11 *116:19 0.00238169
12 *116:17 0.00224058
13 *116:11 0.00133459
14 *116:9 0.00195129
15 gpio_analog_en[34] gpio_analog_pol[34] 0
16 gpio_analog_en[34] gpio_dm0[34] 0
17 gpio_analog_en[34] gpio_dm1[34] 0.00251017
18 gpio_analog_en[34] *355:9 0
19 gpio_analog_en[34] *356:9 0.001035
20 *116:9 *117:9 0
21 *116:9 *334:6 0.000229581
22 *116:11 *213:11 0.00243086
23 *116:11 *214:11 0.000685238
24 *116:11 *227:11 0.00562956
25 *116:19 *164:15 0.0119888
26 *116:19 *167:15 0.00137484
27 *116:19 *207:11 0.00960221
28 *116:19 *209:11 0.00139232
29 *116:27 *140:17 0.000120924
30 *116:27 *140:25 0.00193876
31 *116:27 *204:17 0.000779976
32 *116:27 *288:53 0.000200198
33 *116:27 *321:41 0.00203074
34 *116:27 *327:19 0.00435873
35 *116:27 *327:29 0.00305949
36 *116:27 *328:11 0.00978573
37 *116:27 *328:51 1.79536e-05
38 *116:27 *329:52 0.000524484
39 *116:27 *333:11 0.00101732
40 *116:27 *334:6 0.000483387
41 *116:27 *334:34 0.00062323
42 *116:27 *787:49 0.000656936
43 *116:27 *788:49 0.000986528
44 *116:41 *117:33 0.000709466
45 *116:41 *150:19 0.000781906
46 *116:41 *152:19 0.000462664
47 *116:41 *153:25 0
48 *116:41 *157:37 0
49 *116:41 *163:17 0.00204165
50 *116:41 *328:51 0
51 *116:41 *333:11 3.44143e-05
52 *116:41 *334:34 0.000552385
53 *116:41 *392:45 5.11076e-05
54 *116:41 *788:49 0.00245632
55 *116:41 *831:61 2.13396e-05
56 *116:53 *117:35 0.00107729
57 *116:53 *158:22 0.0091992
58 *116:53 *195:29 9.77112e-05
59 *116:53 *196:25 7.80759e-05
60 *116:53 *198:25 2.22315e-05
61 *116:53 *205:27 0.000703893
62 *116:53 *329:58 0.00198493
63 *116:53 *392:35 0
64 *116:53 *744:11 0.000442239
65 *116:53 *831:41 0.00068325
66 *116:55 *160:15 0.00147634
67 *116:55 *160:23 0.000574605
68 *116:55 *392:31 0.111475
69 *116:55 *672:11 0.000523903
70 *116:55 *683:11 0.0269737
71 *116:55 *693:19 0.00106719
72 *116:61 *661:13 6.16289e-05
73 *116:63 *117:39 0.0597131
74 *116:63 *160:23 0.1235
75 *116:63 *393:21 0.01583
76 *116:63 *661:13 5.91985e-05
77 *116:63 *687:17 0.000258401
78 *116:69 *406:11 0.00484386
79 *116:69 *407:11 0.00243021
80 *116:69 *454:25 0.00274074
81 *116:69 *750:11 0.0146413
82 *116:69 *764:11 0.00220693
83 *116:69 *764:21 0.000232328
84 *116:69 *794:11 0.00333139
85 *95:17 *116:53 0.000176125
86 *109:21 *116:27 0.00118884
*RES
1 *921:gpio_analog_en[34] *116:9 1.96427 
2 *116:9 *116:11 62.7075 
3 *116:11 *116:17 6.175 
4 *116:17 *116:19 134.49 
5 *116:19 *116:25 8.245 
6 *116:25 *116:27 165.345 
7 *116:27 *116:41 43.1371 
8 *116:41 *116:53 22.8112 
9 *116:53 *116:55 1072.36 
10 *116:55 *116:61 3.2425 
11 *116:61 *116:63 188.385 
12 *116:63 *116:69 46.258 
13 *116:69 gpio_analog_en[34] 14.965 
*END

*D_NET *117 0.687093
*CONN
*P gpio_analog_en[35] O
*I *921:gpio_analog_en[35] O *D CF_CARAVEL_SOC
*CAP
1 gpio_analog_en[35] 0.000141026
2 *921:gpio_analog_en[35] 0.001789
3 *117:43 0.00770059
4 *117:41 0.00755957
5 *117:39 0.0534314
6 *117:37 0.0534314
7 *117:35 0.00408906
8 *117:33 0.00648206
9 *117:11 0.0151394
10 *117:9 0.0145354
11 gpio_analog_en[35] gpio_dm0[35] 3.60033e-05
12 gpio_analog_en[35] gpio_dm1[35] 0
13 *117:9 *118:9 0.000257117
14 *117:9 *119:9 0
15 *117:11 *153:25 0.000244804
16 *117:11 *279:11 0.00337625
17 *117:11 *316:11 0.0322383
18 *117:11 *483:11 0
19 *117:33 *157:37 0.00146701
20 *117:33 *158:22 0.000364886
21 *117:33 *161:13 0.000467243
22 *117:33 *162:9 0.000464689
23 *117:33 *328:51 0.000322505
24 *117:33 *329:56 0.000282144
25 *117:33 *330:13 0.00211262
26 *117:33 *333:11 0.000711768
27 *117:33 *334:34 0.000175493
28 *117:33 *392:45 0
29 *117:35 *140:71 0.000448088
30 *117:35 *195:29 0
31 *117:35 *205:27 0.000194833
32 *117:35 *326:19 0.000113898
33 *117:35 *329:58 0
34 *117:35 *392:35 0.0052341
35 *117:39 *141:29 0.00750279
36 *117:39 *193:61 0.000133969
37 *117:39 *195:29 4.32417e-05
38 *117:39 *205:53 0.0692546
39 *117:39 *291:25 0.0024178
40 *117:39 *392:23 0.140163
41 *117:39 *393:21 0.016919
42 *117:39 *661:13 0.00239146
43 *117:39 *661:15 0.0646724
44 *117:39 *687:17 2.83174e-05
45 *117:39 *691:11 9.87802e-06
46 *117:39 *705:33 0.0342262
47 *117:43 *459:13 0.0375098
48 *117:43 *553:25 0.0375109
49 *116:9 *117:9 0
50 *116:41 *117:33 0.000709466
51 *116:53 *117:35 0.00107729
52 *116:63 *117:39 0.0597131
*RES
1 *921:gpio_analog_en[35] *117:9 4.09227 
2 *117:9 *117:11 359.655 
3 *117:11 *117:33 43.2464 
4 *117:33 *117:35 107.205 
5 *117:35 *117:37 0.5 
6 *117:37 *117:39 383.957 
7 *117:39 *117:41 0.5 
8 *117:41 *117:43 433.594 
9 *117:43 gpio_analog_en[35] 0.820467 
*END

*D_NET *118 0.776627
*CONN
*P gpio_analog_en[36] O
*I *921:gpio_analog_en[36] O *D CF_CARAVEL_SOC
*CAP
1 gpio_analog_en[36] 0.00398291
2 *921:gpio_analog_en[36] 0.000554209
3 *118:211 0.0179338
4 *118:209 0.0182881
5 *118:201 0.00570989
6 *118:187 0.00446823
7 *118:185 0.00430395
8 *118:179 0.0034254
9 *118:177 0.00398387
10 *118:163 0.00424904
11 *118:161 0.00248214
12 *118:159 0.00379301
13 *118:147 0.00873786
14 *118:145 0.00804894
15 *118:133 0.00740216
16 *118:115 0.00833631
17 *118:113 0.00470825
18 *118:107 0.00142472
19 *118:105 0.00139651
20 *118:99 0.00147565
21 *118:97 0.00117917
22 *118:93 0.00296823
23 *118:75 0.00355027
24 *118:73 0.00113049
25 *118:69 0.00311314
26 *118:57 0.00376683
27 *118:53 0.00453759
28 *118:39 0.00468998
29 *118:37 0.00164629
30 *118:33 0.0116202
31 *118:19 0.0305967
32 *118:17 0.020154
33 *118:11 0.00965725
34 *118:9 0.00967099
35 gpio_analog_en[36] gpio_dm0[36] 0.00117139
36 gpio_analog_en[36] gpio_dm1[36] 0
37 gpio_analog_en[36] gpio_vtrip_sel[36] 0.000570813
38 *118:9 *119:9 0.000257117
39 *118:11 *212:19 0.0230844
40 *118:11 *275:11 0
41 *118:11 *740:59 0.00305995
42 *118:19 *244:11 0
43 *118:19 *245:11 0.00147316
44 *118:19 *250:21 0.00329666
45 *118:19 *251:11 0.0220787
46 *118:19 *253:11 0
47 *118:19 *271:11 0
48 *118:19 *282:11 0.00157428
49 *118:19 *286:11 0
50 *118:19 *290:11 0.00597879
51 *118:19 *296:11 0
52 *118:19 *322:35 0
53 *118:19 *740:67 0.0061259
54 *118:19 *740:75 0
55 *118:33 gpio_analog_sel[43] 0.000860737
56 *118:33 *322:61 0
57 *118:33 *529:9 0
58 *118:33 *532:32 0.0038138
59 *118:33 *536:63 0.00449822
60 *118:33 *537:56 0
61 *118:33 *540:34 0.00426225
62 *118:33 *562:119 0.00937675
63 *118:33 *569:18 0.0038138
64 *118:33 *697:109 0.00171827
65 *118:33 *740:81 0.00523105
66 *118:33 *826:127 0.00426225
67 *118:37 *322:61 0.000252007
68 *118:37 *533:108 0
69 *118:37 *826:125 0.00011011
70 *118:39 *322:69 0.00392831
71 *118:39 *444:23 0.000171641
72 *118:39 *533:104 0.000594898
73 *118:39 *536:63 0.000693561
74 *118:39 *569:18 0.00237431
75 *118:39 *696:95 0.00256867
76 *118:39 *740:95 0.000756719
77 *118:39 *826:127 4.82863e-05
78 *118:53 *386:201 0.00724995
79 *118:53 *536:51 0.000686662
80 *118:57 *125:15 0.002759
81 *118:57 *444:37 0.000931628
82 *118:57 *696:95 0.00193115
83 *118:69 *125:15 0.000244465
84 *118:69 *322:113 1.95991e-05
85 *118:69 *325:37 0
86 *118:69 *336:25 0
87 *118:69 *386:189 0.00770321
88 *118:69 *444:39 0.000314678
89 *118:69 *532:16 0.00126889
90 *118:69 *533:68 0.0014151
91 *118:69 *535:65 0.000153676
92 *118:69 *540:32 0.00180772
93 *118:69 *696:95 0.000349231
94 *118:69 *741:138 0
95 *118:69 *826:117 0.000233924
96 *118:73 *325:37 0.00066669
97 *118:73 *336:29 0.000581916
98 *118:75 *444:53 0.00118365
99 *118:75 *532:16 0.00383776
100 *118:75 *696:95 0.00639741
101 *118:93 *293:15 0.00162124
102 *118:93 *322:129 0.00115398
103 *118:93 *325:57 0
104 *118:93 *336:41 0.00591605
105 *118:93 *338:33 0.00502205
106 *118:93 *397:109 0.00028079
107 *118:93 *408:53 0.000207661
108 *118:93 *531:16 0.000296865
109 *118:93 *540:24 0.000604334
110 *118:93 *696:103 0.000106873
111 *118:93 *696:117 0.00095299
112 *118:93 *741:164 0
113 *118:93 *840:19 0.000335082
114 *118:97 *325:61 0.000622832
115 *118:99 *325:63 0.00608761
116 *118:99 *338:35 0.000364606
117 *118:99 *532:16 0.00669907
118 *118:99 *537:12 0.000610325
119 *118:105 gpio_analog_en[42] 0
120 *118:107 *212:23 0.00110696
121 *118:107 *292:15 0.00574313
122 *118:107 *858:11 0.00574081
123 *118:113 *397:93 0.000367447
124 *118:113 *541:25 0
125 *118:115 *530:25 0.00184602
126 *118:115 *539:35 0
127 *118:115 *562:41 0
128 *118:115 *569:18 1.90662e-05
129 *118:115 *826:47 0.00753868
130 *118:133 *386:137 0.011081
131 *118:133 *419:63 0.000368031
132 *118:133 *540:24 0.00154363
133 *118:133 *551:25 0.00180861
134 *118:133 *562:25 0.000264523
135 *118:133 *569:16 0
136 *118:133 *570:12 0
137 *118:133 *696:163 0.000253888
138 *118:133 *826:47 0
139 *118:145 *338:69 0
140 *118:145 *386:123 7.3035e-05
141 *118:145 *419:63 0.0125776
142 *118:145 *540:24 0.00106021
143 *118:145 *551:25 0.000947908
144 *118:145 *562:25 0.00145638
145 *118:147 *386:107 0.0154196
146 *118:159 gpio_out[39] 0.00245662
147 *118:159 *338:69 0.000858756
148 *118:159 *386:103 0.0301966
149 *118:159 *419:45 0.030459
150 *118:159 *541:41 1.88904e-05
151 *118:163 *325:87 2.16917e-05
152 *118:163 *386:91 0.020645
153 *118:163 *541:43 0.0207164
154 *118:177 *322:211 0.00997143
155 *118:177 *325:101 4.80442e-05
156 *118:177 *386:89 3.82728e-05
157 *118:177 *397:77 0.00366066
158 *118:177 *541:57 0.00445617
159 *118:177 *739:112 0.000510985
160 *118:179 *293:15 0.00405459
161 *118:179 *322:211 0.000108569
162 *118:179 *386:89 0.000290789
163 *118:179 *397:77 0.000473182
164 *118:179 *419:23 0.0036391
165 *118:179 *444:71 0.00102763
166 *118:179 *693:175 0.00031484
167 *118:179 *840:19 0.00121518
168 *118:185 *921:gpio_in[16] 0.000880121
169 *118:185 *293:15 0.000456159
170 *118:185 *419:23 0.00436535
171 *118:185 *693:137 0.000184583
172 *118:187 *293:15 0.00522597
173 *118:187 *325:145 0.00019746
174 *118:187 *419:23 0.0050667
175 *118:187 *539:117 0.00195514
176 *118:187 *541:77 0.00206414
177 *118:187 *541:105 2.01504e-05
178 *118:187 *693:117 0.000760197
179 *118:187 *693:137 2.0514e-05
180 *118:187 *737:147 0.000408636
181 *118:187 *840:19 0.00232058
182 *118:201 *292:15 0.0019943
183 *118:201 *338:77 0
184 *118:201 *693:109 0.00041442
185 *118:201 *737:127 0.000279766
186 *118:201 *739:58 0
187 *118:201 *858:11 0.0019902
188 *118:209 *325:157 0
189 *118:209 *335:55 0.0141575
190 *118:209 *338:81 0.00549554
191 *118:209 *397:33 0.0151908
192 *118:209 *419:21 0.000607644
193 *118:209 *826:29 0.00366784
194 *118:211 *322:277 0.0453036
195 *118:211 *338:83 2.805e-05
196 *118:211 *387:11 0
197 *118:211 *440:19 0.000126231
198 *118:211 *734:15 0.00171914
199 *118:211 *736:39 0.0323989
200 *118:211 *833:11 0.0130604
201 *117:9 *118:9 0.000257117
*RES
1 *921:gpio_analog_en[36] *118:9 2.08587 
2 *118:9 *118:11 257.527 
3 *118:11 *118:17 11.695 
4 *118:17 *118:19 525.023 
5 *118:19 *118:33 48.1168 
6 *118:33 *118:37 13.9625 
7 *118:37 *118:39 59.79 
8 *118:39 *118:53 41.0393 
9 *118:53 *118:57 41.6925 
10 *118:57 *118:69 43.9137 
11 *118:69 *118:73 9.8825 
12 *118:73 *118:75 57.72 
13 *118:75 *118:93 48.22 
14 *118:93 *118:97 9.6275 
15 *118:97 *118:99 60.48 
16 *118:99 *118:105 12.775 
17 *118:105 *118:107 52.89 
18 *118:107 *118:113 14.56 
19 *118:113 *118:115 114.3 
20 *118:115 *118:133 49.9379 
21 *118:133 *118:145 22.7385 
22 *118:145 *118:147 139.14 
23 *118:147 *118:159 48.587 
24 *118:159 *118:161 2 
25 *118:161 *118:163 187.095 
26 *118:163 *118:177 27.9747 
27 *118:177 *118:179 94.1175 
28 *118:179 *118:185 40.8375 
29 *118:185 *118:187 138.45 
30 *118:187 *118:201 41.0375 
31 *118:201 *118:209 31.1128 
32 *118:209 *118:211 678.405 
33 *118:211 gpio_analog_en[36] 9.1317 
*END

*D_NET *119 0.808388
*CONN
*P gpio_analog_en[37] O
*I *921:gpio_analog_en[37] O *D CF_CARAVEL_SOC
*CAP
1 gpio_analog_en[37] 0.00374312
2 *921:gpio_analog_en[37] 0.0029505
3 *119:27 0.0133986
4 *119:25 0.00965544
5 *119:23 0.0366699
6 *119:21 0.0367606
7 *119:15 0.0161443
8 *119:13 0.0160536
9 *119:11 0.027675
10 *119:9 0.0306255
11 gpio_analog_en[37] gpio_dm0[37] 0.00110227
12 gpio_analog_en[37] gpio_dm1[37] 0
13 *119:9 *334:6 0.000229581
14 *119:11 *442:11 0
15 *119:11 *445:19 0
16 *119:11 *483:19 0.0682686
17 *119:11 *572:28 0.0103364
18 *119:11 *683:15 0.0017422
19 *119:15 *289:23 0.118676
20 *119:15 *336:15 0.0502973
21 *119:15 *481:15 0.00031415
22 *119:15 *547:13 0.0706698
23 *119:15 *571:27 0.000823902
24 *119:15 *749:27 8.88101e-05
25 *119:15 *838:11 0.0250841
26 *119:21 gpio_dm2[40] 0.000142477
27 *119:23 *167:19 0.00151919
28 *119:23 *207:39 0.00725368
29 *119:23 *207:49 0.00409496
30 *119:23 *208:29 0.0172063
31 *119:23 *336:55 0.00158158
32 *119:23 *336:65 0.0111179
33 *119:23 *455:25 0.00399082
34 *119:23 *462:23 0.00752796
35 *119:23 *465:21 0.000323975
36 *119:23 *481:25 0.0154653
37 *119:23 *739:130 0.0356837
38 *119:23 *749:27 0.0192832
39 *119:23 *838:11 0.0298357
40 *119:23 *841:11 0.0152354
41 *119:23 *868:11 6.89829e-05
42 *119:27 *207:51 0.000476121
43 *119:27 *289:33 3.92253e-05
44 *119:27 *294:27 0.0465561
45 *119:27 *339:27 0.0447086
46 *119:27 *446:25 0.000111733
47 *119:27 *544:17 0.000536242
48 *102:11 *119:11 0.000838838
49 *106:11 *119:11 0.000604189
50 *110:11 *119:11 0.00261834
51 *117:9 *119:9 0
52 *118:9 *119:9 0.000257117
*RES
1 *921:gpio_analog_en[37] *119:9 6.39253 
2 *119:9 *119:11 806.797 
3 *119:11 *119:13 2 
4 *119:13 *119:15 1118.59 
5 *119:15 *119:21 4.2625 
6 *119:21 *119:23 194.357 
7 *119:23 *119:25 0.5 
8 *119:25 *119:27 542.745 
9 *119:27 gpio_analog_en[37] 8.40463 
*END

*D_NET *120 0.541056
*CONN
*P gpio_analog_en[38] O
*I *921:gpio_analog_en[38] O *D CF_CARAVEL_SOC
*CAP
1 gpio_analog_en[38] 0.00276878
2 *921:gpio_analog_en[38] 0.00704386
3 *120:15 0.0873414
4 *120:13 0.0845726
5 *120:11 0.0302756
6 *120:9 0.0373194
7 gpio_analog_en[38] *251:15 0.000130266
8 gpio_analog_en[38] *384:15 0.00235567
9 gpio_analog_en[38] *428:23 0.000208922
10 gpio_analog_en[38] *692:35 0.000203306
11 gpio_analog_en[38] *736:43 6.13812e-05
12 gpio_analog_en[38] *855:11 0.000574938
13 *120:9 *121:9 9.24851e-05
14 *120:11 *229:11 0.0212434
15 *120:11 *281:11 0.0360044
16 *120:11 *305:11 0
17 *120:11 *397:177 0
18 *120:11 *482:11 0
19 *120:11 *529:13 0
20 *120:11 *749:31 0
21 *120:11 *815:53 0
22 *120:15 gpio_out[39] 0.000548656
23 *120:15 *251:15 0.014033
24 *120:15 *692:35 0.0258803
25 *120:15 *695:75 0.0943356
26 *120:15 *698:27 0.00229809
27 *120:15 *742:120 0.00865825
28 *120:15 *839:15 0.000135103
29 *120:15 *855:11 0.0839926
30 *120:15 *866:15 0.00084091
31 gpio_analog_en[0] *120:11 0.000137025
*RES
1 *921:gpio_analog_en[38] *120:9 13.9723 
2 *120:9 *120:11 830.895 
3 *120:11 *120:13 0.5 
4 *120:13 *120:15 296.47 
5 *120:15 gpio_analog_en[38] 8.0631 
*END

*D_NET *121 0.575947
*CONN
*P gpio_analog_en[39] O
*I *921:gpio_analog_en[39] O *D CF_CARAVEL_SOC
*CAP
1 gpio_analog_en[39] 0.00191958
2 *921:gpio_analog_en[39] 0.000406089
3 *121:15 0.0282699
4 *121:13 0.0263503
5 *121:11 0.0123531
6 *121:9 0.0127592
7 gpio_analog_en[39] gpio_dm0[39] 0.000613375
8 *121:9 *123:9 0
9 *121:11 *123:11 0.0715203
10 *121:11 *126:11 0.000123781
11 *121:11 *164:15 0.00635534
12 *121:11 *164:23 0.00587457
13 *121:11 *209:11 0.00124044
14 *121:11 *345:11 0.0571756
15 *121:11 *846:11 0.000219683
16 *121:15 *165:15 0.0180857
17 *121:15 *256:15 0.100028
18 *121:15 *257:15 0.0772724
19 *121:15 *296:23 0.0107827
20 *121:15 *299:23 0.0109777
21 *121:15 *325:71 0.0144464
22 *121:15 *338:19 0.0147227
23 *121:15 *431:15 0.0262306
24 *121:15 *432:15 0.0492451
25 *121:15 *771:27 0.00919065
26 *121:15 *842:11 0.0159399
27 *109:11 *121:11 0.00375174
28 *120:9 *121:9 9.24851e-05
*RES
1 *921:gpio_analog_en[39] *121:9 1.35373 
2 *121:9 *121:11 804.885 
3 *121:11 *121:13 0.5 
4 *121:13 *121:15 221.801 
5 *121:15 gpio_analog_en[39] 30.6125 
*END

*D_NET *122 0.0308331
*CONN
*P gpio_analog_en[3] O
*I *921:gpio_analog_en[3] O *D CF_CARAVEL_SOC
*CAP
1 gpio_analog_en[3] 0.00906927
2 *921:gpio_analog_en[3] 0.00906927
3 gpio_analog_en[3] gpio_dm0[3] 0.00341458
4 gpio_analog_en[3] gpio_inp_dis[3] 0
5 gpio_analog_en[3] *127:13 0
6 gpio_analog_en[3] *133:11 0
7 gpio_analog_en[3] *177:11 0.00547846
8 gpio_analog_en[3] *260:19 0.000887268
9 gpio_analog_en[3] *266:11 0.000208883
10 gpio_analog_en[3] *312:19 0.000725619
11 gpio_analog_en[3] *326:11 0.000640716
12 gpio_analog_en[3] *535:121 0.000638647
13 gpio_analog_en[2] gpio_analog_en[3] 0
14 *94:17 gpio_analog_en[3] 0.000700405
*RES
1 *921:gpio_analog_en[3] gpio_analog_en[3] 26.7355 
*END

*D_NET *123 0.498049
*CONN
*P gpio_analog_en[40] O
*I *921:gpio_analog_en[40] O *D CF_CARAVEL_SOC
*CAP
1 gpio_analog_en[40] 0.00259667
2 *921:gpio_analog_en[40] 0.000311825
3 *123:15 0.0240485
4 *123:13 0.0214519
5 *123:11 0.0119252
6 *123:9 0.012237
7 gpio_analog_en[40] gpio_dm0[40] 0
8 gpio_analog_en[40] *921:gpio_in[43] 0
9 *123:9 *124:7 0
10 *123:11 *126:11 0.0719819
11 *123:11 *164:23 0.00587457
12 *123:11 *208:9 0.000890036
13 *123:15 *341:18 0.122672
14 *123:15 *344:15 0.000167932
15 *123:15 *346:15 0.0526127
16 *123:15 *408:23 0.0528155
17 *123:15 *442:15 0.0284668
18 *123:15 *531:24 0.00844159
19 *123:15 *840:19 0.00977095
20 *109:11 *123:11 0.000263998
21 *121:9 *123:9 0
22 *121:11 *123:11 0.0715203
*RES
1 *921:gpio_analog_en[40] *123:9 1.1232 
2 *123:9 *123:11 804.375 
3 *123:11 *123:13 0.5 
4 *123:13 *123:15 187.016 
5 *123:15 gpio_analog_en[40] 36.3425 
*END

*D_NET *124 0.417031
*CONN
*P gpio_analog_en[41] O
*I *921:gpio_analog_en[41] O *D CF_CARAVEL_SOC
*CAP
1 gpio_analog_en[41] 0.000896284
2 *921:gpio_analog_en[41] 0.000134155
3 *124:13 0.0177299
4 *124:11 0.0168337
5 *124:9 0.0128287
6 *124:7 0.0129629
7 gpio_analog_en[41] gpio_dm0[41] 0
8 *124:7 *125:9 6.9977e-05
9 *124:9 *126:11 0.0734086
10 *124:9 *164:33 5.05716e-06
11 *124:9 *208:9 0.00865991
12 *124:9 *211:9 0.0727457
13 *124:9 *300:17 0
14 *124:9 *845:9 0.000791151
15 *124:9 *846:11 0.000450724
16 *124:13 *843:11 0.100044
17 *124:13 *849:11 0.000406044
18 *124:13 *862:11 0.0989607
19 *124:13 *864:11 0.000103303
20 *123:9 *124:7 0
*RES
1 *921:gpio_analog_en[41] *124:7 0.839467 
2 *124:7 *124:9 831.66 
3 *124:9 *124:11 0.5 
4 *124:11 *124:13 152.347 
5 *124:13 gpio_analog_en[41] 12.9875 
*END

*D_NET *125 0.322425
*CONN
*P gpio_analog_en[42] O
*I *921:gpio_analog_en[42] O *D CF_CARAVEL_SOC
*CAP
1 gpio_analog_en[42] 0.0024509
2 *921:gpio_analog_en[42] 0.00250036
3 *125:15 0.0155372
4 *125:13 0.0130863
5 *125:11 0.0220791
6 *125:9 0.0245794
7 gpio_analog_en[42] gpio_dm0[42] 0.00116332
8 gpio_analog_en[42] *339:21 0.000574465
9 *125:9 *126:9 0
10 *125:9 *334:6 0.000229581
11 *125:11 *314:19 0.000992794
12 *125:11 *336:11 0.0534245
13 *125:11 *338:11 0.000447379
14 *125:11 *350:11 0.00202314
15 *125:11 *443:11 0
16 *125:11 *443:19 0.00458806
17 *125:11 *452:11 0.0136049
18 *125:11 *463:11 0
19 *125:11 *474:11 0
20 *125:15 *322:39 0.00610785
21 *125:15 *325:39 0.00590793
22 *125:15 *444:23 0.00835092
23 *125:15 *444:39 0.00788268
24 *125:15 *444:55 0.0160009
25 *125:15 *529:9 0.00393962
26 *125:15 *532:16 0.000699888
27 *125:15 *533:104 0.00254118
28 *125:15 *536:33 0.00141334
29 *125:15 *537:12 0.00245528
30 *125:15 *572:16 0.0796592
31 *125:15 *696:95 0.000147751
32 *125:15 *697:109 0.00195497
33 *125:15 *740:81 0.00386884
34 *125:15 *826:127 0.00152319
35 *95:11 *125:11 0.00945742
36 *96:11 *125:11 0.00908814
37 *105:11 *125:11 0.000102302
38 *108:11 *125:11 0.000968789
39 *118:57 *125:15 0.002759
40 *118:69 *125:15 0.000244465
41 *118:105 gpio_analog_en[42] 0
42 *124:7 *125:9 6.9977e-05
*RES
1 *921:gpio_analog_en[42] *125:9 5.51853 
2 *125:9 *125:11 806.542 
3 *125:11 *125:13 2 
4 *125:13 *125:15 720.12 
5 *125:15 gpio_analog_en[42] 42.89 
*END

*D_NET *126 0.299032
*CONN
*P gpio_analog_en[43] O
*I *921:gpio_analog_en[43] O *D CF_CARAVEL_SOC
*CAP
1 gpio_analog_en[43] 0.00160314
2 *921:gpio_analog_en[43] 0.000393465
3 *126:15 0.0147985
4 *126:13 0.0131954
5 *126:11 0.0125011
6 *126:9 0.0128946
7 gpio_analog_en[43] gpio_dm0[43] 0
8 gpio_analog_en[43] *845:17 0
9 *126:9 *334:6 0.000229581
10 *126:11 *164:23 0.00720683
11 *126:11 *208:9 0.00108833
12 *126:11 *211:9 0.000297218
13 *126:11 *846:11 0.000761212
14 *126:15 *168:15 0.0546657
15 *126:15 *249:15 0.0126376
16 *126:15 *343:15 0.0208294
17 *109:11 *126:11 0.000415424
18 *121:11 *126:11 0.000123781
19 *123:11 *126:11 0.0719819
20 *124:9 *126:11 0.0734086
21 *125:9 *126:9 0
*RES
1 *921:gpio_analog_en[43] *126:9 1.32333 
2 *126:9 *126:11 827.325 
3 *126:11 *126:13 0.5 
4 *126:13 *126:15 83.068 
5 *126:15 gpio_analog_en[43] 22.6325 
*END

*D_NET *127 0.0673968
*CONN
*P gpio_analog_en[4] O
*I *921:gpio_analog_en[4] O *D CF_CARAVEL_SOC
*CAP
1 gpio_analog_en[4] 0.00574434
2 *921:gpio_analog_en[4] 0.00449633
3 *127:13 0.0102407
4 gpio_analog_en[4] gpio_dm0[4] 0.00037828
5 gpio_analog_en[4] gpio_dm1[4] 0.00258255
6 gpio_analog_en[4] *181:9 0.00112747
7 gpio_analog_en[4] *182:17 0.00102731
8 gpio_analog_en[4] *281:11 0.000149554
9 gpio_analog_en[4] *375:59 0.000103819
10 *127:13 *128:9 0
11 *127:13 *228:11 0.0205032
12 *127:13 *237:11 0.0204968
13 gpio_analog_en[3] *127:13 0
14 *94:17 gpio_analog_en[4] 0.000546496
*RES
1 *921:gpio_analog_en[4] *127:13 39.7511 
2 *127:13 gpio_analog_en[4] 18.4815 
*END

*D_NET *128 0.0974459
*CONN
*P gpio_analog_en[5] O
*I *921:gpio_analog_en[5] O *D CF_CARAVEL_SOC
*CAP
1 gpio_analog_en[5] 0.00378643
2 *921:gpio_analog_en[5] 0.00392232
3 *128:11 0.0118759
4 *128:9 0.0120118
5 gpio_analog_en[5] gpio_dm0[5] 0.00228185
6 gpio_analog_en[5] gpio_inp_dis[5] 0
7 gpio_analog_en[5] *136:9 7.26905e-05
8 gpio_analog_en[5] *182:17 0
9 *128:9 *129:9 0
10 *128:11 *129:11 0.00836136
11 *128:11 *175:11 0.000322011
12 *128:11 *182:17 0.00417786
13 *128:11 *203:11 0.00876079
14 *128:11 *225:19 0.000445968
15 *128:11 *259:11 2.37061e-05
16 *128:11 *274:45 0.000498677
17 *128:11 *304:11 0.0358783
18 *128:11 *312:17 0.00021311
19 *128:11 *321:11 0.00327393
20 *112:11 *128:11 0.00153918
21 *127:13 *128:9 0
*RES
1 *921:gpio_analog_en[5] *128:9 8.52433 
2 *128:9 *128:11 65.1548 
3 *128:11 gpio_analog_en[5] 8.75423 
*END

*D_NET *129 0.132319
*CONN
*P gpio_analog_en[6] O
*I *921:gpio_analog_en[6] O *D CF_CARAVEL_SOC
*CAP
1 gpio_analog_en[6] 0.00403782
2 *921:gpio_analog_en[6] 0.00406556
3 *129:11 0.0161959
4 *129:9 0.0162236
5 gpio_analog_en[6] gpio_dm0[6] 0.00077331
6 gpio_analog_en[6] gpio_inp_dis[6] 0
7 *129:9 *130:9 0
8 *129:9 *312:17 4.85629e-05
9 *129:11 gpio_analog_pol[4] 0.00727699
10 *129:11 gpio_analog_sel[4] 0.000152092
11 *129:11 *132:11 0.000110459
12 *129:11 *136:11 0.0160995
13 *129:11 *162:11 0.00106005
14 *129:11 *176:11 0.00047817
15 *129:11 *181:11 0
16 *129:11 *182:17 0.016344
17 *129:11 *203:11 0.00943828
18 *129:11 *259:11 0.0203951
19 *129:11 *266:11 0.000498449
20 *129:11 *315:11 0.00644224
21 *129:11 *375:43 0.000112528
22 *129:11 *532:36 0.000274836
23 *129:11 *568:15 0.00393045
24 *128:9 *129:9 0
25 *128:11 *129:11 0.00836136
*RES
1 *921:gpio_analog_en[6] *129:9 8.87393 
2 *129:9 *129:11 93.2343 
3 *129:11 gpio_analog_en[6] 8.18677 
*END

*D_NET *130 0.271045
*CONN
*P gpio_analog_en[7] O
*I *921:gpio_analog_en[7] O *D CF_CARAVEL_SOC
*CAP
1 gpio_analog_en[7] 0.00484355
2 *921:gpio_analog_en[7] 0.00342872
3 *130:11 0.0474535
4 *130:9 0.0460386
5 gpio_analog_en[7] gpio_analog_pol[7] 0
6 gpio_analog_en[7] gpio_dm0[7] 0
7 gpio_analog_en[7] gpio_dm1[7] 0
8 *130:9 *131:9 0
9 *130:11 *134:11 0.079661
10 *130:11 *141:21 0.0119458
11 *130:11 *144:11 0
12 *130:11 *155:11 0
13 *130:11 *179:11 0.00965702
14 *130:11 *180:11 0
15 *130:11 *216:13 0.0208091
16 *130:11 *223:19 0.0148426
17 *130:11 *246:11 0.00150967
18 *130:11 *246:21 0.000650637
19 *130:11 *270:19 0.0138126
20 *130:11 *321:25 0.000453136
21 *130:11 *342:11 0.00536194
22 *130:11 *530:113 0.00163698
23 *130:11 *567:18 0.00191397
24 *93:11 *130:11 0.00151719
25 *103:11 *130:11 0.00550871
26 *129:9 *130:9 0
*RES
1 *921:gpio_analog_en[7] *130:9 7.47553 
2 *130:9 *130:11 204.346 
3 *130:11 gpio_analog_en[7] 10.0868 
*END

*D_NET *131 0.28784
*CONN
*P gpio_analog_en[8] O
*I *921:gpio_analog_en[8] O *D CF_CARAVEL_SOC
*CAP
1 gpio_analog_en[8] 0.00383339
2 *921:gpio_analog_en[8] 0.00382569
3 *131:11 0.0400872
4 *131:9 0.0400795
5 gpio_analog_en[8] gpio_analog_pol[8] 0
6 gpio_analog_en[8] gpio_dm0[8] 0.00103293
7 gpio_analog_en[8] gpio_dm1[8] 0
8 *131:9 *132:9 0
9 *131:11 *175:11 0.0193891
10 *131:11 *188:11 0.0025675
11 *131:11 *225:19 0
12 *131:11 *304:11 0.00289455
13 *131:11 *310:11 0.123826
14 *131:11 *349:11 0.0503039
15 *130:9 *131:9 0
*RES
1 *921:gpio_analog_en[8] *131:9 8.3204 
2 *131:9 *131:11 1377.1 
3 *131:11 gpio_analog_en[8] 9.0139 
*END

*D_NET *132 0.318826
*CONN
*P gpio_analog_en[9] O
*I *921:gpio_analog_en[9] O *D CF_CARAVEL_SOC
*CAP
1 gpio_analog_en[9] 0.00255909
2 *921:gpio_analog_en[9] 0.00425922
3 *132:11 0.0445071
4 *132:9 0.0462072
5 gpio_analog_en[9] gpio_analog_pol[9] 0.00293218
6 gpio_analog_en[9] gpio_dm0[9] 0.00190181
7 gpio_analog_en[9] gpio_inp_dis[9] 0
8 *132:11 gpio_analog_pol[4] 0.00206035
9 *132:11 gpio_analog_sel[4] 0.000472562
10 *132:11 *176:11 0.0254393
11 *132:11 *177:11 0.00265203
12 *132:11 *259:11 0.000164905
13 *132:11 *266:11 0.138907
14 *132:11 *312:19 0
15 *132:11 *327:31 0.00447231
16 *132:11 *337:37 0.00404265
17 *132:11 *375:43 0.00197751
18 *132:11 *568:15 0.0335448
19 *132:11 *782:31 0.0026156
20 *129:11 *132:11 0.000110459
21 *131:9 *132:9 0
*RES
1 *921:gpio_analog_en[9] *132:9 9.13613 
2 *132:9 *132:11 1544.39 
3 *132:11 gpio_analog_en[9] 7.98663 
*END

*D_NET *133 0.212714
*CONN
*P gpio_analog_pol[0] O
*I *921:gpio_analog_pol[0] O *D CF_CARAVEL_SOC
*CAP
1 gpio_analog_pol[0] 0.00324258
2 *921:gpio_analog_pol[0] 0.00489205
3 *133:11 0.0231276
4 *133:9 0.0247771
5 gpio_analog_pol[0] gpio_inp_dis[0] 0.00170503
6 gpio_analog_pol[0] *241:9 0
7 *133:9 *144:9 0
8 *133:11 *166:13 0.00682496
9 *133:11 *177:11 0
10 *133:11 *181:11 0.0118909
11 *133:11 *222:17 0.0010778
12 *133:11 *288:11 0.00453648
13 *133:11 *298:11 0.000251111
14 *133:11 *303:11 0.0548588
15 *133:11 *307:11 0.00410258
16 *133:11 *435:27 0.0122798
17 *133:11 *481:11 0.0108826
18 *133:11 *771:31 0.00140729
19 gpio_analog_en[0] gpio_analog_pol[0] 0.000363287
20 gpio_analog_en[3] *133:11 0
21 *89:11 *133:11 0.0407679
22 *94:17 *133:11 0.00224317
23 *100:13 *133:11 0
24 *104:11 *133:11 0.00238574
25 *113:11 *133:11 0.00109729
*RES
1 *921:gpio_analog_pol[0] *133:9 9.92273 
2 *133:9 *133:11 133.028 
3 *133:11 gpio_analog_pol[0] 7.8283 
*END

*D_NET *134 0.32865
*CONN
*P gpio_analog_pol[10] O
*I *921:gpio_analog_pol[10] O *D CF_CARAVEL_SOC
*CAP
1 gpio_analog_pol[10] 0.00377146
2 *921:gpio_analog_pol[10] 0.00341262
3 *134:11 0.0360286
4 *134:9 0.0356697
5 gpio_analog_pol[10] gpio_dm0[10] 0.00252956
6 gpio_analog_pol[10] gpio_inp_dis[10] 0
7 gpio_analog_pol[10] *268:11 0
8 gpio_analog_pol[10] *311:11 0
9 *134:9 gpio_slow_sel[5] 0.000522584
10 *134:9 *135:9 0
11 *134:9 *176:9 0
12 *134:11 *138:11 0.0254436
13 *134:11 *179:11 0.128272
14 *134:11 *180:11 0
15 *134:11 *223:19 0.00653234
16 *134:11 *270:19 0.00653234
17 gpio_analog_en[10] gpio_analog_pol[10] 0.000275076
18 *130:11 *134:11 0.079661
*RES
1 *921:gpio_analog_pol[10] *134:9 7.359 
2 *134:9 *134:11 228.291 
3 *134:11 gpio_analog_pol[10] 12.547 
*END

*D_NET *135 0.383466
*CONN
*P gpio_analog_pol[11] O
*I *921:gpio_analog_pol[11] O *D CF_CARAVEL_SOC
*CAP
1 gpio_analog_pol[11] 0.00361591
2 *921:gpio_analog_pol[11] 0.00395801
3 *135:11 0.0384113
4 *135:9 0.0387534
5 gpio_analog_pol[11] gpio_dm0[11] 0
6 gpio_analog_pol[11] gpio_inp_dis[11] 0.00108472
7 *135:9 gpio_slow_sel[5] 0
8 *135:9 *136:9 0
9 *135:11 *136:11 0
10 *135:11 *175:11 0.0959691
11 *135:11 *180:11 0.144077
12 *135:11 *225:19 0.00596528
13 *135:11 *310:11 0.0294313
14 *135:11 *484:11 0.0221998
15 *134:9 *135:9 0
*RES
1 *921:gpio_analog_pol[11] *135:9 8.17473 
2 *135:9 *135:11 256.371 
3 *135:11 gpio_analog_pol[11] 8.96197 
*END

*D_NET *136 0.321799
*CONN
*P gpio_analog_pol[12] O
*I *921:gpio_analog_pol[12] O *D CF_CARAVEL_SOC
*CAP
1 gpio_analog_pol[12] 0.00286265
2 *921:gpio_analog_pol[12] 0.00436099
3 *136:11 0.0765136
4 *136:9 0.0780119
5 gpio_analog_pol[12] gpio_dm0[12] 0.00268353
6 gpio_analog_pol[12] gpio_inp_dis[12] 0.000271408
7 *136:9 *137:9 0
8 *136:9 *182:17 3.72619e-05
9 *136:11 *141:21 1.13848e-05
10 *136:11 *175:11 0
11 *136:11 *176:11 0.0657884
12 *136:11 *180:11 0
13 *136:11 *181:11 0
14 *136:11 *182:19 0.0059579
15 *136:11 *203:11 0.00250447
16 *136:11 *266:11 0.0288595
17 *136:11 *312:19 0.0059579
18 *136:11 *532:36 0.0312191
19 gpio_analog_en[12] gpio_analog_pol[12] 0.000587084
20 gpio_analog_en[5] *136:9 7.26905e-05
21 *129:11 *136:11 0.0160995
22 *135:9 *136:9 0
23 *135:11 *136:11 0
*RES
1 *921:gpio_analog_pol[12] *136:9 8.99047 
2 *136:9 *136:11 283.675 
3 *136:11 gpio_analog_pol[12] 11.9152 
*END

*D_NET *137 0.445422
*CONN
*P gpio_analog_pol[13] O
*I *921:gpio_analog_pol[13] O *D CF_CARAVEL_SOC
*CAP
1 gpio_analog_pol[13] 0.00210514
2 *921:gpio_analog_pol[13] 0.00478425
3 *137:11 0.0598478
4 *137:9 0.0625269
5 gpio_analog_pol[13] gpio_dm0[13] 0.00412751
6 gpio_analog_pol[13] gpio_inp_dis[13] 0.000458305
7 *137:9 gpio_inp_dis[5] 0.000175663
8 *137:9 *138:9 0
9 *137:9 *182:17 6.19175e-05
10 *137:11 *174:11 0.0791137
11 *137:11 *181:11 0.19119
12 *137:11 *224:19 0.0176086
13 *137:11 *321:63 0.0011818
14 *137:11 *327:39 0.00102783
15 *137:11 *481:11 0.00257803
16 *94:19 *137:11 0.0186353
17 *136:9 *137:9 0
*RES
1 *921:gpio_analog_pol[13] *137:9 9.92273 
2 *137:9 *137:11 339.92 
3 *137:11 gpio_analog_pol[13] 7.27983 
*END

*D_NET *138 0.403809
*CONN
*P gpio_analog_pol[14] O
*I *921:gpio_analog_pol[14] O *D CF_CARAVEL_SOC
*CAP
1 gpio_analog_pol[14] 0.00274276
2 *921:gpio_analog_pol[14] 0.00356804
3 *138:18 0
4 *138:11 0.0908583
5 *138:9 0.0916836
6 gpio_analog_pol[14] gpio_dm0[14] 0
7 gpio_analog_pol[14] gpio_inp_dis[14] 0.00589021
8 *138:9 *139:9 0
9 *138:11 *179:11 0.00328071
10 *138:11 *223:19 0
11 *138:11 *270:19 0
12 *138:11 *533:200 0
13 *138:11 *832:49 3.20897e-05
14 *93:11 *138:11 0.18031
15 *134:11 *138:11 0.0254436
16 *137:9 *138:9 0
*RES
1 *921:gpio_analog_pol[14] *138:9 7.38813 
2 *138:9 *138:11 2344.57 
3 *138:11 gpio_analog_pol[14] 9.51993 
4 gpio_analog_pol[14] *138:18 0.0556098 
*END

*D_NET *139 0.37006
*CONN
*P gpio_analog_pol[15] O
*I *921:gpio_analog_pol[15] O *D CF_CARAVEL_SOC
*CAP
1 gpio_analog_pol[15] 7.97879e-05
2 *921:gpio_analog_pol[15] 0.00411044
3 *139:19 0.109586
4 *139:17 0.113597
5 *139:11 0.00749145
6 *139:9 0.00751061
7 gpio_analog_pol[15] gpio_dm0[15] 0
8 gpio_analog_pol[15] gpio_inp_dis[15] 0
9 *139:9 gpio_analog_sel[5] 0.000735378
10 *139:9 *140:17 0
11 *139:9 *194:33 0
12 *139:11 *162:11 0.0114835
13 *139:11 *203:11 0.00420604
14 *139:11 *225:19 5.91497e-05
15 *139:11 *315:11 0.00447142
16 *139:11 *532:36 0
17 *139:17 *183:17 0.000792979
18 *139:17 *683:11 0
19 *139:17 *700:6 0.000345022
20 *139:17 *701:11 0.00844598
21 *139:17 *744:11 0.000147722
22 *139:19 *140:113 0
23 *139:19 *227:19 0
24 *139:19 *274:151 0.00303078
25 *139:19 *536:161 0.0197594
26 *139:19 *537:126 0.0426551
27 *139:19 *538:157 0.00349708
28 *95:17 *139:17 0.00879123
29 *112:11 *139:11 0.0192637
30 *138:9 *139:9 0
*RES
1 *921:gpio_analog_pol[15] *139:9 8.72827 
2 *139:9 *139:11 216.345 
3 *139:11 *139:17 19.0424 
4 *139:17 *139:19 2260.94 
5 *139:19 gpio_analog_pol[15] 1.35 
*END

*D_NET *140 0.384881
*CONN
*P gpio_analog_pol[16] O
*I *921:gpio_analog_pol[16] O *D CF_CARAVEL_SOC
*CAP
1 gpio_analog_pol[16] 0.0064156
2 *921:gpio_analog_pol[16] 0.000899362
3 *140:381 0.00986859
4 *140:369 0.00564844
5 *140:361 0.00538784
6 *140:347 0.00937327
7 *140:345 0.00711391
8 *140:339 0.00778996
9 *140:337 0.00718914
10 *140:331 0.00532444
11 *140:329 0.00572302
12 *140:323 0.00377191
13 *140:321 0.00591288
14 *140:313 0.00568699
15 *140:305 0.00581866
16 *140:283 0.014976
17 *140:281 0.0142896
18 *140:267 0.0258356
19 *140:265 0.0238434
20 *140:259 0.00408981
21 *140:257 0.00679115
22 *140:237 0.00569354
23 *140:229 0.00404661
24 *140:221 0.00531384
25 *140:199 0.00768463
26 *140:197 0.00410976
27 *140:191 0.00380865
28 *140:189 0.00461897
29 *140:179 0.00452943
30 *140:165 0.00498744
31 *140:157 0.00501881
32 *140:131 0.00714214
33 *140:129 0.00508885
34 *140:121 0.00405826
35 *140:113 0.00515974
36 *140:95 0.0131292
37 *140:93 0.0132045
38 *140:81 0.0063925
39 *140:71 0.00673905
40 *140:57 0.00409977
41 *140:43 0.00197782
42 *140:41 0.00296376
43 *140:29 0.00292685
44 *140:25 0.00135561
45 *140:17 0.00155311
46 gpio_analog_pol[16] gpio_dm0[16] 0
47 gpio_analog_pol[16] gpio_inp_dis[16] 0
48 *140:17 *141:21 0
49 *140:17 *194:33 4.21127e-05
50 *140:17 *204:9 0.00241322
51 *140:17 *204:15 9.50342e-06
52 *140:17 *327:29 0.00177318
53 *140:25 *204:15 0.000520913
54 *140:25 *204:17 0.000992685
55 *140:25 *787:49 5.83121e-06
56 *140:29 *142:11 1.94684e-05
57 *140:29 *149:33 0.000352688
58 *140:29 *149:35 4.32799e-05
59 *140:29 *164:15 0.00315995
60 *140:29 *167:13 0.00238912
61 *140:29 *167:15 0.000754847
62 *140:29 *193:33 0.00058426
63 *140:41 *392:47 8.9035e-05
64 *140:41 *572:28 0.000114662
65 *140:41 *672:15 0.00107494
66 *140:41 *683:15 0.00107327
67 *140:43 *226:11 0.000992564
68 *140:57 *570:26 0.00141188
69 *140:57 *661:19 0.00141022
70 *140:71 *195:15 0
71 *140:71 *242:25 7.27402e-06
72 *140:71 *279:11 0.00057718
73 *140:71 *316:11 0.00231939
74 *140:71 *319:11 0.00232105
75 *140:71 *326:19 0.000608589
76 *140:71 *329:58 0
77 *140:71 *437:31 0.000641572
78 *140:71 *789:23 0.00126346
79 *140:71 *831:41 0
80 *140:81 *143:15 0.000940719
81 *140:81 *157:39 0.000241851
82 *140:81 *195:29 0
83 *140:81 *316:15 0
84 *140:81 *753:19 0.000540263
85 *140:93 *189:15 0.000205247
86 *140:93 *319:15 0.00021841
87 *140:113 *191:15 0.000217286
88 *140:113 *234:15 0.000214829
89 *140:113 *279:15 0.000545821
90 *140:113 *537:126 0
91 *140:129 *403:19 0
92 *140:129 *799:19 0.00103416
93 *140:131 *667:15 0
94 *140:157 *157:43 0
95 *140:165 *790:15 0.00134135
96 *140:179 *702:13 0.000659567
97 *140:179 *834:15 0
98 *140:189 *323:15 0.000217141
99 *140:221 *747:11 0
100 *140:229 *154:13 0.000177498
101 *140:229 *198:31 0
102 *140:257 *537:142 0
103 *140:265 *197:15 0
104 *140:281 *752:15 0.000908647
105 *140:329 *235:15 0
106 *140:329 *665:11 0.00043893
107 *140:361 *318:15 0.000996772
108 *140:361 *402:15 0.000146414
109 *140:381 *536:225 0
110 *92:11 *140:57 0.000287721
111 *95:19 *140:95 0.027929
112 *105:31 *140:361 0.000148871
113 *106:11 *140:43 0.00484145
114 *109:21 *140:17 0.000129951
115 *110:11 *140:43 0.00484145
116 *113:23 *140:157 0.000831618
117 *116:27 *140:17 0.000120924
118 *116:27 *140:25 0.00193876
119 *117:35 *140:71 0.000448088
120 *139:9 *140:17 0
121 *139:19 *140:113 0
*RES
1 *921:gpio_analog_pol[16] *140:17 33.498 
2 *140:17 *140:25 29.4475 
3 *140:25 *140:29 44.435 
4 *140:29 *140:41 47.28 
5 *140:41 *140:43 53.655 
6 *140:43 *140:57 38.36 
7 *140:57 *140:71 49.5067 
8 *140:71 *140:81 49.577 
9 *140:81 *140:93 33.9589 
10 *140:93 *140:95 310.185 
11 *140:95 *140:113 23.426 
12 *140:113 *140:121 42.817 
13 *140:121 *140:129 28.027 
14 *140:129 *140:131 67.425 
15 *140:131 *140:157 44.2259 
16 *140:157 *140:165 24.4858 
17 *140:165 *140:179 49.7397 
18 *140:179 *140:189 18.8953 
19 *140:189 *140:191 61.815 
20 *140:191 *140:197 1.912 
21 *140:197 *140:199 67.935 
22 *140:199 *140:221 48.6105 
23 *140:221 *140:229 22.8105 
24 *140:229 *140:237 39.101 
25 *140:237 *140:257 41.6147 
26 *140:257 *140:259 67.425 
27 *140:259 *140:265 1.912 
28 *140:265 *140:267 423.915 
29 *140:267 *140:281 31.833 
30 *140:281 *140:283 216.345 
31 *140:283 *140:305 42.156 
32 *140:305 *140:313 39.101 
33 *140:313 *140:321 43.837 
34 *140:321 *140:323 54.675 
35 *140:323 *140:329 3.66 
36 *140:329 *140:331 90.375 
37 *140:331 *140:337 1.912 
38 *140:337 *140:339 124.545 
39 *140:339 *140:345 3.66 
40 *140:345 *140:347 111.285 
41 *140:347 *140:361 41.085 
42 *140:361 *140:369 28.7989 
43 *140:369 *140:381 48.23 
44 *140:381 gpio_analog_pol[16] 27.0476 
*END

*D_NET *141 0.623456
*CONN
*P gpio_analog_pol[17] O
*I *921:gpio_analog_pol[17] O *D CF_CARAVEL_SOC
*CAP
1 gpio_analog_pol[17] 0.000585716
2 *921:gpio_analog_pol[17] 0.00954887
3 *141:31 0.132513
4 *141:29 0.177298
5 *141:21 0.054919
6 gpio_analog_pol[17] gpio_dm0[17] 0
7 gpio_analog_pol[17] gpio_inp_dis[17] 0
8 *141:21 gpio_out[5] 0.000661351
9 *141:21 *175:11 0.000146551
10 *141:21 *180:11 0.0084306
11 *141:21 *194:33 0
12 *141:21 *203:11 0.000150934
13 *141:21 *205:53 0.00053513
14 *141:21 *223:19 0.00414368
15 *141:21 *246:11 0.00369807
16 *141:21 *270:19 0.00369807
17 *141:21 *788:19 0.000562698
18 *141:21 *831:81 0.00348609
19 *141:29 gpio_dm0[17] 0.000286457
20 *141:29 *203:15 0.0176116
21 *141:29 *205:53 0.0146802
22 *141:29 *227:17 0.00125261
23 *141:29 *228:25 0.0141917
24 *141:29 *230:25 4.64509e-05
25 *141:29 *286:39 0.00621825
26 *141:29 *328:59 0.000305444
27 *141:29 *391:15 0.00705155
28 *141:29 *689:11 0.0119767
29 *141:29 *691:11 0.0138309
30 *141:29 *745:11 0.0176595
31 *141:29 *831:31 0.0023533
32 *141:29 *832:39 0.0161597
33 *141:31 gpio_dm0[17] 0.0548592
34 *103:11 *141:21 0.0040052
35 *114:23 *141:29 0.0174028
36 *115:11 *141:21 0.00372702
37 *117:39 *141:29 0.00750279
38 *130:11 *141:21 0.0119458
39 *136:11 *141:21 1.13848e-05
40 *140:17 *141:21 0
*RES
1 *921:gpio_analog_pol[17] *141:21 46.3431 
2 *141:21 *141:29 19.656 
3 *141:29 *141:31 371.503 
4 *141:31 gpio_analog_pol[17] 10.3579 
*END

*D_NET *142 0.525475
*CONN
*P gpio_analog_pol[18] O
*I *921:gpio_analog_pol[18] O *D CF_CARAVEL_SOC
*CAP
1 gpio_analog_pol[18] 0.124943
2 *921:gpio_analog_pol[18] 0.00061343
3 *142:17 0.124943
4 *142:15 0.0244714
5 *142:13 0.0244714
6 *142:11 0.00347582
7 *142:9 0.00408925
8 gpio_analog_pol[18] gpio_dm0[18] 0
9 gpio_analog_pol[18] gpio_inp_dis[18] 0
10 gpio_analog_pol[18] *538:409 0
11 *142:9 *143:9 0
12 *142:9 *334:6 0.000229581
13 *142:11 *143:11 0.0185271
14 *142:11 *149:35 0
15 *142:11 *156:11 0.00236298
16 *142:11 *164:15 0.00708984
17 *142:11 *193:9 0
18 *142:11 *193:33 0.0115085
19 *142:11 *321:41 0.000717383
20 *142:15 *184:15 0.0503569
21 *142:15 *227:17 0.00117077
22 *142:15 *689:11 0.00630106
23 *98:15 *142:15 0.106944
24 *99:15 *142:15 0.000322409
25 *114:23 *142:15 0.0129194
26 *140:29 *142:11 1.94684e-05
*RES
1 *921:gpio_analog_pol[18] *142:9 1.49813 
2 *142:9 *142:11 212.137 
3 *142:11 *142:13 2 
4 *142:13 *142:15 970.245 
5 *142:15 *142:17 2 
6 *142:17 gpio_analog_pol[18] 2251.83 
*END

*D_NET *143 0.509106
*CONN
*P gpio_analog_pol[19] O
*I *921:gpio_analog_pol[19] O *D CF_CARAVEL_SOC
*CAP
1 gpio_analog_pol[19] 0.122795
2 *921:gpio_analog_pol[19] 0.000561044
3 *143:17 0.122795
4 *143:15 0.0673556
5 *143:13 0.0673556
6 *143:11 0.00463026
7 *143:9 0.0051913
8 gpio_analog_pol[19] gpio_dm0[19] 0
9 gpio_analog_pol[19] gpio_inp_dis[19] 0
10 gpio_analog_pol[19] *759:19 0
11 *143:9 *145:9 5.63923e-05
12 *143:9 *334:6 0.000229581
13 *143:11 *145:11 0.0214102
14 *143:11 *149:33 0.000103019
15 *143:11 *149:35 0
16 *143:11 *156:11 0.0022717
17 *143:11 *193:9 9.58851e-05
18 *143:11 *321:41 0.000496578
19 *143:15 *145:15 0
20 *143:15 *185:15 0.0742909
21 *143:15 *316:15 0
22 *140:81 *143:15 0.000940719
23 *142:9 *143:9 0
24 *142:11 *143:11 0.0185271
*RES
1 *921:gpio_analog_pol[19] *143:9 1.43987 
2 *143:9 *143:11 243.375 
3 *143:11 *143:13 0.5 
4 *143:13 *143:15 228.327 
5 *143:15 *143:17 0.5 
6 *143:17 gpio_analog_pol[19] 2216.51 
*END

*D_NET *144 0.128987
*CONN
*P gpio_analog_pol[1] O
*I *921:gpio_analog_pol[1] O *D CF_CARAVEL_SOC
*CAP
1 gpio_analog_pol[1] 0.00332932
2 *921:gpio_analog_pol[1] 0.00331983
3 *144:19 0.0072287
4 *144:17 0.00418163
5 *144:11 0.0195137
6 *144:9 0.0225513
7 gpio_analog_pol[1] gpio_dm0[1] 0
8 gpio_analog_pol[1] gpio_inp_dis[1] 0.00551678
9 *144:9 *155:9 0
10 *144:11 gpio_dm2[2] 3.77439e-05
11 *144:11 *170:11 0.00121507
12 *144:11 *179:11 0.0053671
13 *144:11 *207:19 0.00403619
14 *144:11 *247:11 0.00525126
15 *144:11 *254:11 0.00602502
16 *144:11 *308:11 0.00162654
17 *144:11 *342:11 0.000205283
18 *144:11 *430:27 0.00178108
19 *144:11 *530:113 0.00119303
20 *144:11 *562:123 0.00176265
21 *144:17 gpio_dm2[2] 0.000299627
22 *144:17 *326:9 0
23 *144:19 *223:19 0.00147817
24 *144:19 *246:11 0.00386545
25 *144:19 *254:11 0.0010331
26 *144:19 *270:19 0.00346828
27 *144:19 *342:11 0.00102312
28 *144:19 *567:18 0.00710395
29 *90:11 *144:11 0.0125089
30 *98:11 *144:11 0.0040642
31 *130:11 *144:11 0
32 *133:9 *144:9 0
*RES
1 *921:gpio_analog_pol[1] *144:9 6.89287 
2 *144:9 *144:11 75.0601 
3 *144:11 *144:17 1.70807 
4 *144:17 *144:19 181.665 
5 *144:19 gpio_analog_pol[1] 9.47877 
*END

*D_NET *145 0.488875
*CONN
*P gpio_analog_pol[20] O
*I *921:gpio_analog_pol[20] O *D CF_CARAVEL_SOC
*CAP
1 gpio_analog_pol[20] 9.87705e-05
2 *921:gpio_analog_pol[20] 0.000264641
3 *145:19 0.12256
4 *145:17 0.122461
5 *145:15 0.0946175
6 *145:13 0.0946175
7 *145:11 0.00413604
8 *145:9 0.00440068
9 gpio_analog_pol[20] gpio_dm0[20] 0
10 gpio_analog_pol[20] gpio_inp_dis[20] 0
11 gpio_analog_pol[20] *541:135 0
12 *145:9 *193:31 9.83261e-05
13 *145:9 *334:34 0.000115792
14 *145:11 *146:15 0.000633119
15 *145:11 *147:11 1.89325e-05
16 *145:11 *147:13 0.0188006
17 *145:11 *148:11 0.000132997
18 *145:11 *149:33 0.00161736
19 *145:11 *149:35 0
20 *145:11 *156:11 0.0022717
21 *145:11 *193:9 2.67006e-05
22 *145:11 *204:9 0
23 *145:11 *334:34 0.000536869
24 *145:15 *185:15 0
25 *145:15 *330:25 0
26 *145:19 gpio_dm0[20] 0
27 *145:19 *233:19 0
28 *145:19 *541:135 0
29 *143:9 *145:9 5.63923e-05
30 *143:11 *145:11 0.0214102
31 *143:15 *145:15 0
*RES
1 *921:gpio_analog_pol[20] *145:9 1.1232 
2 *145:9 *145:11 245.925 
3 *145:11 *145:13 0.5 
4 *145:13 *145:15 260.898 
5 *145:15 *145:17 0.5 
6 *145:17 *145:19 2210.45 
7 *145:19 gpio_analog_pol[20] 1.35 
*END

*D_NET *146 0.560201
*CONN
*P gpio_analog_pol[21] O
*I *921:gpio_analog_pol[21] O *D CF_CARAVEL_SOC
*CAP
1 gpio_analog_pol[21] 9.87705e-05
2 *921:gpio_analog_pol[21] 0.00073091
3 *146:25 0.0744589
4 *146:23 0.0743602
5 *146:21 0.105929
6 *146:19 0.105929
7 *146:17 0.00826221
8 *146:15 0.00899312
9 gpio_analog_pol[21] gpio_dm0[21] 0
10 gpio_analog_pol[21] gpio_inp_dis[21] 0
11 gpio_analog_pol[21] *542:55 0
12 *146:15 *147:11 0.00234037
13 *146:15 *148:11 0.000106321
14 *146:15 *149:33 0.00161903
15 *146:15 *204:9 0.000205523
16 *146:15 *334:34 0.000205464
17 *146:17 *147:13 0.0449434
18 *146:17 *148:11 0.00252664
19 *146:17 *149:35 0
20 *146:17 *151:9 6.96551e-05
21 *146:17 *154:9 0.0470572
22 *146:21 *538:241 0.00253624
23 *146:25 gpio_dm0[21] 0
24 *146:25 *234:19 0
25 *146:25 *542:55 0
26 *146:25 *670:7 0.0721605
27 *109:27 *146:17 0.00703467
28 *145:11 *146:15 0.000633119
*RES
1 *921:gpio_analog_pol[21] *146:15 36.287 
2 *146:15 *146:17 527.062 
3 *146:17 *146:19 0.5 
4 *146:19 *146:21 293.352 
5 *146:21 *146:23 0.5 
6 *146:23 *146:25 1894.76 
7 *146:25 gpio_analog_pol[21] 1.35 
*END

*D_NET *147 0.810275
*CONN
*P gpio_analog_pol[22] O
*I *921:gpio_analog_pol[22] O *D CF_CARAVEL_SOC
*CAP
1 gpio_analog_pol[22] 0.106473
2 *921:gpio_analog_pol[22] 0.000657528
3 *147:19 0.106473
4 *147:17 0.0288921
5 *147:15 0.0288921
6 *147:13 0.0134128
7 *147:11 0.0140703
8 gpio_analog_pol[22] gpio_dm0[22] 0
9 gpio_analog_pol[22] gpio_inp_dis[22] 0
10 gpio_analog_pol[22] *543:47 0
11 gpio_analog_pol[22] *709:7 0
12 *147:11 *148:11 0
13 *147:11 *151:9 0.000937778
14 *147:11 *204:9 0.000738044
15 *147:11 *204:15 0.000409922
16 *147:11 *329:52 5.19633e-06
17 *147:13 *148:11 0.000142915
18 *147:13 *149:35 0
19 *147:13 *151:9 8.77495e-06
20 *147:13 *156:11 0.00927479
21 *147:17 *679:13 0.0133137
22 *147:17 *720:9 0
23 *102:23 *147:17 0.199134
24 *103:15 *147:17 0.221337
25 *145:11 *147:11 1.89325e-05
26 *145:11 *147:13 0.0188006
27 *146:15 *147:11 0.00234037
28 *146:17 *147:13 0.0449434
*RES
1 *921:gpio_analog_pol[22] *147:11 28.4562 
2 *147:11 *147:13 501.945 
3 *147:13 *147:15 0.5 
4 *147:15 *147:17 325.982 
5 *147:17 *147:19 0.5 
6 *147:19 gpio_analog_pol[22] 1921.22 
*END

*D_NET *148 0.724364
*CONN
*P gpio_analog_pol[23] O
*I *921:gpio_analog_pol[23] O *D CF_CARAVEL_SOC
*CAP
1 gpio_analog_pol[23] 0.00208018
2 *921:gpio_analog_pol[23] 0.00679765
3 *148:17 0.123709
4 *148:15 0.121629
5 *148:13 0.079891
6 *148:11 0.0866886
7 gpio_analog_pol[23] gpio_dm0[23] 0
8 gpio_analog_pol[23] gpio_inp_dis[23] 0
9 *148:11 *149:33 0.000152616
10 *148:11 *150:19 0.0014738
11 *148:11 *154:9 0.00212379
12 *148:11 *156:11 0.00995144
13 *148:11 *164:15 0.000125189
14 *148:11 *193:31 0
15 *148:11 *205:27 9.97051e-05
16 *148:11 *321:41 5.23758e-05
17 *148:11 *327:29 3.49615e-05
18 *148:11 *329:52 4.1436e-07
19 *148:11 *334:34 0.00127398
20 *148:13 *230:25 0.00710908
21 *148:13 *290:15 0.244148
22 *148:13 *330:23 0
23 *148:13 *361:17 0.000927423
24 *148:13 *361:33 0.0133483
25 *148:13 *394:15 0
26 *148:13 *440:29 0
27 *148:13 *730:19 0
28 *148:17 *236:19 0
29 *148:17 *539:253 0
30 *148:17 *544:33 0
31 *109:25 *148:11 0.0198398
32 *145:11 *148:11 0.000132997
33 *146:15 *148:11 0.000106321
34 *146:17 *148:11 0.00252664
35 *147:11 *148:11 0
36 *147:13 *148:11 0.000142915
*RES
1 *921:gpio_analog_pol[23] *148:11 37.423 
2 *148:11 *148:13 358.407 
3 *148:13 *148:15 0.5 
4 *148:15 *148:17 2196.72 
5 *148:17 gpio_analog_pol[23] 36.0975 
*END

*D_NET *149 0.56292
*CONN
*P gpio_analog_pol[24] O
*I *921:gpio_analog_pol[24] O *D CF_CARAVEL_SOC
*CAP
1 gpio_analog_pol[24] 0.00252984
2 *921:gpio_analog_pol[24] 0.00265007
3 *149:39 0.142946
4 *149:37 0.140416
5 *149:35 0.120748
6 *149:33 0.123398
7 gpio_analog_pol[24] gpio_dm0[24] 0
8 gpio_analog_pol[24] gpio_inp_dis[24] 0
9 gpio_analog_pol[24] *193:63 0
10 gpio_analog_pol[24] *325:167 0.00149694
11 *149:33 *153:25 1.04108e-05
12 *149:33 *156:11 0.0034748
13 *149:33 *164:15 0.000618132
14 *149:33 *165:9 7.94968e-05
15 *149:33 *167:13 0.000276917
16 *149:33 *167:15 0.00033831
17 *149:33 *193:31 0.00140131
18 *149:33 *285:11 6.45983e-05
19 *149:33 *327:29 4.57283e-05
20 *149:35 *151:9 0
21 *149:35 *154:9 0
22 *149:35 *156:11 0.00938036
23 *149:35 *167:13 5.10462e-05
24 *149:35 *193:33 0.00464007
25 *149:35 *197:11 0
26 *149:35 *285:11 0.00446496
27 *149:39 *446:7 0
28 *105:31 gpio_analog_pol[24] 0
29 *140:29 *149:33 0.000352688
30 *140:29 *149:35 4.32799e-05
31 *142:11 *149:35 0
32 *143:11 *149:33 0.000103019
33 *143:11 *149:35 0
34 *145:11 *149:33 0.00161736
35 *145:11 *149:35 0
36 *146:15 *149:33 0.00161903
37 *146:17 *149:35 0
38 *147:13 *149:35 0
39 *148:11 *149:33 0.000152616
*RES
1 *921:gpio_analog_pol[24] *149:33 37.8209 
2 *149:33 *149:35 2211.98 
3 *149:35 *149:37 0.5 
4 *149:37 *149:39 385.472 
5 *149:39 gpio_analog_pol[24] 46.4535 
*END

*D_NET *150 0.58125
*CONN
*P gpio_analog_pol[25] O
*I *921:gpio_analog_pol[25] O *D CF_CARAVEL_SOC
*CAP
1 gpio_analog_pol[25] 8.48453e-05
2 *921:gpio_analog_pol[25] 0.00302239
3 *150:31 0.140159
4 *150:29 0.140074
5 *150:27 0.056497
6 *150:25 0.0567785
7 *150:19 0.00419518
8 *150:17 0.00598905
9 *150:11 0.0032919
10 *150:9 0.00423893
11 *150:11 *288:53 0.00206483
12 *150:11 *683:15 0.00182663
13 *150:17 *169:9 0.000733733
14 *150:17 *170:9 0.000572584
15 *150:17 *788:49 0.00200504
16 *150:19 *152:19 0.00476198
17 *150:19 *204:21 0.00389214
18 *150:19 *241:19 0.00698445
19 *150:19 *330:13 0
20 *150:19 *831:61 0.00284441
21 *150:25 *186:15 9.73162e-05
22 *150:25 *330:25 4.43977e-05
23 *150:27 *152:27 0.106176
24 *150:27 *242:27 0
25 *150:27 *281:19 0.0156451
26 *150:27 *281:27 0
27 *150:27 *326:31 0.00830251
28 *150:31 gpio_dm0[25] 0.000602932
29 *150:31 gpio_inp_dis[25] 0
30 *150:31 *274:267 0
31 *102:11 *150:11 0.0011578
32 *106:23 *150:31 0
33 *109:25 *150:19 0.000668714
34 *110:11 *150:11 0.00628433
35 *116:41 *150:19 0.000781906
36 *148:11 *150:19 0.0014738
*RES
1 *921:gpio_analog_pol[25] *150:9 6.13413 
2 *150:9 *150:11 69.975 
3 *150:11 *150:17 6.4568 
4 *150:17 *150:19 163.305 
5 *150:19 *150:25 1.76633 
6 *150:25 *150:27 243.968 
7 *150:27 *150:29 0.5 
8 *150:29 *150:31 384.637 
9 *150:31 gpio_analog_pol[25] 0.243833 
*END

*D_NET *151 0.546047
*CONN
*P gpio_analog_pol[26] O
*I *921:gpio_analog_pol[26] O *D CF_CARAVEL_SOC
*CAP
1 gpio_analog_pol[26] 0.000425639
2 *921:gpio_analog_pol[26] 0.00011646
3 *151:13 0.141178
4 *151:11 0.140752
5 *151:9 0.0499528
6 *151:7 0.0500692
7 gpio_analog_pol[26] gpio_dm0[26] 0.000199873
8 gpio_analog_pol[26] gpio_inp_dis[26] 0
9 gpio_analog_pol[26] *459:13 0.000710493
10 *151:7 *334:34 4.88577e-05
11 *151:9 *154:9 0.0903793
12 *151:9 *157:17 0.0028422
13 *151:9 *204:15 0.000206873
14 *151:9 *204:17 0.00101149
15 *151:9 *204:21 0.0100227
16 *151:9 *241:19 0.0265411
17 *151:13 gpio_analog_sel[26] 0
18 *109:25 *151:9 0.00275284
19 *109:27 *151:9 0.0278208
20 *146:17 *151:9 6.96551e-05
21 *147:11 *151:9 0.000937778
22 *147:13 *151:9 8.77495e-06
23 *149:35 *151:9 0
*RES
1 *921:gpio_analog_pol[26] *151:7 0.722933 
2 *151:7 *151:9 1505.37 
3 *151:9 *151:11 0.5 
4 *151:11 *151:13 385.239 
5 *151:13 gpio_analog_pol[26] 9.56672 
*END

*D_NET *152 0.571901
*CONN
*P gpio_analog_pol[27] O
*I *921:gpio_analog_pol[27] O *D CF_CARAVEL_SOC
*CAP
1 gpio_analog_pol[27] 0.00249341
2 *921:gpio_analog_pol[27] 0.00236666
3 *152:31 0.140958
4 *152:29 0.138465
5 *152:27 0.0218292
6 *152:25 0.02196
7 *152:19 0.00264618
8 *152:17 0.0041416
9 *152:11 0.00294057
10 *152:9 0.00368101
11 gpio_analog_pol[27] gpio_dm0[27] 0
12 gpio_analog_pol[27] gpio_inp_dis[27] 0.000459696
13 *152:9 *153:25 0
14 *152:9 *193:31 0
15 *152:9 *321:41 0
16 *152:9 *329:52 0.000206859
17 *152:11 *160:11 0.00333924
18 *152:11 *534:15 0.00248092
19 *152:17 *153:25 0.000161359
20 *152:17 *170:9 0.00127155
21 *152:19 *332:13 0.00114195
22 *152:19 *333:11 0.0087626
23 *152:19 *334:34 0.00178415
24 *152:19 *831:61 0.00203503
25 *152:25 *273:15 0.000337719
26 *152:25 *332:19 0.000262737
27 *152:27 *153:27 1.00725e-05
28 *152:27 *241:27 0.0484056
29 *152:27 *242:27 0
30 *152:27 *333:19 0.0459925
31 gpio_analog_en[27] gpio_analog_pol[27] 0
32 *91:11 *152:11 0.000968789
33 *107:11 *152:11 0.00139796
34 *108:15 *152:31 0
35 *109:27 *152:27 0
36 *116:41 *152:19 0.000462664
37 *150:19 *152:19 0.00476198
38 *150:27 *152:27 0.106176
*RES
1 *921:gpio_analog_pol[27] *152:9 4.7332 
2 *152:9 *152:11 64.365 
3 *152:11 *152:17 5.00013 
4 *152:17 *152:19 123.525 
5 *152:19 *152:25 1.53327 
6 *152:25 *152:27 195.044 
7 *152:27 *152:29 0.5 
8 *152:29 *152:31 380.403 
9 *152:31 gpio_analog_pol[27] 4.99003 
*END

*D_NET *153 0.622651
*CONN
*P gpio_analog_pol[28] O
*I *921:gpio_analog_pol[28] O *D CF_CARAVEL_SOC
*CAP
1 gpio_analog_pol[28] 0.00223222
2 *921:gpio_analog_pol[28] 0.00683179
3 *153:31 0.0889618
4 *153:29 0.0867296
5 *153:27 0.0359944
6 *153:25 0.0428262
7 gpio_analog_pol[28] gpio_dm0[28] 0.000635782
8 gpio_analog_pol[28] gpio_inp_dis[28] 0
9 *153:25 *154:7 4.01729e-05
10 *153:25 *156:11 0.000163543
11 *153:25 *168:9 0.000220895
12 *153:25 *193:31 7.76302e-05
13 *153:25 *279:11 0.00461078
14 *153:25 *285:11 0.00123925
15 *153:25 *316:11 0.000211314
16 *153:25 *329:52 0.000262458
17 *153:25 *483:11 0.000321966
18 *153:27 *157:37 0.00450601
19 *153:27 *163:19 0.00159475
20 *153:27 *241:27 0.0285286
21 *153:27 *330:13 0.00188695
22 *153:27 *330:23 0.0019346
23 *153:27 *332:13 0.0017857
24 *153:27 *333:11 0.00199676
25 *153:27 *333:19 0.0271849
26 *153:27 *334:34 0.012546
27 *153:31 gpio_dm0[28] 0.000723462
28 *153:31 *241:31 0.254749
29 *153:31 *538:305 0.000322907
30 *91:11 *153:25 0
31 *109:25 *153:27 0.000665513
32 *109:27 *153:27 0.0124393
33 *109:31 *153:31 0
34 *116:41 *153:25 0
35 *117:11 *153:25 0.000244804
36 *149:33 *153:25 1.04108e-05
37 *152:9 *153:25 0
38 *152:17 *153:25 0.000161359
39 *152:27 *153:27 1.00725e-05
*RES
1 *921:gpio_analog_pol[28] *153:25 20.0446 
2 *153:25 *153:27 188.412 
3 *153:27 *153:29 0.5 
4 *153:29 *153:31 380.752 
5 *153:31 gpio_analog_pol[28] 4.76203 
*END

*D_NET *154 0.488385
*CONN
*P gpio_analog_pol[29] O
*I *921:gpio_analog_pol[29] O *D CF_CARAVEL_SOC
*CAP
1 gpio_analog_pol[29] 0.000445104
2 *921:gpio_analog_pol[29] 0.000163809
3 *154:13 0.141842
4 *154:11 0.141397
5 *154:9 0.0243512
6 *154:7 0.024515
7 gpio_analog_pol[29] gpio_dm0[29] 0.000207737
8 gpio_analog_pol[29] gpio_inp_dis[29] 0
9 gpio_analog_pol[29] *459:13 0.000757173
10 *154:13 gpio_inp_dis[29] 0
11 *109:27 *154:9 0.0149273
12 *140:229 *154:13 0.000177498
13 *146:17 *154:9 0.0470572
14 *148:11 *154:9 0.00212379
15 *149:35 *154:9 0
16 *151:9 *154:9 0.0903793
17 *153:25 *154:7 4.01729e-05
*RES
1 *921:gpio_analog_pol[29] *154:7 0.7812 
2 *154:7 *154:9 1006.59 
3 *154:9 *154:11 0.5 
4 *154:11 *154:13 385.297 
5 *154:13 gpio_analog_pol[29] 10.1067 
*END

*D_NET *155 0.119852
*CONN
*P gpio_analog_pol[2] O
*I *921:gpio_analog_pol[2] O *D CF_CARAVEL_SOC
*CAP
1 gpio_analog_pol[2] 0.00427844
2 *921:gpio_analog_pol[2] 0.00395206
3 *155:11 0.0208039
4 *155:9 0.0204775
5 gpio_analog_pol[2] gpio_dm0[2] 0
6 gpio_analog_pol[2] gpio_inp_dis[2] 0.001627
7 *155:9 *166:9 0
8 *155:11 *180:11 0.0130442
9 *155:11 *188:11 0.0261816
10 *155:11 *216:13 0
11 *155:11 *304:11 0.0101588
12 *155:11 *310:11 0.00578584
13 *155:11 *342:11 0
14 *155:11 *444:11 0.00512742
15 *155:11 *484:11 0.00702631
16 gpio_analog_en[2] *155:11 0.000755455
17 *115:11 *155:11 0.00063334
18 *130:11 *155:11 0
19 *144:9 *155:9 0
*RES
1 *921:gpio_analog_pol[2] *155:9 8.17473 
2 *155:9 *155:11 77.558 
3 *155:11 gpio_analog_pol[2] 9.29763 
*END

*D_NET *156 0.43831
*CONN
*P gpio_analog_pol[30] O
*I *921:gpio_analog_pol[30] O *D CF_CARAVEL_SOC
*CAP
1 gpio_analog_pol[30] 0.00121199
2 *921:gpio_analog_pol[30] 0.000526597
3 *156:15 0.14074
4 *156:13 0.139528
5 *156:11 0.0361285
6 *156:9 0.0366551
7 gpio_analog_pol[30] gpio_dm0[30] 6.4139e-05
8 gpio_analog_pol[30] gpio_inp_dis[30] 0.000300661
9 gpio_analog_pol[30] *447:17 0
10 gpio_analog_pol[30] *548:23 0.000225955
11 *156:9 *787:49 0
12 *156:11 *193:33 0.00203008
13 *156:11 *285:11 0
14 *156:15 gpio_inp_dis[30] 0.00503482
15 *156:15 *538:265 0
16 *109:25 *156:11 0.000906853
17 *109:27 *156:11 0.0358065
18 *112:31 *156:15 0
19 *142:11 *156:11 0.00236298
20 *143:11 *156:11 0.0022717
21 *145:11 *156:11 0.0022717
22 *147:13 *156:11 0.00927479
23 *148:11 *156:11 0.00995144
24 *149:33 *156:11 0.0034748
25 *149:35 *156:11 0.00938036
26 *153:25 *156:11 0.000163543
*RES
1 *921:gpio_analog_pol[30] *156:9 1.23847 
2 *156:9 *156:11 142.589 
3 *156:11 *156:13 0.5 
4 *156:13 *156:15 383.695 
5 *156:15 gpio_analog_pol[30] 6.0243 
*END

*D_NET *157 0.403128
*CONN
*P gpio_analog_pol[31] O
*I *921:gpio_analog_pol[31] O *D CF_CARAVEL_SOC
*CAP
1 gpio_analog_pol[31] 0.00263853
2 *921:gpio_analog_pol[31] 0.00120986
3 *157:43 0.141129
4 *157:41 0.138491
5 *157:39 0.0238341
6 *157:37 0.0267718
7 *157:17 0.00414757
8 gpio_analog_pol[31] gpio_dm0[31] 0
9 gpio_analog_pol[31] gpio_inp_dis[31] 0.000132389
10 *157:17 *204:17 0.0028422
11 *157:17 *288:53 2.77165e-05
12 *157:17 *334:34 0.000206859
13 *157:17 *787:49 4.44588e-05
14 *157:37 *158:22 0.00860144
15 *157:37 *161:15 0.000527652
16 *157:37 *163:19 0.000153582
17 *157:37 *328:51 0.000199423
18 *157:37 *329:56 0.000555883
19 *157:37 *329:58 0
20 *157:37 *330:13 0.000181633
21 *157:37 *333:19 1.66367e-05
22 *157:37 *334:34 5.41028e-05
23 *157:37 *392:45 0.000215907
24 *157:37 *436:23 0.00013827
25 *157:37 *694:6 0.000524676
26 *157:37 *831:43 0.00118536
27 *157:39 *195:29 6.22804e-06
28 *157:39 *195:31 0.0206743
29 *157:39 *198:27 0
30 *157:39 *753:19 0.0107483
31 *157:39 *754:27 0.00865379
32 *109:25 *157:17 0.000158482
33 *113:23 gpio_analog_pol[31] 0
34 *116:41 *157:37 0
35 *117:33 *157:37 0.00146701
36 *140:81 *157:39 0.000241851
37 *140:157 *157:43 0
38 *151:9 *157:17 0.0028422
39 *153:27 *157:37 0.00450601
*RES
1 *921:gpio_analog_pol[31] *157:17 40.5282 
2 *157:17 *157:37 37.6221 
3 *157:37 *157:39 90.1335 
4 *157:39 *157:41 0.5 
5 *157:41 *157:43 378.888 
6 *157:43 gpio_analog_pol[31] 4.85323 
*END

*D_NET *158 0.651551
*CONN
*P gpio_analog_pol[32] O
*I *921:gpio_analog_pol[32] O *D CF_CARAVEL_SOC
*CAP
1 gpio_analog_pol[32] 0.000110944
2 *921:gpio_analog_pol[32] 0.00487948
3 *158:32 0.013426
4 *158:30 0.0155827
5 *158:24 0.03095
6 *158:22 0.0335619
7 *158:22 *196:27 0
8 *158:22 *205:27 0.00191082
9 *158:22 *242:27 0
10 *158:22 *328:51 0.0027633
11 *158:22 *328:53 0.00168004
12 *158:22 *329:56 0.00114464
13 *158:22 *329:58 0.000108757
14 *158:22 *330:13 0.000564263
15 *158:22 *333:19 0.00104578
16 *158:22 *334:34 0
17 *158:22 *831:41 0.000355277
18 *158:24 *228:25 0.000100716
19 *158:24 *229:15 0.0719776
20 *158:24 *230:25 0.0257271
21 *158:24 *244:15 0.000414309
22 *158:24 *246:23 0.227146
23 *158:24 *277:23 0.00137493
24 *158:24 *286:39 0.0123984
25 *158:24 *801:15 0.152711
26 *158:30 *334:42 0
27 *158:32 gpio_dm0[32] 0.00131298
28 *114:29 *158:30 0
29 *114:33 *158:32 0.0321387
30 *116:53 *158:22 0.0091992
31 *117:33 *158:22 0.000364886
32 *157:37 *158:22 0.00860144
*RES
1 *921:gpio_analog_pol[32] *158:22 30.4145 
2 *158:22 *158:24 334.489 
3 *158:24 *158:30 6.80893 
4 *158:30 *158:32 50.1866 
5 *158:32 gpio_analog_pol[32] 0.234967 
*END

*D_NET *159 0.650337
*CONN
*P gpio_analog_pol[33] O
*I *921:gpio_analog_pol[33] O *D CF_CARAVEL_SOC
*CAP
1 gpio_analog_pol[33] 0.0103533
2 *921:gpio_analog_pol[33] 0.00701541
3 *159:15 0.0525613
4 *159:13 0.0492233
5 gpio_analog_pol[33] gpio_dm0[33] 0
6 gpio_analog_pol[33] gpio_inp_dis[33] 0
7 gpio_analog_pol[33] *206:57 0
8 gpio_analog_pol[33] *355:11 0.00210312
9 gpio_analog_pol[33] *359:11 0.00195704
10 gpio_analog_pol[33] *371:11 0.00960552
11 gpio_analog_pol[33] *389:9 0
12 gpio_analog_pol[33] *390:9 0.000549648
13 gpio_analog_pol[33] *393:11 0
14 *159:13 *160:9 0
15 *159:13 *170:11 0.000454312
16 *159:13 *179:11 0.00542266
17 *159:13 *247:11 0.00220827
18 *159:13 *288:59 0.00146307
19 *159:13 *391:33 0.00533467
20 *159:13 *788:49 0.000680698
21 *159:13 *788:53 0
22 *159:13 *831:75 0.00029383
23 *159:15 *337:39 0.24986
24 *159:15 *692:13 0.00579479
25 *159:15 *698:13 0.00525694
26 *159:15 *731:16 0.00207717
27 *159:15 *833:23 0.230084
28 *90:11 *159:13 0.00164031
29 *98:11 *159:13 0.00247778
30 *101:11 *159:13 0.00188792
31 *105:25 *159:13 0.000152029
32 *115:35 gpio_analog_pol[33] 0.00188082
*RES
1 *921:gpio_analog_pol[33] *159:13 30.3423 
2 *159:13 *159:15 379.587 
3 *159:15 gpio_analog_pol[33] 30.291 
*END

*D_NET *160 0.643614
*CONN
*P gpio_analog_pol[34] O
*I *921:gpio_analog_pol[34] O *D CF_CARAVEL_SOC
*CAP
1 gpio_analog_pol[34] 0.00819131
2 *921:gpio_analog_pol[34] 0.00212189
3 *160:29 0.0170685
4 *160:23 0.0351278
5 *160:21 0.0263026
6 *160:15 0.0167868
7 *160:13 0.0167348
8 *160:11 0.00439762
9 *160:9 0.00651951
10 gpio_analog_pol[34] gpio_dm0[34] 0.000137381
11 gpio_analog_pol[34] *354:9 0
12 gpio_analog_pol[34] *355:9 0.00196988
13 gpio_analog_pol[34] *556:52 0
14 *160:9 *161:13 0
15 *160:11 *534:15 0
16 *160:15 *392:31 0.111662
17 *160:15 *393:23 0.0138118
18 *160:15 *683:11 0.00599261
19 *160:15 *687:11 0.0204282
20 *160:15 *688:11 0.000488743
21 *160:15 *693:19 0.0936706
22 *160:21 *672:9 0
23 *160:23 *541:131 0.0154977
24 *160:23 *661:13 0.00127725
25 *160:23 *661:15 0.000350189
26 *160:23 *687:11 0.0691758
27 *160:23 *687:17 0.000906136
28 *160:29 *449:13 0.0022077
29 *160:29 *752:11 0.00346423
30 *160:29 *758:9 0.0256846
31 gpio_analog_en[34] gpio_analog_pol[34] 0
32 *91:11 *160:11 0.00230879
33 *97:11 *160:11 1.97442e-05
34 *99:11 *160:11 0.000135053
35 *107:11 *160:11 0.0122835
36 *116:55 *160:15 0.00147634
37 *116:55 *160:23 0.000574605
38 *116:63 *160:23 0.1235
39 *152:11 *160:11 0.00333924
40 *159:13 *160:9 0
*RES
1 *921:gpio_analog_pol[34] *160:9 4.41653 
2 *160:9 *160:11 142.268 
3 *160:11 *160:13 2 
4 *160:13 *160:15 1079.95 
5 *160:15 *160:21 3.2425 
6 *160:21 *160:23 191.59 
7 *160:23 *160:29 47.0332 
8 *160:29 gpio_analog_pol[34] 15.7352 
*END

*D_NET *161 0.523499
*CONN
*P gpio_analog_pol[35] O
*I *921:gpio_analog_pol[35] O *D CF_CARAVEL_SOC
*CAP
1 gpio_analog_pol[35] 0.00937086
2 *921:gpio_analog_pol[35] 0.00895748
3 *161:19 0.0199584
4 *161:17 0.0105875
5 *161:15 0.0794853
6 *161:13 0.0884428
7 gpio_analog_pol[35] gpio_dm0[35] 0.00298652
8 gpio_analog_pol[35] *353:11 0.000291325
9 gpio_analog_pol[35] *765:9 0.000424099
10 gpio_analog_pol[35] *798:19 0.000137349
11 gpio_analog_pol[35] *819:11 0.00263233
12 gpio_analog_pol[35] *834:11 0
13 *161:13 *162:9 0
14 *161:13 *176:11 0.00726483
15 *161:13 *181:11 0.00512812
16 *161:13 *182:19 0.00198636
17 *161:13 *312:19 0.00232745
18 *161:13 *326:11 0.00232745
19 *161:13 *327:37 4.14437e-05
20 *161:13 *535:121 0.00198636
21 *161:15 *183:17 0
22 *161:15 *202:25 1.02564e-05
23 *161:15 *271:25 0.00270261
24 *161:15 *288:65 7.79454e-05
25 *161:15 *315:25 0.00141619
26 *161:15 *333:17 0.000112057
27 *161:15 *436:23 0.00538202
28 *161:15 *692:13 0.0110501
29 *161:15 *694:6 0.00314181
30 *161:15 *731:16 0.00441296
31 *161:15 *734:11 0.0382515
32 *161:15 *738:11 0.000382792
33 *161:15 *740:11 0.0434916
34 *161:15 *743:11 0.000382792
35 *161:15 *808:25 0.00289976
36 *161:15 *833:21 0.00347233
37 *161:15 *833:23 0.0838421
38 *161:19 *356:11 0.00268198
39 *161:19 *360:11 0.0045249
40 *161:19 *391:11 0.0281821
41 *161:19 *393:11 0.00746349
42 *161:19 *448:13 0.00107427
43 *161:19 *751:11 0.00201817
44 *161:19 *797:19 0.00253167
45 *161:19 *798:19 0.00115438
46 *161:19 *819:11 0.0227737
47 *161:19 *831:25 0.000744246
48 *161:19 *834:11 0
49 *104:27 *161:13 0.00206686
50 *113:11 *161:13 0.00192342
51 *117:33 *161:13 0.000467243
52 *157:37 *161:15 0.000527652
53 *160:9 *161:13 0
*RES
1 *921:gpio_analog_pol[35] *161:13 31.8725 
2 *161:13 *161:15 381.335 
3 *161:15 *161:17 0.5 
4 *161:17 *161:19 63.6069 
5 *161:19 gpio_analog_pol[35] 22.4494 
*END

*D_NET *162 0.768364
*CONN
*P gpio_analog_pol[36] O
*I *921:gpio_analog_pol[36] O *D CF_CARAVEL_SOC
*CAP
1 gpio_analog_pol[36] 0.00206661
2 *921:gpio_analog_pol[36] 0.00426169
3 *162:27 0.0130403
4 *162:25 0.0130935
5 *162:15 0.0357488
6 *162:13 0.033629
7 *162:11 0.00196007
8 *162:9 0.00622176
9 gpio_analog_pol[36] gpio_dm0[36] 0.0030297
10 gpio_analog_pol[36] gpio_inp_dis[36] 0
11 *162:11 *203:11 0.000992516
12 *162:11 *315:11 0.0110571
13 *162:11 *532:36 0
14 *162:15 *183:17 0.00121714
15 *162:15 *198:15 0.00607441
16 *162:15 *204:33 0.0111322
17 *162:15 *436:23 0.00318157
18 *162:15 *690:11 0.217971
19 *162:15 *694:6 0.0218772
20 *162:15 *727:11 0.234718
21 *162:15 *731:6 0.0199428
22 *162:15 *733:6 0.00322097
23 *162:15 *734:11 0.00053697
24 *162:15 *738:11 1.91597e-05
25 *162:15 *739:6 0.00247872
26 *162:15 *740:11 0.003359
27 *162:25 *163:33 0.000215712
28 *162:25 *355:11 0.000231607
29 *162:25 *437:29 0.000588393
30 *162:25 *690:21 0.00445217
31 *162:25 *736:21 0.00166151
32 *162:25 *790:11 0.000232951
33 *162:27 *249:27 0.0141639
34 *162:27 *465:11 0.00194217
35 *162:27 *754:11 0.0412628
36 *162:27 *773:11 0.0337746
37 *162:27 *802:11 0.00573914
38 *112:15 *162:15 0.000256565
39 *115:33 *162:15 3.64998e-06
40 *117:33 *162:9 0.000464689
41 *129:11 *162:11 0.00106005
42 *139:11 *162:11 0.0114835
43 *161:13 *162:9 0
*RES
1 *921:gpio_analog_pol[36] *162:9 8.78653 
2 *162:9 *162:11 127.988 
3 *162:11 *162:13 2 
4 *162:13 *162:15 2258.48 
5 *162:15 *162:25 12.9873 
6 *162:25 *162:27 594.255 
7 *162:27 gpio_analog_pol[36] 5.5559 
*END

*D_NET *163 0.792648
*CONN
*P gpio_analog_pol[37] O
*I *921:gpio_analog_pol[37] O *D CF_CARAVEL_SOC
*CAP
1 gpio_analog_pol[37] 0.000230411
2 *921:gpio_analog_pol[37] 0.000825324
3 *163:35 0.0165769
4 *163:33 0.0213861
5 *163:23 0.0367959
6 *163:21 0.0317562
7 *163:19 0.00161467
8 *163:17 0.00244
9 gpio_analog_pol[37] gpio_dm0[37] 0.000397251
10 gpio_analog_pol[37] gpio_inp_dis[37] 6.60751e-05
11 *163:17 *333:11 0.00204395
12 *163:17 *334:34 0.000658456
13 *163:19 *330:13 0.00931243
14 *163:19 *332:13 0.00932016
15 *163:23 *291:15 0.238802
16 *163:23 *541:131 0
17 *163:23 *688:11 0.00315335
18 *163:23 *716:11 0.233438
19 *163:23 *744:11 0.0539583
20 *163:33 *204:43 0
21 *163:33 *291:25 0.00115468
22 *163:33 *437:29 0.00348557
23 *163:33 *688:11 0.00303675
24 *163:33 *690:21 6.72405e-05
25 *163:33 *736:21 0.000400335
26 *163:33 *796:11 3.85204e-05
27 *163:35 *204:45 0.000231275
28 *163:35 *206:59 0.0432312
29 *163:35 *291:27 0.00862127
30 *163:35 *459:13 0
31 *163:35 *466:11 0.0656001
32 *116:41 *163:17 0.00204165
33 *153:27 *163:19 0.00159475
34 *157:37 *163:19 0.000153582
35 *162:25 *163:33 0.000215712
*RES
1 *921:gpio_analog_pol[37] *163:17 28.7862 
2 *163:17 *163:19 104.4 
3 *163:19 *163:21 2 
4 *163:21 *163:23 2197.06 
5 *163:23 *163:33 16.9268 
6 *163:33 *163:35 758.475 
7 *163:35 gpio_analog_pol[37] 1.21377 
*END

*D_NET *164 0.647484
*CONN
*P gpio_analog_pol[38] O
*I *921:gpio_analog_pol[38] O *D CF_CARAVEL_SOC
*CAP
1 gpio_analog_pol[38] 0.00161296
2 *921:gpio_analog_pol[38] 0.000507459
3 *164:43 0.012293
4 *164:41 0.0107939
5 *164:35 0.0255496
6 *164:33 0.0255287
7 *164:23 0.0213473
8 *164:21 0.0213588
9 *164:15 0.0118877
10 *164:13 0.0122906
11 gpio_analog_pol[38] gpio_dm0[38] 0
12 gpio_analog_pol[38] gpio_inp_dis[38] 0
13 gpio_analog_pol[38] *541:57 0
14 *164:13 *165:9 0
15 *164:13 *193:31 2.22315e-05
16 *164:15 *167:15 0.0123201
17 *164:15 *193:9 0
18 *164:15 *193:31 0.00170779
19 *164:15 *209:11 0.000855792
20 *164:15 *344:11 0.000281849
21 *164:15 *345:11 0.000739621
22 *164:21 *343:9 2.15755e-05
23 *164:23 *208:9 0.035115
24 *164:23 *209:11 0.0597352
25 *164:33 *168:15 0.000224901
26 *164:33 *253:15 0.00022032
27 *164:35 *168:15 0.0227695
28 *164:35 *238:15 0.14231
29 *164:35 *340:39 0.00920374
30 *164:35 *386:207 0.0132493
31 *164:35 *429:19 0.00062529
32 *164:35 *545:11 0.03674
33 *164:35 *554:13 0.00649268
34 *164:41 gpio_dm0[39] 0.00015949
35 *164:43 *339:23 0.0450049
36 *164:43 *390:23 0.00978531
37 *164:43 *760:23 0.0106834
38 *164:43 *827:19 0.0171865
39 *164:43 *852:11 0.0106758
40 *109:11 *164:15 0.0198859
41 *116:19 *164:15 0.0119888
42 *121:11 *164:15 0.00635534
43 *121:11 *164:23 0.00587457
44 *123:11 *164:23 0.00587457
45 *124:9 *164:33 5.05716e-06
46 *126:11 *164:23 0.00720683
47 *140:29 *164:15 0.00315995
48 *142:11 *164:15 0.00708984
49 *148:11 *164:15 0.000125189
50 *149:33 *164:15 0.000618132
*RES
1 *921:gpio_analog_pol[38] *164:13 1.374 
2 *164:13 *164:15 530.505 
3 *164:15 *164:21 1.18367 
4 *164:21 *164:23 107.532 
5 *164:23 *164:33 3.59097 
6 *164:33 *164:35 1309.72 
7 *164:35 *164:41 4.5175 
8 *164:41 *164:43 68.3265 
9 *164:43 gpio_analog_pol[38] 22.4225 
*END

*D_NET *165 0.505563
*CONN
*P gpio_analog_pol[39] O
*I *921:gpio_analog_pol[39] O *D CF_CARAVEL_SOC
*CAP
1 gpio_analog_pol[39] 0.00196988
2 *921:gpio_analog_pol[39] 0.00571474
3 *165:23 0.0158784
4 *165:21 0.0140462
5 *165:15 0.0160927
6 *165:13 0.0159551
7 *165:11 0.0349084
8 *165:9 0.0406231
9 gpio_analog_pol[39] gpio_dm0[39] 0
10 gpio_analog_pol[39] gpio_inp_dis[39] 0
11 *165:9 *167:13 0.000108133
12 *165:9 *193:31 0
13 *165:9 *288:53 0
14 *165:9 *782:37 0.000464655
15 *165:9 *831:73 0
16 *165:11 *195:11 0.0201181
17 *165:11 *241:11 0
18 *165:11 *263:11 0.0502627
19 *165:11 *277:11 0.0136648
20 *165:11 *692:15 0.00789618
21 *165:11 *692:23 0
22 *165:11 *793:31 0.00469694
23 *165:11 *804:27 0
24 *165:15 *325:71 0.0216075
25 *165:15 *338:19 0.0651001
26 *165:15 *339:15 0.0774418
27 *165:15 *484:15 0.000733607
28 *165:15 *548:11 0.0072678
29 *165:15 *771:27 0
30 *165:15 *842:11 0.0121958
31 *165:21 gpio_analog_sel[41] 5.95547e-05
32 *165:23 *296:23 0.0245122
33 *165:23 *434:23 0.00940524
34 *165:23 *470:15 0.00274773
35 *165:23 *543:11 0.0110613
36 *165:23 *847:16 0.0128228
37 *105:25 *165:9 4.2145e-05
38 *121:15 *165:15 0.0180857
39 *149:33 *165:9 7.94968e-05
40 *164:13 *165:9 0
*RES
1 *921:gpio_analog_pol[39] *165:9 11.5251 
2 *165:9 *165:11 1165.84 
3 *165:11 *165:13 2 
4 *165:13 *165:15 948.855 
5 *165:15 *165:21 4.7725 
6 *165:21 *165:23 71.3564 
7 *165:23 gpio_analog_pol[39] 27.6425 
*END

*D_NET *166 0.0734505
*CONN
*P gpio_analog_pol[3] O
*I *921:gpio_analog_pol[3] O *D CF_CARAVEL_SOC
*CAP
1 gpio_analog_pol[3] 0.00313381
2 *921:gpio_analog_pol[3] 0.00494135
3 *166:13 0.0120035
4 *166:9 0.0138111
5 gpio_analog_pol[3] gpio_dm0[3] 0
6 gpio_analog_pol[3] gpio_inp_dis[3] 0.00159798
7 gpio_analog_pol[3] *281:11 0.000174729
8 gpio_analog_pol[3] *375:59 0.000121315
9 *166:9 gpio_analog_pol[4] 0
10 *166:13 *169:11 0.00235317
11 *166:13 *178:17 0.0081975
12 *166:13 *181:11 0.000489642
13 *166:13 *199:13 0.00138632
14 *166:13 *224:19 0.00256376
15 *166:13 *242:11 0.000169377
16 *166:13 *303:11 0.0148101
17 *166:13 *481:11 0.000399006
18 *104:25 *166:9 4.61529e-05
19 *104:25 *166:13 0.00025732
20 *114:11 *166:13 0.000169377
21 *133:11 *166:13 0.00682496
22 *155:9 *166:9 0
*RES
1 *921:gpio_analog_pol[3] *166:9 10.1558 
2 *166:9 *166:13 49.9785 
3 *166:13 gpio_analog_pol[3] 10.9653 
*END

*D_NET *167 0.448555
*CONN
*P gpio_analog_pol[40] O
*I *921:gpio_analog_pol[40] O *D CF_CARAVEL_SOC
*CAP
1 gpio_analog_pol[40] 0.00124745
2 *921:gpio_analog_pol[40] 0.00176009
3 *167:19 0.0431098
4 *167:17 0.0418624
5 *167:15 0.019926
6 *167:13 0.0216861
7 gpio_analog_pol[40] gpio_dm0[40] 0
8 gpio_analog_pol[40] gpio_inp_dis[40] 0.000204119
9 gpio_analog_pol[40] *208:27 0
10 *167:13 *197:11 0
11 *167:15 *193:31 0.00294589
12 *167:15 *197:11 0
13 *167:15 *205:27 0.00118985
14 *167:15 *206:27 0.00578737
15 *167:15 *207:11 0.00960055
16 *167:15 *209:11 0.0079392
17 *167:15 *213:11 0.0894277
18 *167:15 *252:11 0
19 *167:15 *274:51 0.00212673
20 *167:15 *343:11 0.0569426
21 *167:15 *344:11 0.000263998
22 *167:15 *847:6 9.7282e-05
23 *167:15 *852:9 0
24 *167:19 *208:19 4.48076e-05
25 *167:19 *297:14 2.95342e-05
26 *167:19 *571:27 0.017719
27 *167:19 *749:27 0.0158862
28 *167:19 *838:11 0.0673094
29 *167:19 *841:11 0.0220866
30 *109:25 *167:13 0.000229581
31 *116:19 *167:15 0.00137484
32 *119:23 *167:19 0.00151919
33 *140:29 *167:13 0.00238912
34 *140:29 *167:15 0.000754847
35 *149:33 *167:13 0.000276917
36 *149:33 *167:15 0.00033831
37 *149:35 *167:13 5.10462e-05
38 *164:15 *167:15 0.0123201
39 *165:9 *167:13 0.000108133
*RES
1 *921:gpio_analog_pol[40] *167:13 28.8829 
2 *167:13 *167:15 1152.57 
3 *167:15 *167:17 0.5 
4 *167:17 *167:19 186.55 
5 *167:19 gpio_analog_pol[40] 19.0025 
*END

*D_NET *168 0.480347
*CONN
*P gpio_analog_pol[41] O
*I *921:gpio_analog_pol[41] O *D CF_CARAVEL_SOC
*CAP
1 gpio_analog_pol[41] 0.00171453
2 *921:gpio_analog_pol[41] 0.00521468
3 *168:15 0.0234722
4 *168:13 0.0217576
5 *168:11 0.0515986
6 *168:9 0.0568133
7 gpio_analog_pol[41] gpio_dm0[41] 0
8 gpio_analog_pol[41] gpio_inp_dis[41] 0
9 *168:9 *169:9 0
10 *168:9 *787:37 0.000301837
11 *168:9 *831:73 0.00344045
12 *168:11 *218:11 0
13 *168:11 *269:11 0
14 *168:11 *273:11 0.0705558
15 *168:11 *306:11 0
16 *168:11 *348:11 0
17 *168:11 *386:211 0
18 *168:11 *408:101 0
19 *168:11 *760:35 0
20 *168:11 *832:59 0
21 *168:15 *169:15 0.000886245
22 *168:15 *238:15 0.0206943
23 *168:15 *253:15 0.000836728
24 *168:15 *255:15 6.25961e-05
25 *168:15 *340:39 0.0991408
26 *168:15 *343:15 8.91836e-05
27 *168:15 *386:207 0.000955335
28 *168:15 *845:19 0.0449315
29 *126:15 *168:15 0.0546657
30 *153:25 *168:9 0.000220895
31 *164:33 *168:15 0.000224901
32 *164:35 *168:15 0.0227695
*RES
1 *921:gpio_analog_pol[41] *168:9 12.1077 
2 *168:9 *168:11 1180.24 
3 *168:11 *168:13 0.5 
4 *168:13 *168:15 162.66 
5 *168:15 gpio_analog_pol[41] 24.0425 
*END

*D_NET *169 0.383887
*CONN
*P gpio_analog_pol[42] O
*I *921:gpio_analog_pol[42] O *D CF_CARAVEL_SOC
*CAP
1 gpio_analog_pol[42] 0.00183738
2 *921:gpio_analog_pol[42] 0.00474675
3 *169:15 0.0283846
4 *169:13 0.0265472
5 *169:11 0.0292597
6 *169:9 0.0340064
7 gpio_analog_pol[42] gpio_dm0[42] 0
8 gpio_analog_pol[42] gpio_inp_dis[42] 0.00024287
9 *169:9 *170:9 0
10 *169:9 *280:17 1.81196e-05
11 *169:9 *391:33 0
12 *169:9 *788:49 0.00200782
13 *169:9 *831:73 0
14 *169:11 *178:17 0.00228222
15 *169:11 *222:17 0.00192602
16 *169:11 *224:19 0.0300595
17 *169:11 *242:11 0.0855212
18 *169:11 *267:17 0.00347328
19 *169:11 *298:11 0.00286764
20 *169:11 *435:27 0
21 *169:11 *531:28 0
22 *169:11 *692:23 0
23 *169:11 *771:31 0
24 *169:15 *170:23 0.0100084
25 *169:15 *209:15 0.000191509
26 *169:15 *213:15 0.0758517
27 *169:15 *253:15 0.000327331
28 *169:15 *257:15 0
29 *169:15 *296:23 0.00413923
30 *169:15 *322:79 0.000294978
31 *169:15 *434:23 0.00536396
32 *169:15 *474:15 0.000118286
33 *169:15 *480:15 0.00012905
34 *169:15 *847:16 0.000939176
35 *94:19 *169:11 0.0266235
36 *104:25 *169:11 0.00274624
37 *150:17 *169:9 0.000733733
38 *166:13 *169:11 0.00235317
39 *168:9 *169:9 0
40 *168:15 *169:15 0.000886245
*RES
1 *921:gpio_analog_pol[42] *169:9 10.3597 
2 *169:9 *169:11 1181.78 
3 *169:11 *169:13 0.5 
4 *169:13 *169:15 126.185 
5 *169:15 gpio_analog_pol[42] 26.7125 
*END

*D_NET *170 0.328474
*CONN
*P gpio_analog_pol[43] O
*I *921:gpio_analog_pol[43] O *D CF_CARAVEL_SOC
*CAP
1 gpio_analog_pol[43] 0.00195762
2 *921:gpio_analog_pol[43] 0.00269845
3 *170:23 0.0186435
4 *170:21 0.0166859
5 *170:19 0.0240562
6 *170:17 0.0261908
7 *170:11 0.00601277
8 *170:9 0.0065766
9 gpio_analog_pol[43] gpio_dm0[43] 0
10 gpio_analog_pol[43] gpio_dm2[42] 0.000111532
11 gpio_analog_pol[43] gpio_inp_dis[43] 0
12 gpio_analog_pol[43] *296:21 2.99518e-06
13 gpio_analog_pol[43] *545:9 0
14 *170:9 *391:33 9.78223e-05
15 *170:11 *179:11 0.000979436
16 *170:11 *247:11 0.0238695
17 *170:17 gpio_out[4] 0.000137425
18 *170:17 gpio_vtrip_sel[4] 0.000559131
19 *170:19 *185:11 0.000125149
20 *170:19 *212:19 0.0204884
21 *170:19 *228:11 0.00830548
22 *170:19 *234:11 0
23 *170:19 *240:11 0.0268834
24 *170:19 *249:11 0
25 *170:19 *274:19 0.0167009
26 *170:19 *325:11 0.0100015
27 *170:19 *325:19 0
28 *170:19 *858:9 0
29 *170:23 *257:15 0.0549626
30 *170:23 *296:15 0.0124809
31 *170:23 *771:27 0.0124733
32 *98:11 *170:11 0.0238695
33 *102:17 *170:9 8.1472e-05
34 *144:11 *170:11 0.00121507
35 *150:17 *170:9 0.000572584
36 *152:17 *170:9 0.00127155
37 *159:13 *170:11 0.000454312
38 *169:9 *170:9 0
39 *169:15 *170:23 0.0100084
*RES
1 *921:gpio_analog_pol[43] *170:9 6.922 
2 *170:9 *170:11 266.325 
3 *170:11 *170:17 5.64107 
4 *170:17 *170:19 916.575 
5 *170:19 *170:21 0.5 
6 *170:21 *170:23 83.5924 
7 *170:23 gpio_analog_pol[43] 28.2425 
*END

*D_NET *171 0.0485996
*CONN
*P gpio_analog_pol[4] O
*I *921:gpio_analog_pol[4] O *D CF_CARAVEL_SOC
*CAP
1 gpio_analog_pol[4] 0.0135722
2 *921:gpio_analog_pol[4] 0.0135722
3 gpio_analog_pol[4] gpio_analog_pol[5] 0
4 gpio_analog_pol[4] gpio_analog_sel[4] 0.00108302
5 gpio_analog_pol[4] gpio_dm0[4] 0
6 gpio_analog_pol[4] gpio_inp_dis[4] 0.000755519
7 gpio_analog_pol[4] *181:11 0
8 gpio_analog_pol[4] *183:9 0
9 gpio_analog_pol[4] *184:9 0.00301863
10 gpio_analog_pol[4] *260:19 0.00128874
11 gpio_analog_pol[4] *266:11 0.00206035
12 gpio_analog_pol[4] *312:19 0.00128874
13 gpio_analog_pol[4] *532:36 0.00262283
14 *129:11 gpio_analog_pol[4] 0.00727699
15 *132:11 gpio_analog_pol[4] 0.00206035
16 *166:9 gpio_analog_pol[4] 0
*RES
1 *921:gpio_analog_pol[4] gpio_analog_pol[4] 39.1685 
*END

*D_NET *172 0.0261175
*CONN
*P gpio_analog_pol[5] O
*I *921:gpio_analog_pol[5] O *D CF_CARAVEL_SOC
*CAP
1 gpio_analog_pol[5] 0.0084213
2 *921:gpio_analog_pol[5] 0.0084213
3 gpio_analog_pol[5] gpio_dm0[5] 0.000253092
4 gpio_analog_pol[5] gpio_inp_dis[5] 0.00261849
5 gpio_analog_pol[5] *173:13 0
6 gpio_analog_pol[5] *174:11 0.00224068
7 gpio_analog_pol[5] *181:11 0.000311144
8 gpio_analog_pol[5] *224:19 0.000448949
9 gpio_analog_pol[5] *375:57 8.85475e-05
10 gpio_analog_pol[5] *391:43 0.000306412
11 gpio_analog_pol[4] gpio_analog_pol[5] 0
12 *104:25 gpio_analog_pol[5] 0.00300758
*RES
1 *921:gpio_analog_pol[5] gpio_analog_pol[5] 22.5352 
*END

*D_NET *173 0.0504675
*CONN
*P gpio_analog_pol[6] O
*I *921:gpio_analog_pol[6] O *D CF_CARAVEL_SOC
*CAP
1 gpio_analog_pol[6] 0.00213482
2 *921:gpio_analog_pol[6] 0.0161446
3 *173:18 0
4 *173:13 0.0182794
5 gpio_analog_pol[6] gpio_dm0[6] 0
6 gpio_analog_pol[6] gpio_inp_dis[6] 0.00356533
7 gpio_analog_pol[6] *782:29 0.00060601
8 *173:13 *174:9 0
9 *173:13 *174:11 0
10 *173:13 *178:17 6.66714e-05
11 *173:13 *242:11 0.00139423
12 *173:13 *375:57 0.00017637
13 *173:13 *480:9 0.00197366
14 gpio_analog_pol[5] *173:13 0
15 *104:25 *173:13 0.00462814
16 *114:11 *173:13 0.00149821
*RES
1 *921:gpio_analog_pol[6] *173:13 44.6658 
2 *173:13 gpio_analog_pol[6] 5.78613 
3 gpio_analog_pol[6] *173:18 0.0690909 
*END

*D_NET *174 0.18833
*CONN
*P gpio_analog_pol[7] O
*I *921:gpio_analog_pol[7] O *D CF_CARAVEL_SOC
*CAP
1 gpio_analog_pol[7] 0.00275747
2 *921:gpio_analog_pol[7] 0.00464072
3 *174:11 0.0316892
4 *174:9 0.0335724
5 gpio_analog_pol[7] gpio_dm0[7] 0.000670552
6 gpio_analog_pol[7] gpio_inp_dis[7] 0.00142713
7 *174:9 *175:9 0
8 *174:9 *206:25 0.000542702
9 *174:9 *480:9 0
10 *174:11 *181:11 0.00136809
11 *174:11 *224:19 0.0137818
12 *174:11 *481:11 0.000378056
13 gpio_analog_en[7] gpio_analog_pol[7] 0
14 gpio_analog_pol[5] *174:11 0.00224068
15 *94:19 *174:11 0.00892332
16 *104:25 *174:11 0.00496843
17 *114:21 *174:11 0.00225584
18 *137:11 *174:11 0.0791137
19 *173:13 *174:9 0
20 *173:13 *174:11 0
*RES
1 *921:gpio_analog_pol[7] *174:9 10.0393 
2 *174:9 *174:11 144.742 
3 *174:11 gpio_analog_pol[7] 7.30517 
*END

*D_NET *175 0.226975
*CONN
*P gpio_analog_pol[8] O
*I *921:gpio_analog_pol[8] O *D CF_CARAVEL_SOC
*CAP
1 gpio_analog_pol[8] 0.00372158
2 *921:gpio_analog_pol[8] 0.00375265
3 *175:11 0.0379258
4 *175:9 0.0379569
5 gpio_analog_pol[8] gpio_dm0[8] 0.000486962
6 gpio_analog_pol[8] gpio_inp_dis[8] 0.0003881
7 *175:9 *176:9 0
8 *175:9 *206:25 0.000542702
9 *175:11 *180:11 0.000684054
10 *175:11 *203:11 0.009321
11 *175:11 *225:19 0.0104651
12 *175:11 *274:93 0.00086695
13 *175:11 *304:11 0.000837646
14 *175:11 *349:11 0.00386166
15 *175:11 *787:37 0.000337616
16 gpio_analog_en[8] gpio_analog_pol[8] 0
17 *128:11 *175:11 0.000322011
18 *131:11 *175:11 0.0193891
19 *135:11 *175:11 0.0959691
20 *136:11 *175:11 0
21 *141:21 *175:11 0.000146551
22 *174:9 *175:9 0
*RES
1 *921:gpio_analog_pol[8] *175:9 8.29127 
2 *175:9 *175:11 172.735 
3 *175:11 gpio_analog_pol[8] 8.92143 
*END

*D_NET *176 0.248483
*CONN
*P gpio_analog_pol[9] O
*I *921:gpio_analog_pol[9] O *D CF_CARAVEL_SOC
*CAP
1 gpio_analog_pol[9] 0.00286079
2 *921:gpio_analog_pol[9] 0.00451646
3 *176:11 0.0388355
4 *176:9 0.0404912
5 gpio_analog_pol[9] gpio_dm0[9] 0.000570331
6 gpio_analog_pol[9] gpio_inp_dis[9] 0.000269429
7 gpio_analog_pol[9] *268:11 0
8 gpio_analog_pol[9] *311:11 0
9 *176:9 gpio_slow_sel[5] 0
10 *176:11 *181:11 0
11 *176:11 *182:19 0.00806231
12 *176:11 *202:25 0.00223673
13 *176:11 *312:19 0.00876914
14 *176:11 *326:11 0.00120331
15 *176:11 *327:31 0.000961519
16 *176:11 *337:37 0.00080299
17 *176:11 *375:43 0.00226841
18 *176:11 *535:121 0.00536134
19 *176:11 *568:15 0.000105649
20 *176:11 *782:31 0.00115783
21 gpio_analog_en[9] gpio_analog_pol[9] 0.00293218
22 *113:19 *176:11 0.0281067
23 *129:11 *176:11 0.00047817
24 *132:11 *176:11 0.0254393
25 *134:9 *176:9 0
26 *136:11 *176:11 0.0657884
27 *161:13 *176:11 0.00726483
28 *175:9 *176:9 0
*RES
1 *921:gpio_analog_pol[9] *176:9 9.22353 
2 *176:9 *176:11 200.126 
3 *176:11 gpio_analog_pol[9] 11.672 
*END

*D_NET *177 0.153214
*CONN
*P gpio_analog_sel[0] O
*I *921:gpio_analog_sel[0] O *D CF_CARAVEL_SOC
*CAP
1 gpio_analog_sel[0] 0.00316678
2 *921:gpio_analog_sel[0] 0.00436616
3 *177:11 0.0142395
4 *177:9 0.0154389
5 gpio_analog_sel[0] gpio_dm2[0] 0.0024519
6 gpio_analog_sel[0] *242:9 0.00033146
7 *177:9 *188:9 0
8 *177:11 *232:13 0.00845973
9 *177:11 *259:11 0.0568577
10 *177:11 *260:19 0.000114586
11 *177:11 *326:11 0.000114586
12 *177:11 *419:197 0.00556829
13 *177:11 *535:121 0.00374523
14 gpio_analog_en[3] *177:11 0.00547846
15 *94:17 *177:11 0.00429118
16 *100:13 *177:11 0.0259377
17 *132:11 *177:11 0.00265203
18 *133:11 *177:11 0
*RES
1 *921:gpio_analog_sel[0] *177:9 9.107 
2 *177:9 *177:11 101.072 
3 *177:11 gpio_analog_sel[0] 8.35777 
*END

*D_NET *178 0.291116
*CONN
*P gpio_analog_sel[10] O
*I *921:gpio_analog_sel[10] O *D CF_CARAVEL_SOC
*CAP
1 gpio_analog_sel[10] 0.00304008
2 *921:gpio_analog_sel[10] 0.0129789
3 *178:19 0.0340899
4 *178:17 0.0440288
5 gpio_analog_sel[10] gpio_inp_dis[10] 0
6 gpio_analog_sel[10] *354:15 0
7 *178:17 *179:9 0
8 *178:17 *220:9 0
9 *178:17 *242:11 0.0026309
10 *178:17 *337:11 0.00208579
11 *178:17 *479:9 0.00127822
12 *178:17 *480:9 4.75652e-05
13 *178:19 *267:23 0.119302
14 *178:19 *274:69 0.00163084
15 *178:19 *321:49 0.0039202
16 *178:19 *445:11 0.0405531
17 *178:19 *787:19 0.00544537
18 *178:19 *832:51 0.00241144
19 *94:19 *178:17 0.00256376
20 *104:25 *178:17 0.00129285
21 *114:11 *178:17 0.00326933
22 *166:13 *178:17 0.0081975
23 *169:11 *178:17 0.00228222
24 *173:13 *178:17 6.66714e-05
*RES
1 *921:gpio_analog_sel[10] *178:17 39.4392 
2 *178:17 *178:19 1379.15 
3 *178:19 gpio_analog_sel[10] 6.63257 
*END

*D_NET *179 0.403992
*CONN
*P gpio_analog_sel[11] O
*I *921:gpio_analog_sel[11] O *D CF_CARAVEL_SOC
*CAP
1 gpio_analog_sel[11] 0.00447905
2 *921:gpio_analog_sel[11] 0.00340084
3 *179:11 0.059643
4 *179:9 0.0585648
5 gpio_analog_sel[11] gpio_dm2[11] 0
6 gpio_analog_sel[11] *355:15 0
7 *179:9 *180:9 0
8 *179:11 *180:11 0
9 *179:11 *223:19 0.0020547
10 *179:11 *226:11 0
11 *179:11 *270:19 0.0022609
12 *179:11 *288:57 0.000399446
13 *179:11 *288:67 0.0279571
14 *179:11 *530:113 0.0492178
15 *179:11 *831:75 0.00131138
16 *90:11 *179:11 0
17 *93:11 *179:11 0.037387
18 *98:11 *179:11 0.000981505
19 *101:11 *179:11 0.0033561
20 *130:11 *179:11 0.00965702
21 *134:11 *179:11 0.128272
22 *138:11 *179:11 0.00328071
23 *144:11 *179:11 0.0053671
24 *159:13 *179:11 0.00542266
25 *170:11 *179:11 0.000979436
26 *178:17 *179:9 0
*RES
1 *921:gpio_analog_sel[11] *179:9 7.24247 
2 *179:9 *179:11 288.412 
3 *179:11 gpio_analog_sel[11] 10.0944 
*END

*D_NET *180 0.370407
*CONN
*P gpio_analog_sel[12] O
*I *921:gpio_analog_sel[12] O *D CF_CARAVEL_SOC
*CAP
1 gpio_analog_sel[12] 0.00311074
2 *921:gpio_analog_sel[12] 0.00269522
3 *180:11 0.0733486
4 *180:9 0.0729331
5 gpio_analog_sel[12] gpio_dm2[12] 0.00294383
6 gpio_analog_sel[12] gpio_holdover[12] 0
7 *180:9 gpio_slow_sel[4] 0.00473561
8 *180:11 *216:13 0.00242985
9 *180:11 *246:21 0.000437538
10 *180:11 *304:11 0.00095541
11 *180:11 *444:11 0.0384508
12 *115:11 *180:11 0.00213093
13 *130:11 *180:11 0
14 *134:11 *180:11 0
15 *135:11 *180:11 0.144077
16 *136:11 *180:11 0
17 *141:21 *180:11 0.0084306
18 *155:11 *180:11 0.0130442
19 *175:11 *180:11 0.000684054
20 *179:9 *180:9 0
21 *179:11 *180:11 0
*RES
1 *921:gpio_analog_sel[12] *180:9 8.0582 
2 *180:9 *180:11 316.578 
3 *180:11 gpio_analog_sel[12] 8.92397 
*END

*D_NET *181 0.449973
*CONN
*P gpio_analog_sel[13] O
*I *921:gpio_analog_sel[13] O *D CF_CARAVEL_SOC
*CAP
1 gpio_analog_sel[13] 0.00351835
2 *921:gpio_analog_sel[13] 0.00423429
3 *181:11 0.0764356
4 *181:9 0.0771515
5 *181:9 gpio_slow_sel[4] 0
6 *181:9 *182:17 0
7 *181:11 gpio_analog_sel[4] 0
8 *181:11 *202:11 0.00625706
9 *181:11 *202:25 0.00150807
10 *181:11 *288:11 0.00158582
11 *181:11 *307:11 0.0247815
12 *181:11 *326:11 0.00151173
13 *181:11 *375:57 0.000433778
14 *181:11 *481:11 0.00215922
15 *181:11 *535:121 0.0120631
16 gpio_analog_en[4] *181:9 0.00112747
17 gpio_analog_pol[4] *181:11 0
18 gpio_analog_pol[5] *181:11 0.000311144
19 *94:17 *181:9 8.4111e-05
20 *94:17 *181:11 6.35858e-05
21 *104:11 *181:11 0.00218714
22 *104:25 *181:11 0.000105073
23 *113:11 *181:11 0.0044526
24 *113:19 *181:11 0.0199359
25 *129:11 *181:11 0
26 *133:11 *181:11 0.0118909
27 *136:11 *181:11 0
28 *137:11 *181:11 0.19119
29 *161:13 *181:11 0.00512812
30 *166:13 *181:11 0.000489642
31 *174:11 *181:11 0.00136809
32 *176:11 *181:11 0
*RES
1 *921:gpio_analog_sel[13] *181:9 9.8062 
2 *181:9 *181:11 371.789 
3 *181:11 gpio_analog_sel[13] 7.76877 
*END

*D_NET *182 0.535011
*CONN
*P gpio_analog_sel[14] O
*I *921:gpio_analog_sel[14] O *D CF_CARAVEL_SOC
*CAP
1 gpio_analog_sel[14] 0.00260115
2 *921:gpio_analog_sel[14] 0.00796547
3 *182:19 0.0490339
4 *182:17 0.0543982
5 gpio_analog_sel[14] gpio_dm2[14] 0.00325244
6 gpio_analog_sel[14] *358:23 0
7 *182:17 gpio_inp_dis[5] 0.000168018
8 *182:17 *183:9 0
9 *182:17 *203:11 0.0091448
10 *182:17 *315:11 0.00291818
11 *182:17 *321:11 0.000929788
12 *182:19 *202:25 0.000476082
13 *182:19 *312:19 0.152358
14 *182:19 *535:121 0.21254
15 gpio_analog_en[4] *182:17 0.00102731
16 gpio_analog_en[5] *182:17 0
17 *112:11 *182:17 0.00125232
18 *113:19 *182:19 0.000316979
19 *128:11 *182:17 0.00417786
20 *129:11 *182:17 0.016344
21 *136:9 *182:17 3.72619e-05
22 *136:11 *182:19 0.0059579
23 *137:9 *182:17 6.19175e-05
24 *161:13 *182:19 0.00198636
25 *176:11 *182:19 0.00806231
26 *181:9 *182:17 0
*RES
1 *921:gpio_analog_sel[14] *182:17 39.7888 
2 *182:17 *182:19 2360.9 
3 *182:19 gpio_analog_sel[14] 7.7067 
*END

*D_NET *183 0.371005
*CONN
*P gpio_analog_sel[15] O
*I *921:gpio_analog_sel[15] O *D CF_CARAVEL_SOC
*CAP
1 gpio_analog_sel[15] 7.52283e-05
2 *921:gpio_analog_sel[15] 0.00574081
3 *183:19 0.130138
4 *183:17 0.138022
5 *183:11 0.0230607
6 *183:9 0.0208417
7 gpio_analog_sel[15] gpio_dm2[15] 0
8 *183:9 gpio_dm0[4] 0.00105759
9 *183:9 *184:9 0
10 *183:11 *201:11 0.0284302
11 *183:11 *269:11 0
12 *183:11 *273:11 0.00319219
13 *183:17 *202:25 2.60513e-05
14 *183:17 *288:65 2.08937e-05
15 *183:17 *692:13 0
16 *183:17 *694:6 0.000399697
17 *183:17 *699:6 0.00551574
18 *183:17 *700:6 0.0103648
19 *183:19 *315:27 0
20 gpio_analog_pol[4] *183:9 0
21 *97:15 *183:17 0.0014598
22 *107:15 *183:17 0.000261942
23 *112:15 *183:17 0.000387171
24 *139:17 *183:17 0.000792979
25 *161:15 *183:17 0
26 *162:15 *183:17 0.00121714
27 *182:17 *183:9 0
*RES
1 *921:gpio_analog_sel[15] *183:9 12.2825 
2 *183:9 *183:11 394.335 
3 *183:11 *183:17 24.5195 
4 *183:17 *183:19 2262.47 
5 *183:19 gpio_analog_sel[15] 1.35 
*END

*D_NET *184 0.483864
*CONN
*P gpio_analog_sel[16] O
*I *921:gpio_analog_sel[16] O *D CF_CARAVEL_SOC
*CAP
1 gpio_analog_sel[16] 0.124876
2 *921:gpio_analog_sel[16] 0.0052812
3 *184:17 0.124876
4 *184:15 0.00946017
5 *184:13 0.00946017
6 *184:11 0.00741509
7 *184:9 0.0126963
8 gpio_analog_sel[16] gpio_dm2[16] 0
9 *184:9 gpio_inp_dis[4] 0.00409133
10 *184:9 *185:9 0
11 *184:11 *198:11 0.0290847
12 *184:11 *229:11 0.0018127
13 *184:11 *281:11 0.0348126
14 *184:11 *375:35 0.000626846
15 *184:15 *272:15 0.0491804
16 *184:15 *281:15 0.00403247
17 *184:15 *286:15 0
18 gpio_analog_pol[4] *184:9 0.00301863
19 *98:15 *184:15 0.00213138
20 *101:15 *184:15 8.73389e-06
21 *104:31 *184:15 0.000179069
22 *114:23 *184:15 0.0104637
23 *142:15 *184:15 0.0503569
24 *183:9 *184:9 0
*RES
1 *921:gpio_analog_sel[16] *184:9 13.9723 
2 *184:9 *184:11 402.622 
3 *184:11 *184:13 2 
4 *184:13 *184:15 531.06 
5 *184:15 *184:17 2 
6 *184:17 gpio_analog_sel[16] 2251.57 
*END

*D_NET *185 0.440098
*CONN
*P gpio_analog_sel[17] O
*I *921:gpio_analog_sel[17] O *D CF_CARAVEL_SOC
*CAP
1 gpio_analog_sel[17] 0.109265
2 *921:gpio_analog_sel[17] 0.000832113
3 *185:17 0.109265
4 *185:15 0.0255231
5 *185:13 0.0255231
6 *185:11 0.0163509
7 *185:9 0.017183
8 gpio_analog_sel[17] gpio_dm2[17] 0
9 gpio_analog_sel[17] *538:315 0.0316994
10 *185:9 *186:9 0
11 *185:11 *186:11 0.0211365
12 *185:11 *192:11 0.000409222
13 *185:11 *212:19 0.00188206
14 *185:11 *228:11 0.00516521
15 *185:11 *240:11 0
16 *185:11 *274:19 0.00144802
17 *143:15 *185:15 0.0742909
18 *145:15 *185:15 0
19 *170:19 *185:11 0.000125149
20 *184:9 *185:9 0
*RES
1 *921:gpio_analog_sel[17] *185:9 2.28853 
2 *185:9 *185:11 433.095 
3 *185:11 *185:13 0.5 
4 *185:13 *185:15 110.512 
5 *185:15 *185:17 0.5 
6 *185:17 gpio_analog_sel[17] 2216 
*END

*D_NET *186 0.460479
*CONN
*P gpio_analog_sel[18] O
*I *921:gpio_analog_sel[18] O *D CF_CARAVEL_SOC
*CAP
1 gpio_analog_sel[18] 0.126244
2 *921:gpio_analog_sel[18] 0.000814155
3 *186:17 0.126244
4 *186:15 0.0607227
5 *186:13 0.0607227
6 *186:11 0.00826238
7 *186:9 0.00907653
8 gpio_analog_sel[18] gpio_dm2[18] 0
9 *186:9 *187:9 0
10 *186:11 *187:11 0.0391315
11 *186:11 *192:11 0.00610489
12 *186:11 *212:19 0.00146401
13 *186:11 *228:11 0.000326268
14 *186:11 *240:11 0
15 *186:11 *275:11 0
16 *186:15 *187:15 0
17 *186:15 *274:151 0.000133244
18 *186:15 *330:25 0
19 *150:25 *186:15 9.73162e-05
20 *185:9 *186:9 0
21 *185:11 *186:11 0.0211365
*RES
1 *921:gpio_analog_sel[18] *186:9 2.25813 
2 *186:9 *186:11 443.295 
3 *186:11 *186:13 0.5 
4 *186:13 *186:15 166.739 
5 *186:15 *186:17 0.5 
6 *186:17 gpio_analog_sel[18] 2201.21 
*END

*D_NET *187 0.51558
*CONN
*P gpio_analog_sel[19] O
*I *921:gpio_analog_sel[19] O *D CF_CARAVEL_SOC
*CAP
1 gpio_analog_sel[19] 0.121657
2 *921:gpio_analog_sel[19] 0.00088402
3 *187:17 0.121657
4 *187:15 0.0824098
5 *187:13 0.0824098
6 *187:11 0.00691846
7 *187:9 0.00780248
8 gpio_analog_sel[19] gpio_dm2[19] 0
9 *187:9 *189:9 0
10 *187:9 *334:6 0.000229581
11 *187:11 *189:11 0.03922
12 *187:11 *192:11 0.00545199
13 *187:11 *228:11 0.000306921
14 *187:11 *240:11 0
15 *187:11 *275:11 0
16 *187:15 *274:151 0.000133244
17 *187:15 *319:15 0
18 *187:15 *538:169 0.00736851
19 *186:9 *187:9 0
20 *186:11 *187:11 0.0391315
21 *186:15 *187:15 0
*RES
1 *921:gpio_analog_sel[19] *187:9 2.37213 
2 *187:9 *187:11 443.295 
3 *187:11 *187:13 0.5 
4 *187:13 *187:15 231.182 
5 *187:15 *187:17 0.5 
6 *187:17 gpio_analog_sel[19] 2196.11 
*END

*D_NET *188 0.115548
*CONN
*P gpio_analog_sel[1] O
*I *921:gpio_analog_sel[1] O *D CF_CARAVEL_SOC
*CAP
1 gpio_analog_sel[1] 0.00396042
2 *921:gpio_analog_sel[1] 0.0039157
3 *188:11 0.0105725
4 *188:9 0.0105278
5 gpio_analog_sel[1] gpio_dm2[1] 0.00190601
6 gpio_analog_sel[1] gpio_holdover[1] 0.000413151
7 gpio_analog_sel[1] *283:9 0.000164413
8 *188:9 *199:9 0
9 *188:11 *243:11 0.000591752
10 *188:11 *287:13 0.0134749
11 *188:11 *304:11 0.0410716
12 *188:11 *484:11 0.000200844
13 gpio_analog_en[2] *188:11 0
14 *131:11 *188:11 0.0025675
15 *155:11 *188:11 0.0261816
16 *177:9 *188:9 0
*RES
1 *921:gpio_analog_sel[1] *188:9 8.29127 
2 *188:9 *188:11 72.9068 
3 *188:11 gpio_analog_sel[1] 9.4015 
*END

*D_NET *189 0.55836
*CONN
*P gpio_analog_sel[20] O
*I *921:gpio_analog_sel[20] O *D CF_CARAVEL_SOC
*CAP
1 gpio_analog_sel[20] 9.87705e-05
2 *921:gpio_analog_sel[20] 0.000764399
3 *189:19 0.11089
4 *189:17 0.110792
5 *189:15 0.095669
6 *189:13 0.095669
7 *189:11 0.00708107
8 *189:9 0.00784547
9 gpio_analog_sel[20] gpio_dm2[20] 0
10 gpio_analog_sel[20] *321:71 0
11 *189:9 *190:9 0.000225673
12 *189:9 *334:6 0.000229581
13 *189:11 *190:11 0.000251539
14 *189:11 *191:11 0.0395527
15 *189:11 *192:11 0.00555764
16 *189:11 *240:11 0
17 *189:11 *275:11 7.5553e-05
18 *189:15 *231:15 0
19 *189:15 *538:169 0
20 *189:19 *321:71 0
21 *189:19 *722:9 0.044232
22 *140:93 *189:15 0.000205247
23 *187:9 *189:9 0
24 *187:11 *189:11 0.03922
*RES
1 *921:gpio_analog_sel[20] *189:9 2.31387 
2 *189:9 *189:11 449.925 
3 *189:11 *189:13 0.5 
4 *189:13 *189:15 263.753 
5 *189:15 *189:17 0.5 
6 *189:17 *189:19 2184.44 
7 *189:19 gpio_analog_sel[20] 1.35 
*END

*D_NET *190 0.582664
*CONN
*P gpio_analog_sel[21] O
*I *921:gpio_analog_sel[21] O *D CF_CARAVEL_SOC
*CAP
1 gpio_analog_sel[21] 9.87705e-05
2 *921:gpio_analog_sel[21] 0.000636009
3 *190:19 0.104602
4 *190:17 0.104503
5 *190:15 0.107542
6 *190:13 0.107542
7 *190:11 0.011742
8 *190:9 0.012378
9 gpio_analog_sel[21] gpio_dm2[21] 0
10 *190:9 gpio_vtrip_sel[4] 0
11 *190:9 *191:9 0
12 *190:11 *191:11 0.0665666
13 *190:11 *194:35 0.0115669
14 *190:11 *200:11 0.018385
15 *190:11 *275:11 0.0353564
16 *190:11 *285:11 0.00126864
17 *190:15 *191:15 0
18 *190:19 gpio_dm2[21] 0
19 *190:19 *669:7 0
20 *189:9 *190:9 0.000225673
21 *189:11 *190:11 0.000251539
*RES
1 *921:gpio_analog_sel[21] *190:9 1.8528 
2 *190:9 *190:11 747.765 
3 *190:11 *190:13 0.5 
4 *190:13 *190:15 296.207 
5 *190:15 *190:17 0.5 
6 *190:17 *190:19 1884.56 
7 *190:19 gpio_analog_sel[21] 1.35 
*END

*D_NET *191 0.655818
*CONN
*P gpio_analog_sel[22] O
*I *921:gpio_analog_sel[22] O *D CF_CARAVEL_SOC
*CAP
1 gpio_analog_sel[22] 0.0814959
2 *921:gpio_analog_sel[22] 0.000762767
3 *191:17 0.0814959
4 *191:15 0.119176
5 *191:13 0.119176
6 *191:11 0.0172206
7 *191:9 0.0179834
8 gpio_analog_sel[22] gpio_dm2[22] 0
9 gpio_analog_sel[22] *539:431 0
10 gpio_analog_sel[22] *708:7 0.0980891
11 *191:9 gpio_vtrip_sel[4] 0.000240488
12 *191:9 *192:9 0
13 *191:11 *192:11 0.0133154
14 *191:11 *200:11 0.000197546
15 *191:11 *240:11 0
16 *191:15 *234:15 0
17 *191:15 *538:241 0.000329599
18 *140:113 *191:15 0.000217286
19 *189:11 *191:11 0.0395527
20 *190:9 *191:9 0
21 *190:11 *191:11 0.0665666
22 *190:15 *191:15 0
*RES
1 *921:gpio_analog_sel[22] *191:9 2.08333 
2 *191:9 *191:11 747.765 
3 *191:11 *191:13 0.5 
4 *191:13 *191:15 328.837 
5 *191:15 *191:17 0.5 
6 *191:17 gpio_analog_sel[22] 1880.42 
*END

*D_NET *192 0.625814
*CONN
*P gpio_analog_sel[23] O
*I *921:gpio_analog_sel[23] O *D CF_CARAVEL_SOC
*CAP
1 gpio_analog_sel[23] 0.00208018
2 *921:gpio_analog_sel[23] 0.000976518
3 *192:19 0.0928056
4 *192:17 0.0907254
5 *192:15 0.131247
6 *192:13 0.131247
7 *192:11 0.0328622
8 *192:9 0.0338387
9 gpio_analog_sel[23] gpio_dm2[23] 0
10 *192:9 *193:7 6.33697e-05
11 *192:9 *334:6 0.000229581
12 *192:11 *194:35 0.0442932
13 *192:11 *205:27 0.000121175
14 *192:11 *228:11 0.0207193
15 *192:11 *237:19 0.00734626
16 *192:11 *285:11 0.00585674
17 *192:15 *713:11 0
18 *192:19 *322:375 0.000562271
19 *192:19 *324:19 0
20 *192:19 *722:17 0
21 *185:11 *192:11 0.000409222
22 *186:11 *192:11 0.00610489
23 *187:11 *192:11 0.00545199
24 *189:11 *192:11 0.00555764
25 *191:9 *192:9 0
26 *191:11 *192:11 0.0133154
*RES
1 *921:gpio_analog_sel[23] *192:9 2.343 
2 *192:9 *192:11 159.557 
3 *192:11 *192:13 0.5 
4 *192:13 *192:15 361.495 
5 *192:15 *192:17 0.5 
6 *192:17 *192:19 1643.37 
7 *192:19 gpio_analog_sel[23] 36.0975 
*END

*D_NET *193 0.838353
*CONN
*P gpio_analog_sel[24] O
*I *921:gpio_analog_sel[24] O *D CF_CARAVEL_SOC
*CAP
1 gpio_analog_sel[24] 0.000249146
2 *921:gpio_analog_sel[24] 0.000136065
3 *193:63 0.0775299
4 *193:61 0.0884586
5 *193:37 0.123173
6 *193:35 0.111995
7 *193:33 0.00261667
8 *193:31 0.00477569
9 *193:9 0.00828071
10 *193:7 0.00625775
11 gpio_analog_sel[24] gpio_dm2[24] 0
12 gpio_analog_sel[24] gpio_inp_dis[24] 0
13 gpio_analog_sel[24] *237:23 1.23136e-05
14 *193:9 *204:9 0.00510296
15 *193:9 *209:11 0.000213554
16 *193:9 *211:9 0.00583175
17 *193:9 *321:41 0.000230857
18 *193:31 *197:11 0.000422034
19 *193:31 *205:27 0.00070153
20 *193:31 *285:11 0.00374663
21 *193:31 *334:34 4.3249e-05
22 *193:37 *205:53 0.10529
23 *193:37 *705:35 0.0707351
24 *193:61 *203:15 0.000589533
25 *193:61 *205:53 0.000402494
26 *193:61 *286:39 0.00204612
27 *193:61 *322:317 0
28 *193:61 *392:23 0.000298591
29 *193:61 *407:25 0.000338091
30 *193:61 *689:11 0.000357169
31 *193:61 *691:11 0.000825799
32 *193:61 *705:33 8.44688e-05
33 *193:61 *764:21 0.000363833
34 *193:61 *782:15 0
35 *193:61 *832:39 0.000443059
36 *193:63 gpio_analog_sel[28] 0
37 *193:63 gpio_vtrip_sel[24] 0.000920877
38 *193:63 *286:41 0.0735318
39 *193:63 *325:167 0
40 *193:63 *459:11 0.000369504
41 *193:63 *459:13 0.116644
42 *193:63 *466:11 0
43 gpio_analog_pol[24] *193:63 0
44 *104:31 *193:37 0
45 *109:11 *193:9 0
46 *117:39 *193:61 0.000133969
47 *140:29 *193:33 0.00058426
48 *142:11 *193:9 0
49 *142:11 *193:33 0.0115085
50 *143:11 *193:9 9.58851e-05
51 *145:9 *193:31 9.83261e-05
52 *145:11 *193:9 2.67006e-05
53 *148:11 *193:31 0
54 *149:33 *193:31 0.00140131
55 *149:35 *193:33 0.00464007
56 *152:9 *193:31 0
57 *153:25 *193:31 7.76302e-05
58 *156:11 *193:33 0.00203008
59 *164:13 *193:31 2.22315e-05
60 *164:15 *193:9 0
61 *164:15 *193:31 0.00170779
62 *165:9 *193:31 0
63 *167:15 *193:31 0.00294589
64 *192:9 *193:7 6.33697e-05
*RES
1 *921:gpio_analog_sel[24] *193:7 0.839467 
2 *193:7 *193:9 164.58 
3 *193:9 *193:31 43.5477 
4 *193:31 *193:33 129.262 
5 *193:33 *193:35 2 
6 *193:35 *193:37 2177.05 
7 *193:37 *193:61 12.9277 
8 *193:61 *193:63 2119.67 
9 *193:63 gpio_analog_sel[24] 1.0453 
*END

*D_NET *194 0.608859
*CONN
*P gpio_analog_sel[25] O
*I *921:gpio_analog_sel[25] O *D CF_CARAVEL_SOC
*CAP
1 gpio_analog_sel[25] 1.5206e-05
2 *921:gpio_analog_sel[25] 0.000984341
3 *194:39 0.141042
4 *194:37 0.141027
5 *194:35 0.0587642
6 *194:33 0.0623413
7 *194:13 0.0045615
8 *194:13 *195:9 1.40868e-05
9 *194:13 *274:27 0.00278894
10 *194:13 *327:19 0.00393191
11 *194:13 *328:11 0.000687215
12 *194:13 *334:6 0.000581364
13 *194:33 *207:9 0
14 *194:33 *208:7 3.46484e-06
15 *194:33 *208:9 0.000103384
16 *194:33 *209:11 0
17 *194:33 *212:9 0.000262458
18 *194:33 *213:9 0.000262458
19 *194:33 *327:19 0.000489536
20 *194:33 *328:11 0.00046974
21 *194:33 *334:6 0.00663869
22 *194:33 *831:81 0
23 *194:35 *205:27 0.000185282
24 *194:35 *237:19 0
25 *194:35 *275:11 0.00327547
26 *194:35 *285:11 0.117276
27 *194:39 gpio_dm2[25] 0
28 *194:39 *274:267 0
29 *194:39 *326:35 0
30 *109:21 *194:33 0.00725076
31 *139:9 *194:33 0
32 *140:17 *194:33 4.21127e-05
33 *141:21 *194:33 0
34 *190:11 *194:35 0.0115669
35 *192:11 *194:35 0.0442932
*RES
1 *921:gpio_analog_sel[25] *194:13 45.4037 
2 *194:13 *194:33 24.1646 
3 *194:33 *194:35 287.809 
4 *194:35 *194:37 0.5 
5 *194:37 *194:39 386.502 
6 *194:39 gpio_analog_sel[25] 0.0437 
*END

*D_NET *195 0.742902
*CONN
*P gpio_analog_sel[26] O
*I *921:gpio_analog_sel[26] O *D CF_CARAVEL_SOC
*CAP
1 gpio_analog_sel[26] 0.00232577
2 *921:gpio_analog_sel[26] 0.00570036
3 *195:35 0.0878789
4 *195:33 0.0855531
5 *195:31 0.0452359
6 *195:29 0.0458152
7 *195:15 0.00449991
8 *195:13 0.00392059
9 *195:11 0.0065475
10 *195:9 0.0122479
11 gpio_analog_sel[26] *327:67 0.000643941
12 *195:9 *196:9 0
13 *195:11 *263:11 0.00183697
14 *195:11 *277:11 0.000244494
15 *195:11 *692:15 0.0297988
16 *195:11 *787:27 0.00541975
17 *195:15 *196:15 0.000181682
18 *195:15 *437:31 0
19 *195:29 *198:25 8.81259e-05
20 *195:29 *198:27 6.09935e-05
21 *195:29 *205:53 3.99991e-05
22 *195:31 *196:27 0.000812904
23 *195:31 *198:27 0.0465906
24 *195:31 *281:27 0.0260501
25 *195:31 *753:19 0.00985368
26 *195:31 *754:27 0.0185659
27 *195:35 *327:67 0.257934
28 *97:15 *195:15 0.00333004
29 *107:15 *195:15 1.19928e-05
30 *112:15 *195:15 0.000759459
31 *116:53 *195:29 9.77112e-05
32 *117:35 *195:29 0
33 *117:39 *195:29 4.32417e-05
34 *140:71 *195:15 0
35 *140:81 *195:29 0
36 *151:13 gpio_analog_sel[26] 0
37 *157:39 *195:29 6.22804e-06
38 *157:39 *195:31 0.0206743
39 *165:11 *195:11 0.0201181
40 *194:13 *195:9 1.40868e-05
*RES
1 *921:gpio_analog_sel[26] *195:9 11.4668 
2 *195:9 *195:11 350.092 
3 *195:11 *195:13 2 
4 *195:13 *195:15 73.935 
5 *195:15 *195:29 10.4633 
6 *195:29 *195:31 223.037 
7 *195:31 *195:33 0.5 
8 *195:33 *195:35 379.237 
9 *195:35 gpio_analog_sel[26] 5.0179 
*END

*D_NET *196 0.775361
*CONN
*P gpio_analog_sel[27] O
*I *921:gpio_analog_sel[27] O *D CF_CARAVEL_SOC
*CAP
1 gpio_analog_sel[27] 0.00111882
2 *921:gpio_analog_sel[27] 0.00671442
3 *196:31 0.0880131
4 *196:29 0.0868943
5 *196:27 0.0187788
6 *196:25 0.0189603
7 *196:15 0.0025935
8 *196:13 0.00241199
9 *196:11 0.00738638
10 *196:9 0.0141008
11 gpio_analog_sel[27] *328:65 0.00150774
12 gpio_analog_sel[27] *410:11 3.20913e-05
13 gpio_analog_sel[27] *811:11 5.0674e-05
14 *196:11 *206:35 0.00102614
15 *196:11 *230:11 0.00729105
16 *196:11 *283:11 0.000214833
17 *196:11 *337:27 0.00944066
18 *196:11 *698:15 0.029414
19 *196:15 *198:15 0.00871329
20 *196:25 *198:25 8.78011e-05
21 *196:25 *392:35 0.000134703
22 *196:27 *198:27 0.0794304
23 *196:27 *242:27 0.0798077
24 *196:27 *281:27 0.0289068
25 *196:27 *326:31 0.0172408
26 *196:27 *831:41 0.000369618
27 *196:31 *240:15 0
28 *196:31 *328:65 0.257676
29 *95:17 *196:25 8.05889e-05
30 *112:15 *196:15 0.005891
31 *116:53 *196:25 7.80759e-05
32 *158:22 *196:27 0
33 *195:9 *196:9 0
34 *195:15 *196:15 0.000181682
35 *195:31 *196:27 0.000812904
*RES
1 *921:gpio_analog_sel[27] *196:9 13.1565 
2 *196:9 *196:11 344.737 
3 *196:11 *196:13 2 
4 *196:13 *196:15 82.215 
5 *196:15 *196:25 6.4179 
6 *196:25 *196:27 196.767 
7 *196:27 *196:29 0.5 
8 *196:29 *196:31 381.539 
9 *196:31 gpio_analog_sel[27] 4.83883 
*END

*D_NET *197 0.493377
*CONN
*P gpio_analog_sel[28] O
*I *921:gpio_analog_sel[28] O *D CF_CARAVEL_SOC
*CAP
1 gpio_analog_sel[28] 0.00136526
2 *921:gpio_analog_sel[28] 0.000818837
3 *197:15 0.142472
4 *197:13 0.141106
5 *197:11 0.0511572
6 *197:9 0.051976
7 gpio_analog_sel[28] gpio_dm2[28] 0
8 gpio_analog_sel[28] *325:167 0.00207268
9 *197:9 *198:9 0.000171235
10 *197:9 *334:6 0.000229581
11 *197:11 *200:11 0.0345223
12 *197:11 *206:27 4.22598e-05
13 *197:11 *214:11 0.000894613
14 *197:11 *227:11 0.0313376
15 *197:11 *274:51 0.00130342
16 *197:11 *285:11 0.0207896
17 *197:11 *831:83 0.0118532
18 *197:15 gpio_oeb[28] 0
19 *197:15 *322:375 0.000290024
20 *197:15 *538:289 0.000552756
21 *197:15 *681:21 0
22 *140:265 *197:15 0
23 *149:35 *197:11 0
24 *167:13 *197:11 0
25 *167:15 *197:11 0
26 *193:31 *197:11 0.000422034
27 *193:63 gpio_analog_sel[28] 0
*RES
1 *921:gpio_analog_sel[28] *197:9 1.96427 
2 *197:9 *197:11 1322.54 
3 *197:11 *197:13 0.5 
4 *197:13 *197:15 385.647 
5 *197:15 gpio_analog_sel[28] 25.9572 
*END

*D_NET *198 0.579021
*CONN
*P gpio_analog_sel[29] O
*I *921:gpio_analog_sel[29] O *D CF_CARAVEL_SOC
*CAP
1 gpio_analog_sel[29] 0.00126336
2 *921:gpio_analog_sel[29] 0.00714082
3 *198:31 0.12603
4 *198:29 0.124767
5 *198:27 0.0152207
6 *198:25 0.0154258
7 *198:15 0.00295835
8 *198:13 0.0027532
9 *198:11 0.00658288
10 *198:9 0.0137237
11 gpio_analog_sel[29] *330:33 0.000305868
12 gpio_analog_sel[29] *447:17 0
13 gpio_analog_sel[29] *548:23 0.000225955
14 *198:11 *229:11 0.0104528
15 *198:11 *375:35 0.0106854
16 *198:15 *436:23 0.000253983
17 *198:25 *392:35 0
18 *198:25 *744:11 8.92058e-06
19 *198:31 gpio_holdover[29] 0.00179813
20 *198:31 *330:33 0.068994
21 *198:31 *726:21 0
22 *95:17 *198:25 4.20745e-05
23 *112:15 *198:15 6.44082e-05
24 *116:53 *198:25 2.22315e-05
25 *140:229 *198:31 0
26 *157:39 *198:27 0
27 *162:15 *198:15 0.00607441
28 *184:11 *198:11 0.0290847
29 *195:29 *198:25 8.81259e-05
30 *195:29 *198:27 6.09935e-05
31 *195:31 *198:27 0.0465906
32 *196:15 *198:15 0.00871329
33 *196:25 *198:25 8.78011e-05
34 *196:27 *198:27 0.0794304
35 *197:9 *198:9 0.000171235
*RES
1 *921:gpio_analog_sel[29] *198:9 14.0305 
2 *198:9 *198:11 336.323 
3 *198:11 *198:13 2 
4 *198:13 *198:15 88.425 
5 *198:15 *198:25 6.61463 
6 *198:25 *198:27 141.727 
7 *198:27 *198:29 0.5 
8 *198:29 *198:31 381.714 
9 *198:31 gpio_analog_sel[29] 6.1383 
*END

*D_NET *199 0.0613865
*CONN
*P gpio_analog_sel[2] O
*I *921:gpio_analog_sel[2] O *D CF_CARAVEL_SOC
*CAP
1 gpio_analog_sel[2] 0.00276955
2 *921:gpio_analog_sel[2] 0.00509964
3 *199:13 0.0197311
4 *199:9 0.0220612
5 gpio_analog_sel[2] gpio_dm2[2] 0.00119452
6 gpio_analog_sel[2] *267:21 0
7 *199:9 *210:9 0
8 *199:13 *242:11 0.00112546
9 *199:13 *298:11 0.00194163
10 *199:13 *303:11 0
11 *199:13 *337:11 0.00486777
12 *114:11 *199:13 0.00120939
13 *166:13 *199:13 0.00138632
14 *188:9 *199:9 0
*RES
1 *921:gpio_analog_sel[2] *199:9 10.6219 
2 *199:9 *199:13 46.1025 
3 *199:13 gpio_analog_sel[2] 5.98817 
*END

*D_NET *200 0.468789
*CONN
*P gpio_analog_sel[30] O
*I *921:gpio_analog_sel[30] O *D CF_CARAVEL_SOC
*CAP
1 gpio_analog_sel[30] 0.00058244
2 *921:gpio_analog_sel[30] 0.000872615
3 *200:15 0.142697
4 *200:13 0.142115
5 *200:11 0.0228939
6 *200:9 0.0237665
7 gpio_analog_sel[30] *332:25 3.48545e-05
8 gpio_analog_sel[30] *459:13 0.000975666
9 *200:9 *201:9 0.000189411
10 *200:9 *334:6 0.000229581
11 *200:11 *227:11 0.0306067
12 *200:11 *275:11 0.0319227
13 *200:11 *285:11 0.0187975
14 *200:15 gpio_vtrip_sel[30] 0
15 *200:15 *728:21 0
16 *190:11 *200:11 0.018385
17 *191:11 *200:11 0.000197546
18 *197:11 *200:11 0.0345223
*RES
1 *921:gpio_analog_sel[30] *200:9 2.0808 
2 *200:9 *200:11 1003.78 
3 *200:11 *200:13 0.5 
4 *200:13 *200:15 386.171 
5 *200:15 gpio_analog_sel[30] 12.6717 
*END

*D_NET *201 0.436195
*CONN
*P gpio_analog_sel[31] O
*I *921:gpio_analog_sel[31] O *D CF_CARAVEL_SOC
*CAP
1 gpio_analog_sel[31] 0.000106382
2 *921:gpio_analog_sel[31] 0.00610522
3 *201:15 0.147351
4 *201:13 0.147245
5 *201:11 0.0351313
6 *201:9 0.0412365
7 *201:9 *202:9 0
8 *201:11 *218:11 0
9 *201:11 *269:11 0
10 *201:11 *273:11 0.0303994
11 *201:15 gpio_dm2[31] 0
12 *201:15 gpio_holdover[31] 0
13 *201:15 *770:17 0
14 *183:11 *201:11 0.0284302
15 *200:9 *201:9 0.000189411
*RES
1 *921:gpio_analog_sel[31] *201:9 12.2243 
2 *201:9 *201:11 849.765 
3 *201:11 *201:13 0.5 
4 *201:13 *201:15 396.961 
5 *201:15 gpio_analog_sel[31] 0.2261 
*END

*D_NET *202 0.575357
*CONN
*P gpio_analog_sel[32] O
*I *921:gpio_analog_sel[32] O *D CF_CARAVEL_SOC
*CAP
1 gpio_analog_sel[32] 0.00129471
2 *921:gpio_analog_sel[32] 0.00478251
3 *202:27 0.0815322
4 *202:25 0.0822932
5 *202:11 0.00778246
6 *202:9 0.0105093
7 gpio_analog_sel[32] *334:44 0.000427963
8 gpio_analog_sel[32] *447:17 0
9 gpio_analog_sel[32] *548:23 0.000225963
10 *202:9 *203:9 0
11 *202:11 *307:11 0.0102507
12 *202:25 *312:19 0.000532351
13 *202:25 *535:121 0.000476082
14 *202:25 *692:13 3.32753e-05
15 *202:27 *316:15 0.0122603
16 *202:27 *334:36 0.0665502
17 *202:27 *334:44 0.000116749
18 *202:27 *361:17 0.00269572
19 *202:27 *361:33 0.00767028
20 *202:27 *681:15 0.00046263
21 *202:27 *685:15 0.00070228
22 *202:27 *723:15 0.00287393
23 *202:27 *725:11 0.00110912
24 *202:27 *726:15 0
25 *202:27 *728:15 0.00249966
26 *202:27 *729:15 0.00118158
27 *202:27 *730:19 0
28 *202:27 *753:15 0.0388588
29 *202:27 *754:23 0.0354318
30 *202:27 *757:15 0.00452294
31 *202:27 *759:15 0.0120048
32 *202:27 *761:15 0.0826907
33 *202:27 *873:61 0.0581186
34 *104:11 *202:11 0.00530789
35 *104:27 *202:25 0.000164905
36 *113:11 *202:11 0.0289926
37 *113:11 *202:25 0.000467784
38 *113:19 *202:25 1.86715e-05
39 *161:15 *202:25 1.02564e-05
40 *176:11 *202:25 0.00223673
41 *181:11 *202:11 0.00625706
42 *181:11 *202:25 0.00150807
43 *182:19 *202:25 0.000476082
44 *183:17 *202:25 2.60513e-05
45 *201:9 *202:9 0
*RES
1 *921:gpio_analog_sel[32] *202:9 9.7188 
2 *202:9 *202:11 322.425 
3 *202:11 *202:25 9.09367 
4 *202:25 *202:27 391.969 
5 *202:27 gpio_analog_sel[32] 6.0927 
*END

*D_NET *203 0.777219
*CONN
*P gpio_analog_sel[33] O
*I *921:gpio_analog_sel[33] O *D CF_CARAVEL_SOC
*CAP
1 gpio_analog_sel[33] 0.0104236
2 *921:gpio_analog_sel[33] 0.00458699
3 *203:15 0.0457761
4 *203:13 0.0353525
5 *203:11 0.00836183
6 *203:9 0.0129488
7 gpio_analog_sel[33] gpio_dm2[33] 0
8 gpio_analog_sel[33] *247:19 0.00188082
9 gpio_analog_sel[33] *363:11 0.0020749
10 gpio_analog_sel[33] *374:11 0.0117455
11 gpio_analog_sel[33] *376:11 0.00155888
12 gpio_analog_sel[33] *453:25 0.000105649
13 gpio_analog_sel[33] *458:11 0.0019309
14 gpio_analog_sel[33] *472:25 0.000641096
15 gpio_analog_sel[33] *737:39 0.000155688
16 *203:9 *204:7 0
17 *203:11 *225:19 0.0055791
18 *203:11 *274:91 0.000141078
19 *203:11 *315:11 0.000828707
20 *203:11 *321:11 0.000148561
21 *203:15 *205:53 0.00033469
22 *203:15 *246:21 3.92756e-05
23 *203:15 *691:11 0.236529
24 *203:15 *705:33 0.0462829
25 *203:15 *745:11 0.0125215
26 *203:15 *832:39 0.259687
27 *203:15 *832:49 0.000698657
28 *104:31 *203:15 0.00893583
29 *112:11 *203:11 0.00523011
30 *114:23 *203:15 0
31 *128:11 *203:11 0.00876079
32 *129:11 *203:11 0.00943828
33 *136:11 *203:11 0.00250447
34 *139:11 *203:11 0.00420604
35 *141:21 *203:11 0.000150934
36 *141:29 *203:15 0.0176116
37 *162:11 *203:11 0.000992516
38 *175:11 *203:11 0.009321
39 *182:17 *203:11 0.0091448
40 *193:61 *203:15 0.000589533
41 *202:9 *203:9 0
*RES
1 *921:gpio_analog_sel[33] *203:9 8.64087 
2 *203:9 *203:11 55.7663 
3 *203:11 *203:13 0.5 
4 *203:13 *203:15 383.083 
5 *203:15 gpio_analog_sel[33] 32.9637 
*END

*D_NET *204 0.64047
*CONN
*P gpio_analog_sel[34] O
*I *921:gpio_analog_sel[34] O *D CF_CARAVEL_SOC
*CAP
1 gpio_analog_sel[34] 0.000397613
2 *921:gpio_analog_sel[34] 0.000107199
3 *204:45 0.00564395
4 *204:43 0.0112913
5 *204:33 0.0534657
6 *204:31 0.048378
7 *204:21 0.0027776
8 *204:19 0.00184604
9 *204:17 0.000942922
10 *204:15 0.00119087
11 *204:9 0.0030751
12 *204:7 0.00290867
13 gpio_analog_sel[34] gpio_dm2[34] 0
14 gpio_analog_sel[34] gpio_inp_dis[34] 6.75356e-05
15 *204:7 *205:27 0
16 *204:9 *208:9 0.000105649
17 *204:9 *211:9 0.002188
18 *204:9 *288:25 1.79483e-05
19 *204:9 *327:19 0.00526165
20 *204:9 *327:29 0.000183085
21 *204:17 *288:53 0.00019789
22 *204:17 *334:34 0.000177213
23 *204:17 *787:49 0.000650805
24 *204:17 *788:49 0.00143265
25 *204:21 *241:19 0.001433
26 *204:21 *788:49 0.000388103
27 *204:21 *831:61 0.001215
28 *204:31 *274:125 0.000403513
29 *204:31 *326:15 0.000666603
30 *204:31 *436:23 0
31 *204:31 *692:13 0.00013827
32 *204:31 *698:13 0
33 *204:33 *456:15 0.00295941
34 *204:33 *690:11 0.217422
35 *204:33 *693:11 0.00886266
36 *204:33 *699:6 0.0257524
37 *204:33 *731:6 0.000203813
38 *204:33 *732:6 0.00201669
39 *204:33 *733:6 0.021023
40 *204:33 *735:11 0.000574792
41 *204:33 *736:11 0.0935846
42 *204:33 *739:6 0.00304212
43 *204:33 *740:11 0.000366456
44 *204:33 *741:6 0.00365055
45 *204:43 *206:51 7.90275e-05
46 *204:43 *325:165 0.000217671
47 *204:43 *690:21 0.000445884
48 *204:43 *731:16 0
49 *204:43 *733:6 0.0041517
50 *204:43 *734:11 0.00468267
51 *204:45 *206:59 0.000876405
52 *204:45 *291:27 0.00465596
53 *204:45 *322:293 0.0136287
54 *204:45 *459:13 0.0239641
55 *97:15 *204:33 0.0179712
56 *107:15 *204:33 6.63221e-05
57 *109:21 *204:9 0.000221865
58 *109:25 *204:21 0.0019653
59 *112:15 *204:33 0.00102153
60 *116:27 *204:17 0.000779976
61 *140:17 *204:9 0.00241322
62 *140:17 *204:15 9.50342e-06
63 *140:25 *204:15 0.000520913
64 *140:25 *204:17 0.000992685
65 *145:11 *204:9 0
66 *146:15 *204:9 0.000205523
67 *147:11 *204:9 0.000738044
68 *147:11 *204:15 0.000409922
69 *150:19 *204:21 0.00389214
70 *151:9 *204:15 0.000206873
71 *151:9 *204:17 0.00101149
72 *151:9 *204:21 0.0100227
73 *157:17 *204:17 0.0028422
74 *162:15 *204:33 0.0111322
75 *163:33 *204:43 0
76 *163:35 *204:45 0.000231275
77 *193:9 *204:9 0.00510296
78 *203:9 *204:7 0
*RES
1 *921:gpio_analog_sel[34] *204:7 0.722933 
2 *204:7 *204:9 138.93 
3 *204:9 *204:15 11.355 
4 *204:15 *204:17 52.125 
5 *204:17 *204:19 0.45 
6 *204:19 *204:21 111.668 
7 *204:21 *204:31 25.305 
8 *204:31 *204:33 2173.6 
9 *204:33 *204:43 19.3596 
10 *204:43 *204:45 277.035 
11 *204:45 gpio_analog_sel[34] 1.3303 
*END

*D_NET *205 0.935892
*CONN
*P gpio_analog_sel[35] O
*I *921:gpio_analog_sel[35] O *D CF_CARAVEL_SOC
*CAP
1 gpio_analog_sel[35] 0.00324506
2 *921:gpio_analog_sel[35] 0.0117126
3 *205:67 0.0143922
4 *205:63 0.0125325
5 *205:57 0.00446789
6 *205:55 0.00308244
7 *205:53 0.042858
8 *205:51 0.0441547
9 *205:47 0.00237107
10 *205:35 0.0090369
11 *205:27 0.0196751
12 gpio_analog_sel[35] gpio_dm2[35] 0.000468547
13 gpio_analog_sel[35] *761:9 0
14 *205:27 *206:27 0.000500354
15 *205:27 *207:11 0.000118136
16 *205:27 *209:11 0.000922251
17 *205:27 *213:11 0.000359229
18 *205:27 *214:11 0.0030211
19 *205:27 *228:11 0.000121175
20 *205:27 *235:11 0.000121175
21 *205:27 *274:51 0.000854841
22 *205:27 *285:11 0.00673363
23 *205:27 *321:41 0.00521272
24 *205:27 *328:51 0
25 *205:27 *392:35 0.000261013
26 *205:35 *206:43 0.00292565
27 *205:35 *283:11 0.000865566
28 *205:35 *327:61 0.00040086
29 *205:47 gpio_dm2[6] 0.00014399
30 *205:47 *206:43 0.000582948
31 *205:47 *283:11 0.000864529
32 *205:47 *327:61 0.000432062
33 *205:51 gpio_ib_mode_sel[6] 0.0023895
34 *205:51 *218:11 0.00070417
35 *205:51 *273:11 0
36 *205:51 *274:119 6.63219e-06
37 *205:51 *789:27 0.00278779
38 *205:53 *246:21 4.2145e-05
39 *205:53 *392:23 0.140163
40 *205:53 *661:15 0.000871028
41 *205:53 *672:11 1.19292e-05
42 *205:53 *683:11 0
43 *205:53 *691:11 0.000436557
44 *205:53 *705:33 0.0454053
45 *205:53 *705:35 0.0165174
46 *205:53 *765:17 0.000239804
47 *205:53 *832:37 0.00140311
48 *205:53 *832:39 0.259819
49 *205:53 *832:49 0.000548806
50 *205:57 *404:11 0.0147196
51 *205:57 *691:15 0.000711942
52 *205:57 *789:19 0.0134522
53 *205:63 *378:9 0.000213591
54 *205:67 *398:19 0.00526013
55 *205:67 *412:11 0.00413062
56 *205:67 *422:11 0.0264214
57 *205:67 *437:11 0.000543535
58 *205:67 *769:11 0
59 *205:67 *813:11 0.0059717
60 *205:67 *814:11 0.00504001
61 *109:21 *205:27 0
62 *116:53 *205:27 0.000703893
63 *117:35 *205:27 0.000194833
64 *117:39 *205:53 0.0692546
65 *141:21 *205:53 0.00053513
66 *141:29 *205:53 0.0146802
67 *148:11 *205:27 9.97051e-05
68 *158:22 *205:27 0.00191082
69 *167:15 *205:27 0.00118985
70 *192:11 *205:27 0.000121175
71 *193:31 *205:27 0.00070153
72 *193:37 *205:53 0.10529
73 *193:61 *205:53 0.000402494
74 *194:35 *205:27 0.000185282
75 *195:29 *205:53 3.99991e-05
76 *203:15 *205:53 0.00033469
77 *204:7 *205:27 0
*RES
1 *921:gpio_analog_sel[35] *205:27 39.7211 
2 *205:27 *205:35 48.0704 
3 *205:35 *205:47 17.9851 
4 *205:47 *205:51 47.525 
5 *205:51 *205:53 393.221 
6 *205:53 *205:55 0.5 
7 *205:55 *205:57 170.445 
8 *205:57 *205:63 3.51433 
9 *205:63 *205:67 47.8252 
10 *205:67 gpio_analog_sel[35] 5.98943 
*END

*D_NET *206 0.946153
*CONN
*P gpio_analog_sel[36] O
*I *921:gpio_analog_sel[36] O *D CF_CARAVEL_SOC
*CAP
1 gpio_analog_sel[36] 0.000416744
2 *921:gpio_analog_sel[36] 0.00381071
3 *206:59 0.0102243
4 *206:57 0.0154283
5 *206:51 0.00980824
6 *206:49 0.00418749
7 *206:47 0.0360672
8 *206:45 0.0360672
9 *206:43 0.00327651
10 *206:41 0.00358577
11 *206:35 0.00170015
12 *206:33 0.00685523
13 *206:27 0.00639417
14 *206:25 0.00222653
15 *206:21 0.00232853
16 *206:17 0.00484254
17 gpio_analog_sel[36] gpio_dm2[36] 0
18 *206:17 *207:9 0.000177289
19 *206:17 *288:25 0.000133187
20 *206:17 *321:25 0.000133187
21 *206:17 *683:15 0.000599183
22 *206:21 *314:19 0
23 *206:21 *337:19 0.00151429
24 *206:21 *351:11 0.000175419
25 *206:21 *699:10 0.00421564
26 *206:27 *274:51 0.00568121
27 *206:33 *327:29 0.00486551
28 *206:35 *230:11 0.00653711
29 *206:35 *337:27 0.00472719
30 *206:43 *230:11 0
31 *206:43 *274:119 2.13565e-05
32 *206:43 *274:123 0.00112559
33 *206:43 *283:11 0
34 *206:43 *392:57 0.000216466
35 *206:43 *436:27 0.00892782
36 *206:43 *571:39 0.000863625
37 *206:47 *228:25 0.0120876
38 *206:47 *230:25 0
39 *206:47 *247:15 0.255763
40 *206:47 *274:135 0.000737525
41 *206:47 *286:39 0.0514491
42 *206:47 *321:67 0.0642893
43 *206:47 *375:31 0.259534
44 *206:51 *375:27 0.000451628
45 *206:51 *454:17 0
46 *206:51 *472:27 0.00921073
47 *206:51 *541:127 0
48 *206:51 *544:25 4.72496e-05
49 *206:51 *737:17 0
50 *206:51 *737:39 0.00115727
51 *206:51 *756:6 0.00188082
52 *206:57 gpio_dm0[33] 0.00601384
53 *206:57 *390:9 0.00558112
54 *206:57 *454:23 0.000144792
55 *206:57 *543:37 0
56 *206:59 *322:293 0.0266752
57 *206:59 *459:13 0.00590234
58 gpio_analog_en[33] *206:57 0.00029061
59 gpio_analog_pol[33] *206:57 0
60 *102:11 *206:17 0.000283551
61 *110:11 *206:17 0.00138397
62 *163:35 *206:59 0.0432312
63 *167:15 *206:27 0.00578737
64 *174:9 *206:25 0.000542702
65 *175:9 *206:25 0.000542702
66 *196:11 *206:35 0.00102614
67 *197:11 *206:27 4.22598e-05
68 *204:43 *206:51 7.90275e-05
69 *204:45 *206:59 0.000876405
70 *205:27 *206:27 0.000500354
71 *205:35 *206:43 0.00292565
72 *205:47 *206:43 0.000582948
*RES
1 *921:gpio_analog_sel[36] *206:17 23.8869 
2 *206:17 *206:21 47.525 
3 *206:21 *206:25 3.91747 
4 *206:25 *206:27 64.365 
5 *206:27 *206:33 12.8661 
6 *206:33 *206:35 75.585 
7 *206:35 *206:41 1.50413 
8 *206:41 *206:43 121.485 
9 *206:43 *206:45 0.5 
10 *206:45 *206:47 381.859 
11 *206:47 *206:49 0.5 
12 *206:49 *206:51 118.935 
13 *206:51 *206:57 16.1873 
14 *206:57 *206:59 499.905 
15 *206:59 gpio_analog_sel[36] 1.38603 
*END

*D_NET *207 0.876325
*CONN
*P gpio_analog_sel[37] O
*I *921:gpio_analog_sel[37] O *D CF_CARAVEL_SOC
*CAP
1 gpio_analog_sel[37] 0.00366247
2 *921:gpio_analog_sel[37] 0.000503773
3 *207:51 0.0129361
4 *207:49 0.0103055
5 *207:39 0.010877
6 *207:37 0.0107709
7 *207:31 0.0200644
8 *207:29 0.0198757
9 *207:23 0.00862244
10 *207:21 0.00788529
11 *207:19 0.0294169
12 *207:17 0.0317082
13 *207:11 0.00391673
14 *207:9 0.00212922
15 gpio_analog_sel[37] gpio_dm2[37] 0.00067838
16 gpio_analog_sel[37] gpio_holdover[37] 0.00098905
17 *207:11 *209:11 0.000604645
18 *207:19 gpio_dm2[2] 0.00102312
19 *207:19 *247:11 0.0561883
20 *207:19 *254:11 0.00149497
21 *207:19 *270:17 0.00285916
22 *207:19 *430:27 0.009305
23 *207:19 *445:19 0
24 *207:19 *530:113 0
25 *207:19 *567:18 0
26 *207:23 *335:17 0.0502539
27 *207:23 *353:31 0.0579296
28 *207:23 *830:15 0.00397735
29 *207:23 *856:11 0.00159626
30 *207:23 *864:11 0.0126285
31 *207:29 gpio_dm1[43] 0
32 *207:31 gpio_dm1[39] 0.00560356
33 *207:31 gpio_out[42] 0.00021271
34 *207:31 *428:23 0.00433296
35 *207:31 *549:13 0.148473
36 *207:31 *692:35 0.00919495
37 *207:31 *693:193 0.00801088
38 *207:31 *697:115 0.00432217
39 *207:31 *848:11 0.14847
40 *207:39 *336:55 0.0075858
41 *207:39 *435:23 0.0214731
42 *207:39 *553:13 1.42598e-05
43 *207:39 *749:27 0.00337883
44 *207:49 *465:21 0.00409718
45 *207:49 *851:15 1.23312e-05
46 *207:49 *853:17 1.39062e-05
47 *207:51 *339:27 0.0447075
48 *207:51 *544:17 0.0456166
49 *98:11 *207:19 0.0132433
50 *116:19 *207:11 0.00960221
51 *119:23 *207:39 0.00725368
52 *119:23 *207:49 0.00409496
53 *119:27 *207:51 0.000476121
54 *144:11 *207:19 0.00403619
55 *167:15 *207:11 0.00960055
56 *194:33 *207:9 0
57 *205:27 *207:11 0.000118136
58 *206:17 *207:9 0.000177289
*RES
1 *921:gpio_analog_sel[37] *207:9 1.50067 
2 *207:9 *207:11 107.842 
3 *207:11 *207:17 37.225 
4 *207:17 *207:19 884.445 
5 *207:19 *207:21 2 
6 *207:21 *207:23 533.475 
7 *207:23 *207:29 14.305 
8 *207:29 *207:31 1366.31 
9 *207:31 *207:37 16.6 
10 *207:37 *207:39 336.48 
11 *207:39 *207:49 9.87657 
12 *207:49 *207:51 527.445 
13 *207:51 gpio_analog_sel[37] 8.45277 
*END

*D_NET *208 0.600097
*CONN
*P gpio_analog_sel[38] O
*I *921:gpio_analog_sel[38] O *D CF_CARAVEL_SOC
*CAP
1 gpio_analog_sel[38] 0.00118062
2 *921:gpio_analog_sel[38] 0.000129329
3 *208:29 0.0165542
4 *208:27 0.0154833
5 *208:21 0.0176591
6 *208:19 0.0176528
7 *208:9 0.0461285
8 *208:7 0.0461543
9 gpio_analog_sel[38] gpio_dm2[38] 0
10 *208:7 *209:9 0
11 *208:9 *209:11 0.0134743
12 *208:9 *211:9 0.00743821
13 *208:9 *328:11 0.00302959
14 *208:9 *334:6 0.015234
15 *208:9 *340:33 0.00456272
16 *208:9 *341:12 0.002232
17 *208:9 *341:14 0
18 *208:19 *255:15 1.70468e-05
19 *208:19 *845:9 1.78771e-05
20 *208:21 *289:23 0.119772
21 *208:21 *571:27 0.0761672
22 *208:21 *749:27 0.0179195
23 *208:21 *838:11 0.0280075
24 *208:27 gpio_dm0[40] 7.28221e-05
25 *208:29 *435:23 0.0154144
26 *208:29 *739:130 0.0356837
27 *208:29 *841:11 0.0368949
28 gpio_analog_pol[40] *208:27 0
29 *119:23 *208:29 0.0172063
30 *123:11 *208:9 0.000890036
31 *124:9 *208:9 0.00865991
32 *126:11 *208:9 0.00108833
33 *164:23 *208:9 0.035115
34 *167:19 *208:19 4.48076e-05
35 *194:33 *208:7 3.46484e-06
36 *194:33 *208:9 0.000103384
37 *204:9 *208:9 0.000105649
*RES
1 *921:gpio_analog_sel[38] *208:7 0.752067 
2 *208:7 *208:9 167.697 
3 *208:9 *208:19 3.6129 
4 *208:19 *208:21 1102.38 
5 *208:21 *208:27 4.7725 
6 *208:27 *208:29 101.48 
7 *208:29 gpio_analog_sel[38] 16.4675 
*END

*D_NET *209 0.644431
*CONN
*P gpio_analog_sel[39] O
*I *921:gpio_analog_sel[39] O *D CF_CARAVEL_SOC
*CAP
1 gpio_analog_sel[39] 0.00185234
2 *921:gpio_analog_sel[39] 0.000297463
3 *209:15 0.0266889
4 *209:13 0.0248366
5 *209:11 0.0429809
6 *209:9 0.0432783
7 gpio_analog_sel[39] gpio_dm2[39] 0
8 *209:9 *211:7 0
9 *209:9 *321:25 2.82743e-05
10 *209:11 *214:11 0.0374259
11 *209:11 *343:11 0.00611266
12 *209:11 *344:11 0.00731315
13 *209:11 *345:11 0.00587457
14 *209:15 *213:15 0.0756877
15 *209:15 *253:15 0.144355
16 *209:15 *294:15 0.0331334
17 *209:15 *474:15 0.0130909
18 *209:15 *559:19 0.0247674
19 *209:15 *847:16 0.0683026
20 *109:11 *209:11 0.00158482
21 *109:21 *209:9 0.000229788
22 *109:21 *209:11 2.18186e-05
23 *116:19 *209:11 0.00139232
24 *121:11 *209:11 0.00124044
25 *164:15 *209:11 0.000855792
26 *164:23 *209:11 0.0597352
27 *167:15 *209:11 0.0079392
28 *169:15 *209:15 0.000191509
29 *193:9 *209:11 0.000213554
30 *194:33 *209:11 0
31 *205:27 *209:11 0.000922251
32 *207:11 *209:11 0.000604645
33 *208:7 *209:9 0
34 *208:9 *209:11 0.0134743
*RES
1 *921:gpio_analog_sel[39] *209:9 1.18273 
2 *209:9 *209:11 167.309 
3 *209:11 *209:13 0.5 
4 *209:13 *209:15 219.208 
5 *209:15 gpio_analog_sel[39] 25.6775 
*END

*D_NET *210 0.0391023
*CONN
*P gpio_analog_sel[3] O
*I *921:gpio_analog_sel[3] O *D CF_CARAVEL_SOC
*CAP
1 gpio_analog_sel[3] 0.000747794
2 *921:gpio_analog_sel[3] 0.00725605
3 *210:11 0.00257727
4 *210:9 0.00908553
5 gpio_analog_sel[3] gpio_dm2[3] 0.00123721
6 *210:9 gpio_analog_sel[4] 0
7 *210:11 *262:11 0.00909976
8 *210:11 *782:55 0.00909864
9 *199:9 *210:9 0
*RES
1 *921:gpio_analog_sel[3] *210:9 14.4384 
2 *210:9 *210:11 105.165 
3 *210:11 gpio_analog_sel[3] 2.55517 
*END

*D_NET *211 0.498059
*CONN
*P gpio_analog_sel[40] O
*I *921:gpio_analog_sel[40] O *D CF_CARAVEL_SOC
*CAP
1 gpio_analog_sel[40] 0.00227016
2 *921:gpio_analog_sel[40] 0.000128696
3 *211:13 0.0239857
4 *211:11 0.0217156
5 *211:9 0.0324574
6 *211:7 0.0325861
7 gpio_analog_sel[40] gpio_dm2[40] 0
8 *211:7 *212:9 5.15763e-05
9 *211:9 *258:11 0
10 *211:9 *258:15 0
11 *211:9 *300:17 0
12 *211:9 *327:19 0.00995661
13 *211:9 *328:11 0
14 *211:9 *340:11 0
15 *211:9 *340:33 0
16 *211:13 *212:23 0.0983443
17 *211:13 *256:15 0.000181141
18 *211:13 *292:15 0.028046
19 *211:13 *295:15 0.0257137
20 *211:13 *299:23 0.120995
21 *211:13 *815:49 0.00441296
22 *211:13 *839:101 0.00231994
23 *211:13 *839:133 0.0040571
24 *211:13 *858:11 0.00233636
25 *109:11 *211:9 0
26 *124:9 *211:9 0.0727457
27 *126:11 *211:9 0.000297218
28 *193:9 *211:9 0.00583175
29 *204:9 *211:9 0.002188
30 *208:9 *211:9 0.00743821
31 *209:9 *211:7 0
*RES
1 *921:gpio_analog_sel[40] *211:7 0.7812 
2 *211:7 *211:9 988.74 
3 *211:9 *211:11 0.5 
4 *211:11 *211:13 184.219 
5 *211:13 gpio_analog_sel[40] 31.5725 
*END

*D_NET *212 0.430813
*CONN
*P gpio_analog_sel[41] O
*I *921:gpio_analog_sel[41] O *D CF_CARAVEL_SOC
*CAP
1 gpio_analog_sel[41] 0.0023298
2 *921:gpio_analog_sel[41] 0.00184884
3 *212:23 0.020125
4 *212:21 0.0177952
5 *212:19 0.0244511
6 *212:17 0.0253195
7 *212:11 0.00347189
8 *212:9 0.00445235
9 gpio_analog_sel[41] gpio_dm2[41] 0
10 *212:9 *213:9 0
11 *212:9 *288:25 0.00122564
12 *212:9 *321:25 0
13 *212:11 *534:15 0
14 *212:17 gpio_vtrip_sel[4] 0.00143181
15 *212:19 *228:11 0.00831903
16 *212:19 *249:11 0.0222642
17 *212:19 *255:11 0
18 *212:19 *274:19 0.00878319
19 *212:19 *275:11 0
20 *212:19 *289:11 0.00147291
21 *212:19 *295:11 0
22 *212:19 *325:11 0.0173577
23 *212:23 gpio_dm0[43] 0.00259206
24 *212:23 *256:15 0.000269292
25 *212:23 *539:49 0.00101402
26 *212:23 *815:49 0.00858536
27 *212:23 *839:17 0.0468706
28 *212:23 *839:53 0.0064813
29 *212:23 *839:69 0.0161463
30 *212:23 *839:101 0.0114407
31 *212:23 *858:11 0.0225312
32 *91:11 *212:11 0.000868518
33 *107:11 *212:11 0.00662139
34 *118:11 *212:19 0.0230844
35 *118:107 *212:23 0.00110696
36 *165:21 gpio_analog_sel[41] 5.95547e-05
37 *170:19 *212:19 0.0204884
38 *185:11 *212:19 0.00188206
39 *186:11 *212:19 0.00146401
40 *194:33 *212:9 0.000262458
41 *211:7 *212:9 5.15763e-05
42 *211:13 *212:23 0.0983443
*RES
1 *921:gpio_analog_sel[41] *212:9 4.76107 
2 *212:9 *212:11 74.055 
3 *212:11 *212:17 3.3104 
4 *212:17 *212:19 916.065 
5 *212:19 *212:21 0.5 
6 *212:21 *212:23 150.716 
7 *212:23 gpio_analog_sel[41] 32.5475 
*END

*D_NET *213 0.393664
*CONN
*P gpio_analog_sel[42] O
*I *921:gpio_analog_sel[42] O *D CF_CARAVEL_SOC
*CAP
1 gpio_analog_sel[42] 0.00183657
2 *921:gpio_analog_sel[42] 0.000715099
3 *213:15 0.0149135
4 *213:13 0.013077
5 *213:11 0.0228237
6 *213:9 0.0235388
7 gpio_analog_sel[42] gpio_dm2[42] 0
8 gpio_analog_sel[42] gpio_holdover[42] 0
9 gpio_analog_sel[42] *541:17 0
10 gpio_analog_sel[42] *560:25 0.000306077
11 gpio_analog_sel[42] *740:169 0
12 *213:9 *214:9 0
13 *213:9 *288:25 0
14 *213:11 *214:11 0.0102312
15 *213:11 *227:11 0
16 *213:11 *274:51 0.000725215
17 *213:11 *294:11 0
18 *213:11 *346:11 0.0244564
19 *213:11 *831:83 0.00362872
20 *213:15 *253:15 8.92563e-05
21 *213:15 *474:15 0.0174256
22 *213:15 *480:15 0.0158777
23 *116:11 *213:11 0.00243086
24 *167:15 *213:11 0.0894277
25 *169:15 *213:15 0.0758517
26 *194:33 *213:9 0.000262458
27 *205:27 *213:11 0.000359229
28 *209:15 *213:15 0.0756877
29 *212:9 *213:9 0
*RES
1 *921:gpio_analog_sel[42] *213:9 1.78947 
2 *213:9 *213:11 1000.22 
3 *213:11 *213:13 0.5 
4 *213:13 *213:15 115.289 
5 *213:15 gpio_analog_sel[42] 26.5475 
*END

*D_NET *214 0.330038
*CONN
*P gpio_analog_sel[43] O
*I *921:gpio_analog_sel[43] O *D CF_CARAVEL_SOC
*CAP
1 gpio_analog_sel[43] 0.0371093
2 *921:gpio_analog_sel[43] 0.000642755
3 *214:11 0.0676604
4 *214:9 0.0311939
5 gpio_analog_sel[43] gpio_dm2[43] 0
6 gpio_analog_sel[43] *252:15 0.000234652
7 gpio_analog_sel[43] *322:61 0.00105223
8 gpio_analog_sel[43] *322:113 0.000579471
9 gpio_analog_sel[43] *397:173 0.00323224
10 gpio_analog_sel[43] *408:97 0.00324528
11 gpio_analog_sel[43] *419:175 0.000223547
12 gpio_analog_sel[43] *419:191 0.000410467
13 gpio_analog_sel[43] *444:15 0.00797288
14 gpio_analog_sel[43] *444:37 0.00172467
15 gpio_analog_sel[43] *529:9 0.0083671
16 gpio_analog_sel[43] *530:91 0.000456242
17 gpio_analog_sel[43] *530:107 0.000419624
18 gpio_analog_sel[43] *532:30 0.00194901
19 gpio_analog_sel[43] *535:65 0.000566134
20 gpio_analog_sel[43] *535:93 0.00187341
21 gpio_analog_sel[43] *535:111 0.000218969
22 gpio_analog_sel[43] *536:63 0.00160165
23 gpio_analog_sel[43] *540:24 0.00141634
24 gpio_analog_sel[43] *551:121 0.00307895
25 gpio_analog_sel[43] *561:16 0.00158628
26 gpio_analog_sel[43] *562:119 0.00300343
27 gpio_analog_sel[43] *563:12 0.000724042
28 gpio_analog_sel[43] *566:13 6.00928e-05
29 gpio_analog_sel[43] *697:109 0.00280618
30 gpio_analog_sel[43] *740:81 0.00658087
31 gpio_analog_sel[43] *741:160 0.000549413
32 *214:11 *285:11 0.0562104
33 *214:11 *289:11 0.0218791
34 *214:11 *346:11 0.00749039
35 *214:11 *831:83 0.000800054
36 *116:11 *214:11 0.000685238
37 *118:33 gpio_analog_sel[43] 0.000860737
38 *197:11 *214:11 0.000894613
39 *205:27 *214:11 0.0030211
40 *209:11 *214:11 0.0374259
41 *213:9 *214:9 0
42 *213:11 *214:11 0.0102312
*RES
1 *921:gpio_analog_sel[43] *214:9 1.7046 
2 *214:9 *214:11 167.74 
3 *214:11 gpio_analog_sel[43] 20.0839 
*END

*D_NET *215 0.0283522
*CONN
*P gpio_analog_sel[4] O
*I *921:gpio_analog_sel[4] O *D CF_CARAVEL_SOC
*CAP
1 gpio_analog_sel[4] 0.0100888
2 *921:gpio_analog_sel[4] 0.0100888
3 *215:18 0
4 gpio_analog_sel[4] gpio_dm2[4] 0.0011631
5 gpio_analog_sel[4] *216:13 0
6 gpio_analog_sel[4] *259:11 0.00246601
7 gpio_analog_sel[4] *260:19 0.000194387
8 gpio_analog_sel[4] *312:19 0.000208883
9 gpio_analog_sel[4] *326:11 0.000139918
10 gpio_analog_sel[4] *535:121 0.000139918
11 gpio_analog_pol[4] gpio_analog_sel[4] 0.00108302
12 *94:17 gpio_analog_sel[4] 0.00215463
13 *129:11 gpio_analog_sel[4] 0.000152092
14 *132:11 gpio_analog_sel[4] 0.000472562
15 *181:11 gpio_analog_sel[4] 0
16 *210:9 gpio_analog_sel[4] 0
*RES
1 *921:gpio_analog_sel[4] gpio_analog_sel[4] 26.9375 
2 gpio_analog_sel[4] *215:18 0.0506667 
*END

*D_NET *216 0.0727968
*CONN
*P gpio_analog_sel[5] O
*I *921:gpio_analog_sel[5] O *D CF_CARAVEL_SOC
*CAP
1 gpio_analog_sel[5] 0.00483596
2 *921:gpio_analog_sel[5] 0.0148038
3 *216:13 0.0196397
4 gpio_analog_sel[5] gpio_dm2[5] 0
5 *216:13 *217:9 0
6 *216:13 *223:19 0.00220825
7 *216:13 *246:11 0.00229775
8 *216:13 *270:19 0.00278821
9 gpio_analog_sel[4] *216:13 0
10 *103:11 *216:13 0.00213829
11 *115:11 *216:13 0.000110459
12 *130:11 *216:13 0.0208091
13 *139:9 gpio_analog_sel[5] 0.000735378
14 *155:11 *216:13 0
15 *180:11 *216:13 0.00242985
*RES
1 *921:gpio_analog_sel[5] *216:13 45.4258 
2 *216:13 gpio_analog_sel[5] 9.35117 
*END

*D_NET *217 0.0903188
*CONN
*P gpio_analog_sel[6] O
*I *921:gpio_analog_sel[6] O *D CF_CARAVEL_SOC
*CAP
1 gpio_analog_sel[6] 0.00102089
2 *921:gpio_analog_sel[6] 0.00728113
3 *217:11 0.0108951
4 *217:9 0.0171553
5 gpio_analog_sel[6] gpio_dm2[6] 0.000206193
6 *217:9 *218:9 0
7 *217:11 *262:11 0.0335272
8 *217:11 *392:59 0.00774452
9 *217:11 *782:55 0.0124885
10 *216:13 *217:9 0
*RES
1 *921:gpio_analog_sel[6] *217:9 14.4384 
2 *217:9 *217:11 387.705 
3 *217:11 gpio_analog_sel[6] 2.77683 
*END

*D_NET *218 0.202841
*CONN
*P gpio_analog_sel[7] O
*I *921:gpio_analog_sel[7] O *D CF_CARAVEL_SOC
*CAP
1 gpio_analog_sel[7] 0.00256557
2 *921:gpio_analog_sel[7] 0.00577275
3 *218:11 0.0340661
4 *218:9 0.0372733
5 gpio_analog_sel[7] gpio_dm2[7] 0
6 *218:9 *219:9 0
7 *218:11 *263:11 0.000997944
8 *218:11 *273:11 0
9 *218:11 *306:11 0.0888675
10 *218:11 *327:61 0
11 *218:11 *348:11 0.0188251
12 *218:11 *789:27 0.00529344
13 *218:11 *832:59 0.00847517
14 *168:11 *218:11 0
15 *201:11 *218:11 0
16 *205:51 *218:11 0.00070417
17 *217:9 *218:9 0
*RES
1 *921:gpio_analog_sel[7] *218:9 11.7581 
2 *218:9 *218:11 1047.65 
3 *218:11 gpio_analog_sel[7] 5.53817 
*END

*D_NET *219 0.229111
*CONN
*P gpio_analog_sel[8] O
*I *921:gpio_analog_sel[8] O *D CF_CARAVEL_SOC
*CAP
1 gpio_analog_sel[8] 0.00163092
2 *921:gpio_analog_sel[8] 0.00675637
3 *219:11 0.0352711
4 *219:9 0.0403965
5 gpio_analog_sel[8] gpio_dm2[8] 0
6 gpio_analog_sel[8] *747:11 0
7 *219:9 *220:9 0
8 *219:11 gpio_holdover[6] 0.00358095
9 *219:11 gpio_inp_dis[6] 0
10 *219:11 *281:11 0
11 *219:11 *305:11 0.0322726
12 *219:11 *311:11 0.109203
13 *219:11 *375:35 0
14 *219:11 *782:19 0
15 *219:11 *782:29 0
16 *218:9 *219:9 0
*RES
1 *921:gpio_analog_sel[8] *219:9 13.5061 
2 *219:9 *219:11 1212.89 
3 *219:11 gpio_analog_sel[8] 3.82057 
*END

*D_NET *220 0.303459
*CONN
*P gpio_analog_sel[9] O
*I *921:gpio_analog_sel[9] O *D CF_CARAVEL_SOC
*CAP
1 gpio_analog_sel[9] 0.00156247
2 *921:gpio_analog_sel[9] 0.00585045
3 *220:11 0.0256172
4 *220:9 0.0299052
5 gpio_analog_sel[9] gpio_dm2[9] 0.00126948
6 *220:9 *479:9 0.000834113
7 *220:11 *261:11 0.0312639
8 *220:11 *269:11 0.119363
9 *220:11 *327:63 0.0874077
10 *220:11 *571:39 0.000385508
11 *178:17 *220:9 0
12 *219:9 *220:9 0
*RES
1 *921:gpio_analog_sel[9] *220:9 12.5739 
2 *220:9 *220:11 1379.66 
3 *220:11 gpio_analog_sel[9] 4.39817 
*END

*D_NET *221 0.0346038
*CONN
*P gpio_dm0[0] O
*I *921:gpio_dm0[0] O *D CF_CARAVEL_SOC
*CAP
1 gpio_dm0[0] 0.0122706
2 *921:gpio_dm0[0] 0.0122706
3 gpio_dm0[0] gpio_dm1[0] 0.00308171
4 gpio_dm0[0] *223:11 0.000664171
5 gpio_dm0[0] *226:11 0.00384238
6 gpio_dm0[0] *232:9 0.000759718
7 gpio_dm0[0] *254:11 0
8 gpio_dm0[0] *442:11 0.000108617
9 gpio_dm0[0] *572:28 0
10 gpio_analog_en[0] gpio_dm0[0] 0.00160609
*RES
1 *921:gpio_dm0[0] gpio_dm0[0] 34.49 
*END

*D_NET *222 0.381415
*CONN
*P gpio_dm0[10] O
*I *921:gpio_dm0[10] O *D CF_CARAVEL_SOC
*CAP
1 gpio_dm0[10] 0.00203904
2 *921:gpio_dm0[10] 0.0147912
3 *222:19 0.0678642
4 *222:17 0.0806163
5 gpio_dm0[10] gpio_inp_dis[10] 0
6 *222:17 *223:9 0
7 *222:17 *224:17 0
8 *222:17 *232:13 0
9 *222:17 *264:9 0
10 *222:17 *267:17 1.86715e-05
11 *222:17 *268:9 0
12 *222:17 *298:11 0.00181956
13 *222:17 *771:31 0.000692258
14 *222:19 *241:11 0.0425277
15 *222:19 *263:11 0
16 *222:19 *267:23 0.158951
17 *222:19 *277:11 0.00128833
18 *222:19 *321:61 0.00258396
19 *222:19 *391:41 0.0026891
20 *222:19 *692:23 0
21 gpio_analog_en[10] gpio_dm0[10] 0
22 gpio_analog_pol[10] gpio_dm0[10] 0.00252956
23 *89:11 *222:17 0
24 *133:11 *222:17 0.0010778
25 *169:11 *222:17 0.00192602
*RES
1 *921:gpio_dm0[10] *222:17 43.1733 
2 *222:17 *222:19 2066.11 
3 *222:19 gpio_dm0[10] 5.8219 
*END

*D_NET *223 0.451324
*CONN
*P gpio_dm0[11] O
*I *921:gpio_dm0[11] O *D CF_CARAVEL_SOC
*CAP
1 gpio_dm0[11] 0.00356499
2 *921:gpio_dm0[11] 0.00292767
3 *223:19 0.0732775
4 *223:17 0.0698629
5 *223:11 0.0181483
6 *223:9 0.0209255
7 *223:9 *224:17 0
8 *223:11 gpio_dm2[2] 0.00376868
9 *223:11 *226:11 0
10 *223:11 *247:11 0.00423699
11 *223:11 *254:11 0.00750194
12 *223:11 *270:17 0.0130026
13 *223:11 *308:11 0.00285761
14 *223:11 *430:27 0.0044087
15 *223:11 *530:113 0.00201048
16 *223:11 *562:123 0.00519747
17 *223:17 gpio_inp_dis[2] 0.000485938
18 *223:17 *321:9 0.000488724
19 *223:19 *270:19 0.181175
20 *223:19 *321:25 0
21 *223:19 *342:11 0.000110459
22 *223:19 *567:18 0
23 *223:19 *832:49 9.14341e-05
24 gpio_analog_en[11] gpio_dm0[11] 0.00335197
25 gpio_analog_en[2] *223:19 0.00200438
26 gpio_analog_pol[11] gpio_dm0[11] 0
27 gpio_dm0[0] *223:11 0.000664171
28 *93:11 *223:19 0
29 *130:11 *223:19 0.0148426
30 *134:11 *223:19 0.00653234
31 *138:11 *223:19 0
32 *141:21 *223:19 0.00414368
33 *144:19 *223:19 0.00147817
34 *179:11 *223:19 0.0020547
35 *216:13 *223:19 0.00220825
36 *222:17 *223:9 0
*RES
1 *921:gpio_dm0[11] *223:9 6.89287 
2 *223:9 *223:11 66.9636 
3 *223:11 *223:17 1.76633 
4 *223:17 *223:19 2014.6 
5 *223:19 gpio_dm0[11] 9.95883 
*END

*D_NET *224 0.458656
*CONN
*P gpio_dm0[12] O
*I *921:gpio_dm0[12] O *D CF_CARAVEL_SOC
*CAP
1 gpio_dm0[12] 0.00228363
2 *921:gpio_dm0[12] 0.00823011
3 *224:19 0.0814247
4 *224:17 0.0873712
5 gpio_dm0[12] gpio_inp_dis[12] 0
6 *224:17 *225:17 0
7 *224:17 *232:13 0.0138861
8 *224:17 *298:9 0
9 *224:17 *303:9 0.000397887
10 *224:19 *307:11 0
11 *224:19 *321:63 0
12 *224:19 *327:39 0
13 *224:19 *375:57 0
14 *224:19 *391:43 0.0125367
15 *224:19 *435:27 0
16 *224:19 *481:11 0
17 *224:19 *771:31 0.00899315
18 gpio_analog_en[12] gpio_dm0[12] 0.000395514
19 gpio_analog_pol[12] gpio_dm0[12] 0.00268353
20 gpio_analog_pol[5] *224:19 0.000448949
21 *89:11 *224:17 0.00368147
22 *89:11 *224:19 0.00383478
23 *94:19 *224:19 0.166757
24 *104:25 *224:19 0.0017176
25 *137:11 *224:19 0.0176086
26 *166:13 *224:19 0.00256376
27 *169:11 *224:19 0.0300595
28 *174:11 *224:19 0.0137818
29 *222:17 *224:17 0
30 *223:9 *224:17 0
*RES
1 *921:gpio_dm0[12] *224:17 36.1256 
2 *224:17 *224:19 2430.76 
3 *224:19 gpio_dm0[12] 6.90617 
*END

*D_NET *225 0.39309
*CONN
*P gpio_dm0[13] O
*I *921:gpio_dm0[13] O *D CF_CARAVEL_SOC
*CAP
1 gpio_dm0[13] 0.00224666
2 *921:gpio_dm0[13] 0.00894844
3 *225:19 0.130013
4 *225:17 0.136715
5 gpio_dm0[13] gpio_inp_dis[13] 0.00235404
6 *225:17 *243:11 0.00569252
7 *225:17 *254:11 0.0018499
8 *225:17 *303:9 0.000113214
9 *225:17 *304:9 0.0002549
10 *225:17 *305:9 0
11 *225:19 *274:45 0.00194252
12 *225:19 *274:91 0.000696406
13 *225:19 *274:93 0.00272426
14 *225:19 *304:11 0.0102685
15 *225:19 *310:11 0
16 *225:19 *315:11 0
17 *225:19 *321:11 0.00859123
18 *225:19 *349:11 0.0255879
19 *225:19 *444:11 0
20 *225:19 *484:11 0
21 *225:19 *532:36 0
22 *225:19 *787:37 0.00340452
23 gpio_analog_en[13] gpio_dm0[13] 0
24 gpio_analog_pol[13] gpio_dm0[13] 0.00412751
25 *112:11 *225:19 0.0250441
26 *128:11 *225:19 0.000445968
27 *131:11 *225:19 0
28 *135:11 *225:19 0.00596528
29 *139:11 *225:19 5.91497e-05
30 *175:11 *225:19 0.0104651
31 *203:11 *225:19 0.0055791
32 *224:17 *225:17 0
*RES
1 *921:gpio_dm0[13] *225:17 34.2636 
2 *225:17 *225:19 2763.79 
3 *225:19 gpio_dm0[13] 8.41983 
*END

*D_NET *226 0.619306
*CONN
*P gpio_dm0[14] O
*I *921:gpio_dm0[14] O *D CF_CARAVEL_SOC
*CAP
1 gpio_dm0[14] 0.00416358
2 *921:gpio_dm0[14] 0.00292612
3 *226:11 0.119315
4 *226:9 0.118078
5 gpio_dm0[14] gpio_dm1[14] 0
6 *226:9 *227:9 0
7 *226:9 *340:33 4.2145e-05
8 *226:11 *308:11 0.179608
9 *226:11 *430:27 0.000631272
10 *226:11 *442:11 0.0466352
11 *226:11 *445:19 0.00130881
12 *226:11 *572:28 0.00887968
13 *226:11 *705:39 0.00113242
14 gpio_analog_en[14] gpio_dm0[14] 0.00189342
15 gpio_analog_pol[14] gpio_dm0[14] 0
16 gpio_dm0[0] *226:11 0.00384238
17 *90:11 *226:11 0.00955796
18 *102:11 *226:11 0.017456
19 *105:27 *226:11 0
20 *106:11 *226:11 0.0382619
21 *106:19 *226:11 0.0253663
22 *110:11 *226:11 0.00571333
23 *110:19 *226:11 0.0335017
24 *140:43 *226:11 0.000992564
25 *179:11 *226:11 0
26 *223:11 *226:11 0
*RES
1 *921:gpio_dm0[14] *226:9 6.5686 
2 *226:9 *226:11 546.209 
3 *226:11 gpio_dm0[14] 14.2502 
*END

*D_NET *227 0.490972
*CONN
*P gpio_dm0[15] O
*I *921:gpio_dm0[15] O *D CF_CARAVEL_SOC
*CAP
1 gpio_dm0[15] 7.97879e-05
2 *921:gpio_dm0[15] 0.000858877
3 *227:19 0.124884
4 *227:17 0.126947
5 *227:11 0.0244086
6 *227:9 0.0231242
7 *227:9 *228:9 0
8 *227:9 *340:33 0.000229581
9 *227:11 *275:11 0.0200951
10 *227:11 *285:11 0.00869567
11 *227:11 *289:11 0.00198472
12 *227:11 *294:11 0.023304
13 *227:11 *327:11 0.0115183
14 *227:11 *346:11 0.0419585
15 *227:11 *831:83 0.00132325
16 *227:17 *328:59 0.00213703
17 *227:17 *745:11 0.00283065
18 *227:19 *274:151 0
19 gpio_analog_en[15] gpio_dm0[15] 0
20 gpio_analog_pol[15] gpio_dm0[15] 0
21 *95:19 *227:19 0
22 *98:15 *227:17 0.00107312
23 *99:15 *227:17 0.000707054
24 *101:15 *227:17 0.000771396
25 *114:23 *227:17 0.00404385
26 *116:11 *227:11 0.00562956
27 *139:19 *227:19 0
28 *141:29 *227:17 0.00125261
29 *142:15 *227:17 0.00117077
30 *197:11 *227:11 0.0313376
31 *200:11 *227:11 0.0306067
32 *213:11 *227:11 0
33 *226:9 *227:9 0
*RES
1 *921:gpio_dm0[15] *227:9 2.02253 
2 *227:9 *227:11 1121.59 
3 *227:11 *227:17 11.6425 
4 *227:17 *227:19 2251.25 
5 *227:19 gpio_dm0[15] 1.35 
*END

*D_NET *228 0.641303
*CONN
*P gpio_dm0[16] O
*I *921:gpio_dm0[16] O *D CF_CARAVEL_SOC
*CAP
1 gpio_dm0[16] 0.129004
2 *921:gpio_dm0[16] 0.000999448
3 *228:25 0.151635
4 *228:11 0.0618917
5 *228:9 0.0402604
6 gpio_dm0[16] *286:39 2.99518e-06
7 gpio_dm0[16] *679:9 0
8 *228:9 *229:9 0.000183236
9 *228:11 *235:11 0.000292002
10 *228:11 *237:11 0.0356612
11 *228:11 *237:17 0.0103469
12 *228:11 *237:19 0.00651695
13 *228:11 *249:11 0.000637613
14 *228:11 *250:21 0
15 *228:11 *274:19 0.00164671
16 *228:11 *285:11 0
17 *228:11 *289:11 0.00290638
18 *228:11 *325:11 0.00196519
19 *228:11 *740:59 0.0260378
20 *228:25 *229:15 0.000100716
21 *228:25 *230:25 0.00837303
22 *228:25 *244:15 0.000100716
23 *228:25 *246:23 0.000100716
24 *228:25 *247:15 0.0120876
25 *228:25 *375:31 0.0120876
26 *228:25 *391:15 0.000575185
27 *228:25 *782:15 0.0108466
28 *228:25 *787:15 0.0123132
29 *228:25 *788:15 0.0118211
30 *228:25 *831:31 0.0127615
31 gpio_analog_en[16] gpio_dm0[16] 0
32 gpio_analog_pol[16] gpio_dm0[16] 0
33 *127:13 *228:11 0.0205032
34 *141:29 *228:25 0.0141917
35 *158:24 *228:25 0.000100716
36 *170:19 *228:11 0.00830548
37 *185:11 *228:11 0.00516521
38 *186:11 *228:11 0.000326268
39 *187:11 *228:11 0.000306921
40 *192:11 *228:11 0.0207193
41 *205:27 *228:11 0.000121175
42 *206:47 *228:25 0.0120876
43 *212:19 *228:11 0.00831903
44 *227:9 *228:9 0
*RES
1 *921:gpio_dm0[16] *228:9 2.48993 
2 *228:9 *228:11 189.617 
3 *228:11 *228:25 9.88784 
4 *228:25 gpio_dm0[16] 2246.09 
*END

*D_NET *229 0.674631
*CONN
*P gpio_dm0[17] O
*I *921:gpio_dm0[17] O *D CF_CARAVEL_SOC
*CAP
1 gpio_dm0[17] 0.124244
2 *921:gpio_dm0[17] 0.00640925
3 *229:17 0.124244
4 *229:15 0.013728
5 *229:13 0.013728
6 *229:11 0.0303248
7 *229:9 0.036734
8 *229:9 *230:9 0
9 *229:11 *268:11 0.0475066
10 *229:11 *281:11 0
11 *229:11 *375:35 0.0120887
12 *229:11 *482:11 0.00541198
13 *229:15 *230:25 0.0171121
14 *229:15 *246:23 0.00268847
15 *229:15 *273:15 0.0790284
16 *229:15 *277:23 0.000466235
17 gpio_analog_en[17] gpio_dm0[17] 0
18 gpio_analog_pol[17] gpio_dm0[17] 0
19 *120:11 *229:11 0.0212434
20 *141:29 gpio_dm0[17] 0.000286457
21 *141:31 gpio_dm0[17] 0.0548592
22 *158:24 *229:15 0.0719776
23 *184:11 *229:11 0.0018127
24 *198:11 *229:11 0.0104528
25 *228:9 *229:9 0.000183236
26 *228:25 *229:15 0.000100716
*RES
1 *921:gpio_dm0[17] *229:9 14.1471 
2 *229:9 *229:11 1126.69 
3 *229:11 *229:13 0.5 
4 *229:13 *229:15 120.126 
5 *229:15 *229:17 0.5 
6 *229:17 gpio_dm0[17] 2240.99 
*END

*D_NET *230 0.887149
*CONN
*P gpio_dm0[18] O
*I *921:gpio_dm0[18] O *D CF_CARAVEL_SOC
*CAP
1 gpio_dm0[18] 0.000584955
2 *921:gpio_dm0[18] 0.00603937
3 *230:27 0.135058
4 *230:25 0.189273
5 *230:11 0.0913915
6 *230:9 0.0426309
7 gpio_dm0[18] *538:409 0
8 *230:11 *264:11 0.0968014
9 *230:11 *283:11 0
10 *230:11 *337:27 0.00266956
11 *230:11 *698:15 0
12 *230:25 *244:15 0.024519
13 *230:25 *246:23 0.0252365
14 *230:25 *247:15 0
15 *230:25 *273:15 0.0164913
16 *230:25 *275:15 0.0162465
17 *230:25 *277:23 0.0268136
18 *230:25 *286:39 0.0111358
19 *230:25 *290:15 0.00710908
20 *230:25 *329:64 0.00061131
21 *230:25 *361:33 0.00418182
22 *230:25 *391:15 0.00797013
23 *230:25 *391:33 0.000429708
24 *230:25 *403:15 0.0212709
25 *230:25 *536:149 2.06223e-06
26 *230:25 *538:157 0.000149496
27 *230:25 *686:11 0.0201261
28 *230:25 *801:15 0.0094635
29 *230:25 *831:31 0.00423962
30 *230:27 *538:409 0.000211314
31 gpio_analog_en[18] gpio_dm0[18] 0
32 gpio_analog_en[18] *230:27 0.0542966
33 gpio_analog_pol[18] gpio_dm0[18] 0
34 *141:29 *230:25 4.64509e-05
35 *148:13 *230:25 0.00710908
36 *158:24 *230:25 0.0257271
37 *196:11 *230:11 0.00729105
38 *206:35 *230:11 0.00653711
39 *206:43 *230:11 0
40 *206:47 *230:25 0
41 *228:25 *230:25 0.00837303
42 *229:9 *230:9 0
43 *229:15 *230:25 0.0171121
*RES
1 *921:gpio_dm0[18] *230:9 13.3313 
2 *230:9 *230:11 1119.56 
3 *230:11 *230:25 37.7272 
4 *230:25 *230:27 376.785 
5 *230:27 gpio_dm0[18] 10.3579 
*END

*D_NET *231 0.684428
*CONN
*P gpio_dm0[19] O
*I *921:gpio_dm0[19] O *D CF_CARAVEL_SOC
*CAP
1 gpio_dm0[19] 0.0845777
2 *921:gpio_dm0[19] 0.0012619
3 *231:17 0.0845777
4 *231:15 0.0830726
5 *231:13 0.0830726
6 *231:11 0.0174423
7 *231:9 0.0187042
8 gpio_dm0[19] *759:19 0.0850551
9 *231:9 *233:9 0
10 *231:11 *233:11 0.104994
11 *231:11 *234:11 0.00023566
12 *231:11 *235:11 0.0153083
13 *231:11 *238:11 0.000237126
14 *231:11 *278:11 0.0887444
15 *231:11 *325:19 0.0162433
16 *231:15 *233:15 0
17 *231:15 *538:169 0.000901378
18 gpio_analog_en[19] gpio_dm0[19] 0
19 gpio_analog_pol[19] gpio_dm0[19] 0
20 *189:15 *231:15 0
*RES
1 *921:gpio_dm0[19] *231:9 2.92693 
2 *231:9 *231:11 1177.69 
3 *231:11 *231:13 0.5 
4 *231:13 *231:15 229.492 
5 *231:15 *231:17 0.5 
6 *231:17 gpio_dm0[19] 2180.3 
*END

*D_NET *232 0.0621892
*CONN
*P gpio_dm0[1] O
*I *921:gpio_dm0[1] O *D CF_CARAVEL_SOC
*CAP
1 gpio_dm0[1] 0.00313676
2 *921:gpio_dm0[1] 0.00350185
3 *232:13 0.0110485
4 *232:9 0.0114136
5 *232:9 *243:9 0
6 *232:13 *259:11 0.00396592
7 *232:13 *419:197 0.000238188
8 *232:13 *532:36 0.00248178
9 gpio_analog_en[1] gpio_dm0[1] 0.00224376
10 gpio_analog_pol[1] gpio_dm0[1] 0
11 gpio_dm0[0] *232:9 0.000759718
12 *89:11 *232:13 0.000952386
13 *100:13 *232:13 0.000100798
14 *177:11 *232:13 0.00845973
15 *222:17 *232:13 0
16 *224:17 *232:13 0.0138861
*RES
1 *921:gpio_dm0[1] *232:9 9.34007 
2 *232:9 *232:13 45.6719 
3 *232:13 gpio_dm0[1] 7.3397 
*END

*D_NET *233 0.69076
*CONN
*P gpio_dm0[20] O
*I *921:gpio_dm0[20] O *D CF_CARAVEL_SOC
*CAP
1 gpio_dm0[20] 9.87705e-05
2 *921:gpio_dm0[20] 0.00135656
3 *233:19 0.120552
4 *233:17 0.120454
5 *233:15 0.0953013
6 *233:13 0.0953013
7 *233:11 0.0176547
8 *233:9 0.0190112
9 *233:9 *234:9 0
10 *233:9 *340:33 0.000229581
11 *233:11 *235:11 0.000117854
12 *233:11 *236:11 0.000283534
13 *233:11 *238:11 0.00147654
14 *233:11 *239:11 0.0131438
15 *233:11 *244:11 0.0957747
16 *233:11 *253:11 0.00123739
17 *233:11 *278:11 0.000263998
18 *233:11 *324:11 0.00350932
19 gpio_analog_en[20] gpio_dm0[20] 0
20 gpio_analog_en[20] *233:19 0
21 gpio_analog_pol[20] gpio_dm0[20] 0
22 *101:19 *233:19 0
23 *145:19 gpio_dm0[20] 0
24 *145:19 *233:19 0
25 *231:9 *233:9 0
26 *231:11 *233:11 0.104994
27 *231:15 *233:15 0
*RES
1 *921:gpio_dm0[20] *233:9 3.07133 
2 *233:9 *233:11 1178.2 
3 *233:11 *233:13 0.5 
4 *233:13 *233:15 262.18 
5 *233:15 *233:17 0.5 
6 *233:17 *233:19 2174.24 
7 *233:19 gpio_dm0[20] 1.35 
*END

*D_NET *234 0.752711
*CONN
*P gpio_dm0[21] O
*I *921:gpio_dm0[21] O *D CF_CARAVEL_SOC
*CAP
1 gpio_dm0[21] 9.87705e-05
2 *921:gpio_dm0[21] 0.00114397
3 *234:19 0.104041
4 *234:17 0.103942
5 *234:15 0.106751
6 *234:13 0.106751
7 *234:11 0.0219128
8 *234:9 0.0230568
9 *234:9 *235:9 0.000409307
10 *234:9 *340:33 0.000229581
11 *234:11 *235:11 0.00164405
12 *234:11 *237:11 0.00984557
13 *234:11 *237:19 0.010291
14 *234:11 *240:11 0.130125
15 *234:11 *278:11 0.116224
16 *234:11 *325:19 0.015468
17 *234:15 *538:241 0.000327142
18 *234:19 *670:7 0
19 gpio_analog_en[21] gpio_dm0[21] 0
20 gpio_analog_en[21] *234:19 0
21 gpio_analog_pol[21] gpio_dm0[21] 0
22 *102:27 *234:19 0
23 *140:113 *234:15 0.000214829
24 *146:25 gpio_dm0[21] 0
25 *146:25 *234:19 0
26 *170:19 *234:11 0
27 *191:15 *234:15 0
28 *231:11 *234:11 0.00023566
29 *233:9 *234:9 0
*RES
1 *921:gpio_dm0[21] *234:9 2.89653 
2 *234:9 *234:11 1474.01 
3 *234:11 *234:13 0.5 
4 *234:13 *234:15 294.576 
5 *234:15 *234:17 0.5 
6 *234:17 *234:19 1874.35 
7 *234:19 gpio_dm0[21] 1.35 
*END

*D_NET *235 0.954328
*CONN
*P gpio_dm0[22] O
*I *921:gpio_dm0[22] O *D CF_CARAVEL_SOC
*CAP
1 gpio_dm0[22] 0.0241757
2 *921:gpio_dm0[22] 0.000935998
3 *235:17 0.0241757
4 *235:15 0.118189
5 *235:13 0.118189
6 *235:11 0.0646951
7 *235:9 0.0656311
8 *235:11 *236:11 0.000659057
9 *235:11 *237:11 0.0810553
10 *235:11 *237:17 0.00610459
11 *235:11 *237:19 0.183285
12 *235:11 *238:11 0.000109675
13 *235:11 *239:11 0.228016
14 *235:11 *240:11 0.00171762
15 *235:11 *278:11 0.0177509
16 *235:11 *282:11 0
17 *235:11 *325:19 0.00174701
18 gpio_analog_en[22] gpio_dm0[22] 0
19 gpio_analog_pol[22] gpio_dm0[22] 0
20 *140:329 *235:15 0
21 *205:27 *235:11 0.000121175
22 *228:11 *235:11 0.000292002
23 *231:11 *235:11 0.0153083
24 *233:11 *235:11 0.000117854
25 *234:9 *235:9 0.000409307
26 *234:11 *235:11 0.00164405
*RES
1 *921:gpio_dm0[22] *235:9 2.58113 
2 *235:9 *235:11 491.687 
3 *235:11 *235:13 0.5 
4 *235:13 *235:15 327.176 
5 *235:15 *235:17 0.5 
6 *235:17 gpio_dm0[22] 436.612 
*END

*D_NET *236 0.808402
*CONN
*P gpio_dm0[23] O
*I *921:gpio_dm0[23] O *D CF_CARAVEL_SOC
*CAP
1 gpio_dm0[23] 0.00208018
2 *921:gpio_dm0[23] 0.00136498
3 *236:19 0.0921485
4 *236:17 0.0900684
5 *236:15 0.130754
6 *236:13 0.130754
7 *236:11 0.075912
8 *236:9 0.077277
9 *236:9 *237:9 0
10 *236:11 *238:11 0.000105649
11 *236:11 *239:11 0.157452
12 *236:11 *245:11 0
13 *236:11 *250:21 0
14 *236:11 *253:11 0.000851643
15 *236:11 *271:11 0.0112249
16 *236:11 *272:11 0.0122754
17 *236:11 *282:11 0
18 *236:11 *286:11 0.00969905
19 *236:11 *324:11 0.0149404
20 *236:11 *740:75 0.000551985
21 gpio_analog_pol[23] gpio_dm0[23] 0
22 *104:35 gpio_dm0[23] 0
23 *104:35 *236:19 0
24 *148:17 *236:19 0
25 *233:11 *236:11 0.000283534
26 *235:11 *236:11 0.000659057
*RES
1 *921:gpio_dm0[23] *236:9 2.98647 
2 *236:9 *236:11 283.589 
3 *236:11 *236:13 0.5 
4 *236:13 *236:15 359.98 
5 *236:15 *236:17 0.5 
6 *236:17 *236:19 1628.07 
7 *236:19 gpio_dm0[23] 36.0975 
*END

*D_NET *237 0.92388
*CONN
*P gpio_dm0[24] O
*I *921:gpio_dm0[24] O *D CF_CARAVEL_SOC
*CAP
1 gpio_dm0[24] 0.000863639
2 *921:gpio_dm0[24] 0.00100511
3 *237:23 0.141209
4 *237:21 0.140345
5 *237:19 0.0838773
6 *237:17 0.0859001
7 *237:11 0.0253237
8 *237:9 0.024306
9 *237:9 *238:9 0.00117781
10 *237:9 *340:33 0.000229581
11 *237:11 *240:11 0.00826235
12 *237:19 *240:11 0.0388839
13 *237:23 gpio_inp_dis[24] 0
14 *237:23 *538:377 0.000516279
15 *237:23 *539:421 0.000897567
16 gpio_analog_pol[24] gpio_dm0[24] 0
17 gpio_analog_sel[24] *237:23 1.23136e-05
18 *105:31 gpio_dm0[24] 0.000121436
19 *127:13 *237:11 0.0204968
20 *192:11 *237:19 0.00734626
21 *194:35 *237:19 0
22 *228:11 *237:11 0.0356612
23 *228:11 *237:17 0.0103469
24 *228:11 *237:19 0.00651695
25 *234:11 *237:11 0.00984557
26 *234:11 *237:19 0.010291
27 *235:11 *237:11 0.0810553
28 *235:11 *237:17 0.00610459
29 *235:11 *237:19 0.183285
30 *236:9 *237:9 0
*RES
1 *921:gpio_dm0[24] *237:9 2.80913 
2 *237:9 *237:11 145.145 
3 *237:11 *237:17 18.7011 
4 *237:17 *237:19 378.011 
5 *237:19 *237:21 0.5 
6 *237:21 *237:23 386.841 
7 *237:23 gpio_dm0[24] 13.66 
*END

*D_NET *238 1.04464
*CONN
*P gpio_dm0[25] O
*I *921:gpio_dm0[25] O *D CF_CARAVEL_SOC
*CAP
1 gpio_dm0[25] 0.0018879
2 *921:gpio_dm0[25] 0.00107249
3 *238:27 0.112832
4 *238:25 0.111608
5 *238:15 0.0377711
6 *238:13 0.0371068
7 *238:11 0.00416474
8 *238:9 0.00523723
9 *238:11 *253:11 0.0191744
10 *238:11 *325:19 0.00743676
11 *238:15 *249:15 0.24056
12 *238:15 *340:39 0.0203467
13 *238:15 *364:39 0
14 *238:15 *386:207 0.000375953
15 *238:15 *429:19 0.000566136
16 *238:15 *449:41 0.0266805
17 *238:15 *461:23 0.0140537
18 *238:15 *545:11 0.00659178
19 *238:15 *845:19 0.0114647
20 *238:25 *294:27 1.79483e-05
21 *238:25 *446:25 1.92979e-05
22 *238:25 *461:21 0.00224255
23 *238:25 *559:29 0.00223864
24 *238:27 *402:11 0
25 *238:27 *404:11 0
26 *238:27 *539:175 0.0116385
27 *238:27 *549:25 0.199314
28 *238:27 *693:65 0.00352664
29 *106:23 gpio_dm0[25] 0
30 *150:31 gpio_dm0[25] 0.000602932
31 *164:35 *238:15 0.14231
32 *168:15 *238:15 0.0206943
33 *231:11 *238:11 0.000237126
34 *233:11 *238:11 0.00147654
35 *235:11 *238:11 0.000109675
36 *236:11 *238:11 0.000105649
37 *237:9 *238:9 0.00117781
*RES
1 *921:gpio_dm0[25] *238:9 2.95733 
2 *238:9 *238:11 215.708 
3 *238:11 *238:13 2 
4 *238:13 *238:15 2250.54 
5 *238:15 *238:25 6.7665 
6 *238:25 *238:27 2794.91 
7 *238:27 gpio_dm0[25] 4.75917 
*END

*D_NET *239 0.971497
*CONN
*P gpio_dm0[26] O
*I *921:gpio_dm0[26] O *D CF_CARAVEL_SOC
*CAP
1 gpio_dm0[26] 0.00224762
2 *921:gpio_dm0[26] 0.00127363
3 *239:15 0.0905083
4 *239:13 0.0882607
5 *239:11 0.0612322
6 *239:9 0.0625059
7 gpio_dm0[26] gpio_inp_dis[26] 0
8 *239:9 *240:9 0.000308319
9 *239:9 *340:33 0.000229581
10 *239:11 *244:11 0.0133504
11 *239:11 *282:11 0
12 gpio_analog_en[26] gpio_dm0[26] 0.000441797
13 gpio_analog_en[26] *239:15 0
14 gpio_analog_pol[26] gpio_dm0[26] 0.000199873
15 *107:31 *239:15 0.252327
16 *233:11 *239:11 0.0131438
17 *235:11 *239:11 0.228016
18 *236:11 *239:11 0.157452
*RES
1 *921:gpio_dm0[26] *239:9 3.0422 
2 *239:9 *239:11 406.846 
3 *239:11 *239:13 0.5 
4 *239:13 *239:15 383.083 
5 *239:15 gpio_dm0[26] 4.8507 
*END

*D_NET *240 0.661483
*CONN
*P gpio_dm0[27] O
*I *921:gpio_dm0[27] O *D CF_CARAVEL_SOC
*CAP
1 gpio_dm0[27] 0.000857553
2 *921:gpio_dm0[27] 0.000888292
3 *240:15 0.141761
4 *240:13 0.140904
5 *240:11 0.0827428
6 *240:9 0.0836311
7 gpio_dm0[27] *459:13 0.00168084
8 *240:9 *241:9 0
9 *240:11 *278:11 0.00029087
10 *240:15 gpio_holdover[27] 0.00133456
11 *240:15 gpio_out[27] 0.000999964
12 gpio_analog_en[27] gpio_dm0[27] 0.000211669
13 gpio_analog_pol[27] gpio_dm0[27] 0
14 *170:19 *240:11 0.0268834
15 *185:11 *240:11 0
16 *186:11 *240:11 0
17 *187:11 *240:11 0
18 *189:11 *240:11 0
19 *191:11 *240:11 0
20 *196:31 *240:15 0
21 *234:11 *240:11 0.130125
22 *235:11 *240:11 0.00171762
23 *237:11 *240:11 0.00826235
24 *237:19 *240:11 0.0388839
25 *239:9 *240:9 0.000308319
*RES
1 *921:gpio_dm0[27] *240:9 2.49373 
2 *240:9 *240:11 2227.78 
3 *240:11 *240:13 0.5 
4 *240:13 *240:15 386.929 
5 *240:15 gpio_dm0[27] 20.8317 
*END

*D_NET *241 0.818165
*CONN
*P gpio_dm0[28] O
*I *921:gpio_dm0[28] O *D CF_CARAVEL_SOC
*CAP
1 gpio_dm0[28] 0.00443191
2 *921:gpio_dm0[28] 0.00502281
3 *241:31 0.0886194
4 *241:29 0.0841875
5 *241:27 0.00905327
6 *241:25 0.00929392
7 *241:19 0.018509
8 *241:17 0.0238798
9 *241:11 0.0319413
10 *241:9 0.0313527
11 *241:9 *242:9 0
12 *241:11 gpio_oeb[3] 0.000117502
13 *241:11 *277:11 0.07711
14 *241:11 *321:61 0.00258396
15 *241:11 *391:41 0.0026891
16 *241:11 *692:23 0
17 *241:17 gpio_oeb[6] 0
18 *241:25 *245:15 0
19 *241:25 *333:25 2.38374e-05
20 gpio_analog_pol[0] *241:9 0
21 gpio_analog_pol[28] gpio_dm0[28] 0.000635782
22 *109:25 *241:19 0.000401495
23 *109:27 *241:19 0.0172614
24 *109:31 gpio_dm0[28] 0.0011578
25 *109:31 *241:31 0
26 *150:19 *241:19 0.00698445
27 *151:9 *241:19 0.0265411
28 *152:27 *241:27 0.0484056
29 *153:27 *241:27 0.0285286
30 *153:31 gpio_dm0[28] 0.000723462
31 *153:31 *241:31 0.254749
32 *165:11 *241:11 0
33 *204:21 *241:19 0.001433
34 *222:19 *241:11 0.0425277
35 *240:9 *241:9 0
*RES
1 *921:gpio_dm0[28] *241:9 11.292 
2 *241:9 *241:11 1038.97 
3 *241:11 *241:17 11.6425 
4 *241:17 *241:19 527.955 
5 *241:19 *241:25 1.59153 
6 *241:25 *241:27 86.2575 
7 *241:27 *241:29 0.5 
8 *241:29 *241:31 374.401 
9 *241:31 gpio_dm0[28] 11.2018 
*END

*D_NET *242 0.674282
*CONN
*P gpio_dm0[29] O
*I *921:gpio_dm0[29] O *D CF_CARAVEL_SOC
*CAP
1 gpio_dm0[29] 0.0025282
2 *921:gpio_dm0[29] 0.00411661
3 *242:35 0.136094
4 *242:33 0.138578
5 *242:27 0.036292
6 *242:25 0.0321056
7 *242:15 0.00245267
8 *242:13 0.00162736
9 *242:11 0.0243714
10 *242:9 0.028488
11 gpio_dm0[29] gpio_inp_dis[29] 0
12 *242:9 gpio_dm2[0] 0.000852394
13 *242:9 *740:73 0
14 *242:11 *274:107 0.000937149
15 *242:11 *337:11 0.00873104
16 *242:11 *531:28 0
17 *242:15 *274:125 0.00664437
18 *242:15 *326:15 0.0060947
19 *242:15 *436:23 0
20 *242:25 *247:15 9.17744e-05
21 *242:25 *281:19 0.000425524
22 *242:25 *326:19 0.000705395
23 *242:25 *329:58 0.00181498
24 *242:25 *391:15 0.000142189
25 *242:25 *831:31 0.000181319
26 *242:27 *326:23 0.0197516
27 *242:27 *326:31 0.00158057
28 *242:27 *333:19 0
29 *242:33 *281:25 0
30 gpio_analog_pol[29] gpio_dm0[29] 0.000207737
31 gpio_analog_sel[0] *242:9 0.00033146
32 *94:19 *242:11 0.0046352
33 *104:25 *242:11 0.0021408
34 *110:23 gpio_dm0[29] 0
35 *110:23 *242:33 0
36 *110:23 *242:35 0
37 *114:11 *242:11 0.0409432
38 *114:21 *242:11 0.000760724
39 *140:71 *242:25 7.27402e-06
40 *150:27 *242:27 0
41 *152:27 *242:27 0
42 *158:22 *242:27 0
43 *166:13 *242:11 0.000169377
44 *169:11 *242:11 0.0855212
45 *173:13 *242:11 0.00139423
46 *178:17 *242:11 0.0026309
47 *196:27 *242:27 0.0798077
48 *199:13 *242:11 0.00112546
49 *241:9 *242:9 0
*RES
1 *921:gpio_dm0[29] *242:9 10.418 
2 *242:9 *242:11 1050.58 
3 *242:11 *242:13 2 
4 *242:13 *242:15 62.895 
5 *242:15 *242:25 25.6958 
6 *242:25 *242:27 141.986 
7 *242:27 *242:33 13.2477 
8 *242:33 *242:35 367.118 
9 *242:35 gpio_dm0[29] 4.85577 
*END

*D_NET *243 0.0986681
*CONN
*P gpio_dm0[2] O
*I *921:gpio_dm0[2] O *D CF_CARAVEL_SOC
*CAP
1 gpio_dm0[2] 0.00339984
2 *921:gpio_dm0[2] 0.00335736
3 *243:11 0.0229908
4 *243:9 0.0229483
5 gpio_dm0[2] gpio_inp_dis[2] 0.00359648
6 *243:9 *254:9 0
7 *243:11 gpio_dm1[1] 0.000228018
8 *243:11 *246:11 0.00297523
9 *243:11 *254:11 0
10 *243:11 *259:11 0
11 *243:11 *260:17 0
12 *243:11 *287:13 0.0230845
13 *243:11 *342:11 0
14 *243:11 *444:11 0.00921356
15 gpio_analog_en[2] gpio_dm0[2] 0.00054873
16 gpio_analog_en[2] *243:11 4.11026e-05
17 gpio_analog_pol[2] gpio_dm0[2] 0
18 *188:11 *243:11 0.000591752
19 *225:17 *243:11 0.00569252
20 *232:9 *243:9 0
*RES
1 *921:gpio_dm0[2] *243:9 8.0582 
2 *243:9 *243:11 73.3375 
3 *243:11 gpio_dm0[2] 8.97083 
*END

*D_NET *244 0.793887
*CONN
*P gpio_dm0[30] O
*I *921:gpio_dm0[30] O *D CF_CARAVEL_SOC
*CAP
1 gpio_dm0[30] 0.000336964
2 *921:gpio_dm0[30] 0.00146951
3 *244:19 0.0177602
4 *244:17 0.0174232
5 *244:15 0.0561467
6 *244:13 0.0561467
7 *244:11 0.0182106
8 *244:9 0.0196801
9 *244:9 *245:9 0
10 *244:9 *340:33 0.000229581
11 *244:11 *253:11 0.00293998
12 *244:11 *271:11 7.5553e-05
13 *244:11 *272:11 0.0107944
14 *244:11 *324:11 0.0662585
15 *244:15 gpio_ib_mode_sel[32] 0
16 *244:15 *246:23 0.228966
17 *244:15 *247:15 0
18 *244:15 *286:39 0.0124044
19 *244:15 *391:15 0.0806264
20 *244:15 *536:149 0.000250139
21 *244:15 *686:11 0
22 *244:15 *801:15 0.010629
23 *244:19 *286:41 0.0332519
24 *244:19 *325:167 0.0212143
25 *244:19 *466:11 0.00475529
26 gpio_analog_en[30] gpio_dm0[30] 9.37775e-05
27 gpio_analog_pol[30] gpio_dm0[30] 6.4139e-05
28 *118:19 *244:11 0
29 *158:24 *244:15 0.000414309
30 *228:25 *244:15 0.000100716
31 *230:25 *244:15 0.024519
32 *233:11 *244:11 0.0957747
33 *239:11 *244:11 0.0133504
*RES
1 *921:gpio_dm0[30] *244:9 3.1296 
2 *244:9 *244:11 1070.08 
3 *244:11 *244:13 0.5 
4 *244:13 *244:15 386.929 
5 *244:15 *244:17 0.5 
6 *244:17 *244:19 675.855 
7 *244:19 gpio_dm0[30] 1.33157 
*END

*D_NET *245 0.675442
*CONN
*P gpio_dm0[31] O
*I *921:gpio_dm0[31] O *D CF_CARAVEL_SOC
*CAP
1 gpio_dm0[31] 0.000631909
2 *921:gpio_dm0[31] 0.00158735
3 *245:15 0.130081
4 *245:13 0.129449
5 *245:11 0.0422862
6 *245:9 0.0438735
7 gpio_dm0[31] *459:13 0.00200761
8 gpio_dm0[31] *553:25 0.00162158
9 *245:9 *246:9 0.000473069
10 *245:9 *340:33 0.000229581
11 *245:9 *740:73 0
12 *245:11 *250:21 0.00151989
13 *245:11 *256:11 0.000593423
14 *245:11 *257:11 0.000637677
15 *245:11 *279:11 0.123477
16 *245:11 *280:19 0.000286565
17 *245:11 *282:11 0.132801
18 *245:11 *291:11 0.010027
19 *245:11 *296:11 0.00301271
20 *245:11 *309:13 0
21 *245:11 *317:11 0.0122282
22 *245:11 *322:19 0.000759514
23 *245:11 *339:11 0.000929985
24 *245:11 *540:38 0.000929985
25 *245:11 *551:125 0.000929985
26 *245:11 *740:67 0.00212371
27 *245:15 gpio_holdover[31] 1.50767e-05
28 *245:15 *333:27 0
29 *245:15 *729:21 0.0313174
30 *245:15 *770:17 0
31 gpio_analog_pol[31] gpio_dm0[31] 0
32 *91:11 *245:11 0
33 *113:23 gpio_dm0[31] 0.000138483
34 *118:19 *245:11 0.00147316
35 *236:11 *245:11 0
36 *241:25 *245:15 0
37 *244:9 *245:9 0
*RES
1 *921:gpio_dm0[31] *245:9 3.85793 
2 *245:9 *245:11 263.089 
3 *245:11 *245:13 0.5 
4 *245:13 *245:15 387.948 
5 *245:15 gpio_dm0[31] 24.6117 
*END

*D_NET *246 0.83096
*CONN
*P gpio_dm0[32] O
*I *921:gpio_dm0[32] O *D CF_CARAVEL_SOC
*CAP
1 gpio_dm0[32] 0.000828272
2 *921:gpio_dm0[32] 0.00328249
3 *246:33 0.0135661
4 *246:29 0.0141988
5 *246:23 0.0319724
6 *246:21 0.0313247
7 *246:11 0.0296795
8 *246:9 0.0321487
9 gpio_dm0[32] *548:23 0.000135708
10 *246:9 gpio_out[0] 0
11 *246:9 *247:9 0
12 *246:11 *270:19 0.0725047
13 *246:11 *342:11 0.0014994
14 *246:11 *444:11 0
15 *246:11 *567:18 0
16 *246:23 *286:39 0.0123984
17 gpio_analog_en[32] gpio_dm0[32] 0.000508691
18 *103:11 *246:11 0.0496397
19 *114:29 *246:29 0.0030964
20 *114:33 *246:33 0.0327369
21 *130:11 *246:11 0.00150967
22 *130:11 *246:21 0.000650637
23 *141:21 *246:11 0.00369807
24 *144:19 *246:11 0.00386545
25 *158:24 *246:23 0.227146
26 *158:32 gpio_dm0[32] 0.00131298
27 *180:11 *246:21 0.000437538
28 *203:15 *246:21 3.92756e-05
29 *205:53 *246:21 4.2145e-05
30 *216:13 *246:11 0.00229775
31 *228:25 *246:23 0.000100716
32 *229:15 *246:23 0.00268847
33 *230:25 *246:23 0.0252365
34 *243:11 *246:11 0.00297523
35 *244:15 *246:23 0.228966
36 *245:9 *246:9 0.000473069
*RES
1 *921:gpio_dm0[32] *246:9 7.73773 
2 *246:9 *246:11 1051.72 
3 *246:11 *246:21 3.75847 
4 *246:21 *246:23 341.248 
5 *246:23 *246:29 6.7228 
6 *246:29 *246:33 49.6277 
7 *246:33 gpio_dm0[32] 4.4055 
*END

*D_NET *247 0.880268
*CONN
*P gpio_dm0[33] O
*I *921:gpio_dm0[33] O *D CF_CARAVEL_SOC
*CAP
1 gpio_dm0[33] 0.00363898
2 *921:gpio_dm0[33] 0.00289922
3 *247:19 0.00607666
4 *247:17 0.00243767
5 *247:15 0.0353821
6 *247:13 0.0353821
7 *247:11 0.0192501
8 *247:9 0.0221493
9 *247:9 gpio_oeb[0] 0.00032051
10 *247:9 *248:9 0.000217561
11 *247:11 gpio_dm2[2] 0.000222998
12 *247:11 *274:61 0.000390881
13 *247:11 *288:67 0.000126782
14 *247:11 *430:27 0.0228695
15 *247:11 *442:11 0
16 *247:11 *530:113 0
17 *247:11 *562:123 0.00151795
18 *247:11 *694:10 0.0268972
19 *247:11 *705:39 0
20 *247:11 *716:15 0
21 *247:11 *727:15 0
22 *247:11 *738:15 0.000573738
23 *247:15 *286:39 0.0514491
24 *247:15 *375:31 5.38434e-05
25 *247:15 *391:15 0.00101038
26 *247:15 *391:33 0.000119804
27 *247:15 *787:15 0.00088543
28 *247:15 *788:15 0.00027481
29 *247:15 *831:31 0.251283
30 *247:19 *363:11 0.00610835
31 *247:19 *436:19 0.00904492
32 *247:19 *552:25 0
33 *247:19 *735:23 0.000123568
34 gpio_analog_en[33] gpio_dm0[33] 0.00253648
35 gpio_analog_pol[33] gpio_dm0[33] 0
36 gpio_analog_sel[33] *247:19 0.00188082
37 *90:11 *247:11 0.00127401
38 *98:11 *247:11 0.00816034
39 *144:11 *247:11 0.00525126
40 *159:13 *247:11 0.00220827
41 *170:11 *247:11 0.0238695
42 *206:47 *247:15 0.255763
43 *206:57 gpio_dm0[33] 0.00601384
44 *207:19 *247:11 0.0561883
45 *223:11 *247:11 0.00423699
46 *228:25 *247:15 0.0120876
47 *230:25 *247:15 0
48 *242:25 *247:15 9.17744e-05
49 *244:15 *247:15 0
50 *246:9 *247:9 0
*RES
1 *921:gpio_dm0[33] *247:9 6.86373 
2 *247:9 *247:11 1055.3 
3 *247:11 *247:13 0.5 
4 *247:13 *247:15 381.277 
5 *247:15 *247:17 0.5 
6 *247:17 *247:19 118.935 
7 *247:19 gpio_dm0[33] 11.337 
*END

*D_NET *248 0.737035
*CONN
*P gpio_dm0[34] O
*I *921:gpio_dm0[34] O *D CF_CARAVEL_SOC
*CAP
1 gpio_dm0[34] 0.00937798
2 *921:gpio_dm0[34] 0.000868312
3 *248:35 0.0416817
4 *248:33 0.0335576
5 *248:19 0.0391533
6 *248:17 0.037974
7 *248:11 0.00514259
8 *248:9 0.00593636
9 gpio_dm0[34] gpio_holdover[34] 0.000711154
10 gpio_dm0[34] gpio_slow_sel[35] 0
11 gpio_dm0[34] *353:11 0.00383857
12 gpio_dm0[34] *385:11 0.00173401
13 gpio_dm0[34] *416:11 0.00363796
14 gpio_dm0[34] *421:11 0.0005227
15 gpio_dm0[34] *451:21 0.000698584
16 gpio_dm0[34] *553:25 0.000355722
17 *248:9 *249:9 0
18 *248:11 *249:11 0.0129187
19 *248:11 *252:11 0.000263611
20 *248:11 *255:11 0.0226909
21 *248:11 *289:11 0.00260898
22 *248:11 *858:9 0
23 *248:17 *252:11 6.93884e-05
24 *248:17 *854:9 7.08297e-05
25 *248:19 *301:17 0.000121769
26 *248:19 *302:21 0.0112555
27 *248:19 *325:23 0.0178526
28 *248:19 *325:103 0.00593606
29 *248:19 *539:21 0.0016945
30 *248:19 *552:13 0.202361
31 *248:19 *565:13 0.00450965
32 *248:19 *737:171 0.000312479
33 *248:19 *740:87 0.00698586
34 *248:19 *784:13 0.000921114
35 *248:19 *843:11 0.0210206
36 *248:19 *861:11 0.136501
37 *248:33 *453:47 0.000587126
38 *248:33 *461:21 0.000125135
39 *248:33 *462:21 0.000183402
40 *248:33 *546:23 0.000430468
41 *248:33 *552:23 0.00150474
42 *248:33 *785:25 0.000214844
43 *248:33 *804:21 8.28896e-05
44 *248:33 *825:23 0.000243201
45 *248:33 *853:17 1.95231e-05
46 *248:33 *855:17 0
47 *248:33 *862:21 5.57338e-05
48 *248:35 *408:13 0.00270099
49 *248:35 *423:11 0.00934992
50 *248:35 *453:41 0.0827648
51 *248:35 *453:47 1.30286e-05
52 *248:35 *468:11 0
53 *248:35 *543:31 0
54 *248:35 *737:65 0
55 *248:35 *793:11 0.0051197
56 *248:35 *855:17 0
57 *248:35 *862:23 0
58 gpio_analog_en[34] gpio_dm0[34] 0
59 gpio_analog_pol[34] gpio_dm0[34] 0.000137381
60 *247:9 *248:9 0.000217561
*RES
1 *921:gpio_dm0[34] *248:9 2.22773 
2 *248:9 *248:11 263.265 
3 *248:11 *248:17 3.9575 
4 *248:17 *248:19 2206.38 
5 *248:19 *248:33 21.864 
6 *248:33 *248:35 922.695 
7 *248:35 gpio_dm0[34] 33.9467 
*END

*D_NET *249 0.68997
*CONN
*P gpio_dm0[35] O
*I *921:gpio_dm0[35] O *D CF_CARAVEL_SOC
*CAP
1 gpio_dm0[35] 0.00202699
2 *921:gpio_dm0[35] 0.00080451
3 *249:27 0.0296144
4 *249:25 0.0297148
5 *249:15 0.0476638
6 *249:13 0.0455364
7 *249:11 0.00480839
8 *249:9 0.0056129
9 *249:9 *250:9 0.000168492
10 *249:11 *255:11 0.000197546
11 *249:11 *289:11 0.00147291
12 *249:11 *858:9 0
13 *249:15 *364:39 0
14 *249:15 *389:23 0.068181
15 *249:15 *390:23 0
16 *249:15 *845:11 0.0168649
17 *249:15 *845:19 0.0439458
18 *249:15 *847:8 0.00236258
19 *249:15 *852:11 0
20 *249:25 *390:21 0.000112104
21 *249:25 *554:23 0.000877024
22 *249:25 *559:29 0.00510976
23 *249:25 *760:21 0.00110288
24 *249:25 *829:33 0.00010141
25 *249:25 *852:25 9.5732e-05
26 *249:25 *854:25 0.000100114
27 *249:27 *465:11 0.0743287
28 *249:27 *472:15 0
29 *249:27 *802:11 0.00296275
30 gpio_analog_en[35] gpio_dm0[35] 3.60033e-05
31 gpio_analog_pol[35] gpio_dm0[35] 0.00298652
32 *126:15 *249:15 0.0126376
33 *162:27 *249:27 0.0141639
34 *170:19 *249:11 0
35 *212:19 *249:11 0.0222642
36 *228:11 *249:11 0.000637613
37 *238:15 *249:15 0.24056
38 *248:9 *249:9 0
39 *248:11 *249:11 0.0129187
*RES
1 *921:gpio_dm0[35] *249:9 2.172 
2 *249:9 *249:11 257.272 
3 *249:11 *249:13 2 
4 *249:13 *249:15 2214.31 
5 *249:15 *249:25 12.273 
6 *249:25 *249:27 858.945 
7 *249:27 gpio_dm0[35] 5.42797 
*END

*D_NET *250 0.83219
*CONN
*P gpio_dm0[36] O
*I *921:gpio_dm0[36] O *D CF_CARAVEL_SOC
*CAP
1 gpio_dm0[36] 0.00390148
2 *921:gpio_dm0[36] 0.00164153
3 *250:35 0.0147566
4 *250:33 0.0118367
5 *250:23 0.0321492
6 *250:21 0.0510397
7 *250:9 0.0215136
8 gpio_dm0[36] gpio_inp_dis[36] 0
9 gpio_dm0[36] gpio_vtrip_sel[36] 0
10 gpio_dm0[36] *832:17 0.000242433
11 *250:9 *251:9 0
12 *250:9 *340:33 0.000229581
13 *250:21 *251:11 0.000452702
14 *250:21 *256:11 0.00223352
15 *250:21 *257:11 0.00223352
16 *250:21 *296:11 0.00320532
17 *250:21 *309:13 0
18 *250:21 *540:38 0.00223352
19 *250:21 *551:125 0.00214807
20 *250:23 *284:15 0.000482657
21 *250:23 *446:27 0.000200091
22 *250:23 *561:18 0.0286791
23 *250:23 *563:14 0.000606955
24 *250:23 *566:13 0.00218842
25 *250:23 *781:23 0.0228957
26 *250:23 *783:15 0.000331014
27 *250:23 *785:27 0
28 *250:23 *804:23 0.239878
29 *250:23 *844:13 0.23799
30 *250:33 *251:25 0.000231349
31 *250:33 *546:23 0.00280071
32 *250:33 *785:25 2.06963e-05
33 *250:33 *825:23 0.00050279
34 *250:33 *859:19 0.00208798
35 *250:33 *860:15 4.11715e-05
36 *250:35 *251:27 0.0493407
37 *250:35 *295:27 0.00845786
38 *250:35 *420:11 0.00394456
39 *250:35 *456:27 0.00305966
40 *250:35 *469:11 0.0619623
41 *250:35 *554:23 0
42 *250:35 *803:11 0.0074853
43 gpio_analog_en[36] gpio_dm0[36] 0.00117139
44 gpio_analog_pol[36] gpio_dm0[36] 0.0030297
45 *118:19 *250:21 0.00329666
46 *228:11 *250:21 0
47 *236:11 *250:21 0
48 *245:11 *250:21 0.00151989
49 *249:9 *250:9 0.000168492
*RES
1 *921:gpio_dm0[36] *250:9 3.7414 
2 *250:9 *250:21 49.6774 
3 *250:21 *250:23 2209.83 
4 *250:23 *250:33 9.17737 
5 *250:33 *250:35 712.065 
6 *250:35 gpio_dm0[36] 10.0006 
*END

*D_NET *251 0.673905
*CONN
*P gpio_dm0[37] O
*I *921:gpio_dm0[37] O *D CF_CARAVEL_SOC
*CAP
1 gpio_dm0[37] 0.00458432
2 *921:gpio_dm0[37] 0.00172516
3 *251:27 0.0138979
4 *251:25 0.0100328
5 *251:15 0.0399849
6 *251:13 0.0392656
7 *251:11 0.00675217
8 *251:9 0.00847732
9 *251:9 *252:9 0
10 *251:9 *340:33 0.000229581
11 *251:11 *253:11 0
12 *251:11 *296:11 0.00896985
13 *251:11 *322:35 0
14 *251:11 *740:67 0.00129768
15 *251:11 *740:75 0
16 *251:11 *861:9 0
17 *251:15 *284:23 0.0145622
18 *251:15 *335:33 0.0354985
19 *251:15 *387:23 0.0411813
20 *251:15 *428:23 0.00225851
21 *251:15 *538:43 0.0211666
22 *251:15 *692:27 0
23 *251:15 *692:35 0.000146384
24 *251:15 *695:75 0.0192381
25 *251:15 *736:43 0.0084249
26 *251:15 *740:171 0.0125545
27 *251:15 *855:11 0.24145
28 *251:15 *857:11 0.0137621
29 *251:25 *387:21 6.42299e-05
30 *251:25 *549:23 0.000289572
31 *251:25 *855:17 0
32 *251:25 *857:21 0
33 *251:25 *863:21 0.000669576
34 *251:27 *295:27 0.00961743
35 *251:27 *384:11 0.000747366
36 *251:27 *420:11 0.00167999
37 *251:27 *456:27 0.0276103
38 gpio_analog_en[37] gpio_dm0[37] 0.00110227
39 gpio_analog_en[38] *251:15 0.000130266
40 gpio_analog_pol[37] gpio_dm0[37] 0.000397251
41 *118:19 *251:11 0.0220787
42 *120:15 *251:15 0.014033
43 *250:9 *251:9 0
44 *250:21 *251:11 0.000452702
45 *250:33 *251:25 0.000231349
46 *250:35 *251:27 0.0493407
*RES
1 *921:gpio_dm0[37] *251:9 3.77053 
2 *251:9 *251:11 285.068 
3 *251:11 *251:13 2 
4 *251:13 *251:15 2231.56 
5 *251:15 *251:25 8.56657 
6 *251:25 *251:27 552.435 
7 *251:27 gpio_dm0[37] 10.0893 
*END

*D_NET *252 0.504598
*CONN
*P gpio_dm0[38] O
*I *921:gpio_dm0[38] O *D CF_CARAVEL_SOC
*CAP
1 gpio_dm0[38] 0.000417811
2 *921:gpio_dm0[38] 0.000938881
3 *252:15 0.0552842
4 *252:13 0.0548664
5 *252:11 0.00470856
6 *252:9 0.00564744
7 *252:9 *253:9 0
8 *252:9 *340:33 0.000229581
9 *252:11 *255:11 0.000463046
10 *252:11 *289:11 0.00269434
11 *252:11 *294:11 0.0237233
12 *252:11 *295:11 0.0232479
13 *252:11 *852:9 0.00138429
14 *252:11 *853:9 1.7635e-05
15 *252:11 *854:9 0.000184624
16 *252:15 gpio_dm0[43] 0.00419598
17 *252:15 gpio_dm1[39] 0.00732875
18 *252:15 gpio_dm2[42] 0.0111066
19 *252:15 gpio_out[40] 0.00312027
20 *252:15 gpio_out[42] 0.00735909
21 *252:15 *300:29 0.0263639
22 *252:15 *301:17 0
23 *252:15 *385:15 0.0471502
24 *252:15 *538:53 0.010796
25 *252:15 *549:13 0.00829347
26 *252:15 *560:27 0.0496212
27 *252:15 *566:13 0.00952332
28 *252:15 *692:35 0.0122729
29 *252:15 *693:193 0.000886415
30 *252:15 *697:115 0.0027007
31 *252:15 *698:27 0.0220265
32 *252:15 *829:35 0.000185617
33 *252:15 *853:11 0.0394201
34 *252:15 *859:11 0.0103879
35 *252:15 *860:11 0.0230903
36 *252:15 *865:11 0.0252929
37 *252:15 *867:11 0.00909986
38 gpio_analog_pol[38] gpio_dm0[38] 0
39 gpio_analog_sel[43] *252:15 0.000234652
40 *167:15 *252:11 0
41 *248:11 *252:11 0.000263611
42 *248:17 *252:11 6.93884e-05
43 *251:9 *252:9 0
*RES
1 *921:gpio_dm0[38] *252:9 2.13907 
2 *252:9 *252:11 286.215 
3 *252:11 *252:13 0.5 
4 *252:13 *252:15 290.905 
5 *252:15 gpio_dm0[38] 5.9375 
*END

*D_NET *253 0.456204
*CONN
*P gpio_dm0[39] O
*I *921:gpio_dm0[39] O *D CF_CARAVEL_SOC
*CAP
1 gpio_dm0[39] 0.00143101
2 *921:gpio_dm0[39] 0.00142888
3 *253:15 0.0268479
4 *253:13 0.0254169
5 *253:11 0.00510518
6 *253:9 0.00653406
7 *253:11 *740:75 0.0200087
8 *253:15 *338:71 0.000944322
9 *253:15 *340:39 0.14529
10 *253:15 *386:207 0.00686147
11 *253:15 *545:11 0.0191143
12 *253:15 *554:13 0.0260255
13 *253:15 *847:16 0.000391131
14 gpio_analog_en[39] gpio_dm0[39] 0.000613375
15 gpio_analog_pol[39] gpio_dm0[39] 0
16 *118:19 *253:11 0
17 *164:33 *253:15 0.00022032
18 *164:41 gpio_dm0[39] 0.00015949
19 *168:15 *253:15 0.000836728
20 *169:15 *253:15 0.000327331
21 *209:15 *253:15 0.144355
22 *213:15 *253:15 8.92563e-05
23 *233:11 *253:11 0.00123739
24 *236:11 *253:11 0.000851643
25 *238:11 *253:11 0.0191744
26 *244:11 *253:11 0.00293998
27 *251:11 *253:11 0
28 *252:9 *253:9 0
*RES
1 *921:gpio_dm0[39] *253:9 3.10173 
2 *253:9 *253:11 271.425 
3 *253:11 *253:13 0.5 
4 *253:13 *253:15 223.374 
5 *253:15 gpio_dm0[39] 24.4025 
*END

*D_NET *254 0.121471
*CONN
*P gpio_dm0[3] O
*I *921:gpio_dm0[3] O *D CF_CARAVEL_SOC
*CAP
1 gpio_dm0[3] 0.00418109
2 *921:gpio_dm0[3] 0.0030583
3 *254:11 0.0248573
4 *254:9 0.0237345
5 gpio_dm0[3] gpio_dm1[3] 0
6 gpio_dm0[3] gpio_inp_dis[3] 0
7 gpio_dm0[3] *281:11 9.92028e-05
8 gpio_dm0[3] *375:59 6.88455e-05
9 *254:9 *259:9 0
10 *254:11 gpio_dm2[2] 0.00864679
11 *254:11 *270:17 0.00722851
12 *254:11 *342:11 0.0225249
13 *254:11 *530:113 0.000232447
14 *254:11 *567:18 0.00525961
15 gpio_analog_en[3] gpio_dm0[3] 0.00341458
16 gpio_analog_pol[3] gpio_dm0[3] 0
17 gpio_dm0[0] *254:11 0
18 *93:11 *254:11 0.00025992
19 *144:11 *254:11 0.00602502
20 *144:19 *254:11 0.0010331
21 *207:19 *254:11 0.00149497
22 *223:11 *254:11 0.00750194
23 *225:17 *254:11 0.0018499
24 *243:9 *254:9 0
25 *243:11 *254:11 0
*RES
1 *921:gpio_dm0[3] *254:9 7.24247 
2 *254:9 *254:11 100.642 
3 *254:11 gpio_dm0[3] 13.1406 
*END

*D_NET *255 0.378664
*CONN
*P gpio_dm0[40] O
*I *921:gpio_dm0[40] O *D CF_CARAVEL_SOC
*CAP
1 gpio_dm0[40] 0.00151029
2 *921:gpio_dm0[40] 0.000644819
3 *255:15 0.023029
4 *255:13 0.0215187
5 *255:11 0.00478635
6 *255:9 0.00543117
7 *255:9 *256:9 0.000210429
8 *255:11 *289:11 0.00308937
9 *255:11 *295:11 0.0241673
10 *255:15 *289:21 2.50072e-05
11 *255:15 *297:14 0.119445
12 *255:15 *322:149 0.000221223
13 *255:15 *339:23 0.000674298
14 *255:15 *343:15 0.121356
15 *255:15 *364:39 0.0255249
16 *255:15 *390:23 0.00030434
17 *255:15 *827:19 0.00286489
18 *255:15 *828:15 2.75207e-05
19 *255:15 *852:11 0.000330133
20 gpio_analog_en[40] gpio_dm0[40] 0
21 gpio_analog_pol[40] gpio_dm0[40] 0
22 *168:15 *255:15 6.25961e-05
23 *208:19 *255:15 1.70468e-05
24 *208:27 gpio_dm0[40] 7.28221e-05
25 *212:19 *255:11 0
26 *248:11 *255:11 0.0226909
27 *249:11 *255:11 0.000197546
28 *252:11 *255:11 0.000463046
*RES
1 *921:gpio_dm0[40] *255:9 1.91107 
2 *255:9 *255:11 280.605 
3 *255:11 *255:13 0.5 
4 *255:13 *255:15 187.54 
5 *255:15 gpio_dm0[40] 21.7175 
*END

*D_NET *256 0.339899
*CONN
*P gpio_dm0[41] O
*I *921:gpio_dm0[41] O *D CF_CARAVEL_SOC
*CAP
1 gpio_dm0[41] 0.00221504
2 *921:gpio_dm0[41] 0.00175118
3 *256:15 0.0205838
4 *256:13 0.0183688
5 *256:11 0.00411804
6 *256:9 0.00586922
7 *256:9 *257:9 0
8 *256:9 *340:33 0.000229581
9 *256:11 *257:11 0.0245106
10 *256:11 *339:11 0
11 *256:11 *441:11 0.000190937
12 *256:11 *540:38 0.0235378
13 *256:15 *257:15 0.000870966
14 *256:15 *299:23 0.09955
15 *256:15 *484:15 0.0230367
16 *256:15 *548:11 0.0113808
17 *256:15 *815:49 0.00016991
18 gpio_analog_en[41] gpio_dm0[41] 0
19 gpio_analog_pol[41] gpio_dm0[41] 0
20 *121:15 *256:15 0.100028
21 *211:13 *256:15 0.000181141
22 *212:23 *256:15 0.000269292
23 *245:11 *256:11 0.000593423
24 *250:21 *256:11 0.00223352
25 *255:9 *256:9 0.000210429
*RES
1 *921:gpio_dm0[41] *256:9 4.06187 
2 *256:9 *256:11 273.465 
3 *256:11 *256:13 0.5 
4 *256:13 *256:15 154.619 
5 *256:15 gpio_dm0[41] 31.0175 
*END

*D_NET *257 0.292133
*CONN
*P gpio_dm0[42] O
*I *921:gpio_dm0[42] O *D CF_CARAVEL_SOC
*CAP
1 gpio_dm0[42] 0.00165988
2 *921:gpio_dm0[42] 0.00181178
3 *257:15 0.0159178
4 *257:13 0.0142579
5 *257:11 0.00408678
6 *257:9 0.00589856
7 *257:9 *258:9 0
8 *257:9 *340:33 0.000229581
9 *257:11 *296:11 0.024957
10 *257:11 *339:11 0
11 *257:11 *540:38 0.000210254
12 *257:15 *296:23 0.0229963
13 *257:15 *339:15 0.0177818
14 *257:15 *771:27 0.00447592
15 *257:15 *842:11 0.0161987
16 gpio_analog_en[42] gpio_dm0[42] 0.00116332
17 gpio_analog_pol[42] gpio_dm0[42] 0
18 *121:15 *257:15 0.0772724
19 *169:15 *257:15 0
20 *170:23 *257:15 0.0549626
21 *245:11 *257:11 0.000637677
22 *250:21 *257:11 0.00223352
23 *256:9 *257:9 0
24 *256:11 *257:11 0.0245106
25 *256:15 *257:15 0.000870966
*RES
1 *921:gpio_dm0[42] *257:9 4.0036 
2 *257:9 *257:11 278.565 
3 *257:11 *257:13 0.5 
4 *257:13 *257:15 120.009 
5 *257:15 gpio_dm0[42] 29.1875 
*END

*D_NET *258 0.192395
*CONN
*P gpio_dm0[43] O
*I *921:gpio_dm0[43] O *D CF_CARAVEL_SOC
*CAP
1 gpio_dm0[43] 0.00431957
2 *921:gpio_dm0[43] 0.00029888
3 *258:19 0.0123091
4 *258:17 0.00798954
5 *258:15 0.00722591
6 *258:13 0.0072507
7 *258:11 0.00257356
8 *258:9 0.00284766
9 gpio_dm0[43] *549:13 0.000460926
10 gpio_dm0[43] *697:115 0.00205802
11 gpio_dm0[43] *698:27 0.000446481
12 gpio_dm0[43] *815:49 0.00259206
13 gpio_dm0[43] *839:53 9.20318e-05
14 gpio_dm0[43] *840:11 0.00053468
15 gpio_dm0[43] *846:13 0.000490083
16 gpio_dm0[43] *860:11 0.000654511
17 gpio_dm0[43] *865:11 0.000599919
18 gpio_dm0[43] *867:11 0.00042248
19 *258:9 *340:33 5.56633e-06
20 *258:11 *299:11 0.00355551
21 *258:11 *340:11 5.33602e-05
22 *258:11 *340:33 0.000230857
23 *258:15 *299:11 0.0178639
24 *258:15 *300:11 4.20968e-05
25 *258:15 *300:17 0.0009837
26 *258:15 *340:33 0.00181675
27 *258:15 *341:14 0.00219466
28 *258:19 *344:15 0.0473654
29 *258:19 *430:23 0.0109614
30 *258:19 *815:49 0.0473679
31 gpio_analog_en[43] gpio_dm0[43] 0
32 gpio_analog_pol[43] gpio_dm0[43] 0
33 *211:9 *258:11 0
34 *211:9 *258:15 0
35 *212:23 gpio_dm0[43] 0.00259206
36 *252:15 gpio_dm0[43] 0.00419598
37 *257:9 *258:9 0
*RES
1 *921:gpio_dm0[43] *258:9 0.8876 
2 *258:9 *258:11 68.235 
3 *258:11 *258:13 0.45 
4 *258:13 *258:15 210.945 
5 *258:15 *258:17 0.5 
6 *258:17 *258:19 71.9973 
7 *258:19 gpio_dm0[43] 45.3734 
*END

*D_NET *259 0.177543
*CONN
*P gpio_dm0[4] O
*I *921:gpio_dm0[4] O *D CF_CARAVEL_SOC
*CAP
1 gpio_dm0[4] 0.00363864
2 *921:gpio_dm0[4] 0.00374802
3 *259:11 0.0233628
4 *259:9 0.0234722
5 gpio_dm0[4] gpio_dm1[4] 0
6 *259:9 *260:9 0
7 *259:11 *260:17 0.00974639
8 *259:11 *266:11 0.00833644
9 *259:11 *304:11 0
10 *259:11 *312:17 0.00616729
11 *259:11 *419:197 0.00160206
12 *259:11 *532:36 0.0119501
13 gpio_analog_en[4] gpio_dm0[4] 0.00037828
14 gpio_analog_pol[4] gpio_dm0[4] 0
15 gpio_analog_sel[4] *259:11 0.00246601
16 *94:17 *259:11 0.000210055
17 *128:11 *259:11 2.37061e-05
18 *129:11 *259:11 0.0203951
19 *132:11 *259:11 0.000164905
20 *177:11 *259:11 0.0568577
21 *183:9 gpio_dm0[4] 0.00105759
22 *232:13 *259:11 0.00396592
23 *243:11 *259:11 0
24 *254:9 *259:9 0
*RES
1 *921:gpio_dm0[4] *259:9 8.99047 
2 *259:9 *259:11 128.721 
3 *259:11 gpio_dm0[4] 8.19943 
*END

*D_NET *260 0.185552
*CONN
*P gpio_dm0[5] O
*I *921:gpio_dm0[5] O *D CF_CARAVEL_SOC
*CAP
1 gpio_dm0[5] 0.00325255
2 *921:gpio_dm0[5] 0.00361715
3 *260:19 0.0189139
4 *260:17 0.024905
5 *260:9 0.0128609
6 gpio_dm0[5] gpio_dm1[5] 0
7 gpio_dm0[5] gpio_inp_dis[5] 4.02448e-06
8 gpio_dm0[5] *281:11 0.000149563
9 gpio_dm0[5] *782:47 0.000103832
10 *260:9 *261:9 0
11 *260:17 gpio_dm1[1] 0.000729097
12 *260:17 *304:11 0.00381943
13 *260:19 *312:19 0.0343848
14 *260:19 *535:121 0.0607341
15 *260:19 *568:15 0
16 gpio_analog_en[1] *260:17 3.92635e-05
17 gpio_analog_en[3] *260:19 0.000887268
18 gpio_analog_en[5] gpio_dm0[5] 0.00228185
19 gpio_analog_pol[4] *260:19 0.00128874
20 gpio_analog_pol[5] gpio_dm0[5] 0.000253092
21 gpio_analog_sel[4] *260:19 0.000194387
22 *94:17 *260:19 0.00283166
23 *100:13 *260:19 0.00444037
24 *177:11 *260:19 0.000114586
25 *243:11 *260:17 0
26 *259:9 *260:9 0
27 *259:11 *260:17 0.00974639
*RES
1 *921:gpio_dm0[5] *260:9 8.64087 
2 *260:9 *260:17 43.7234 
3 *260:17 *260:19 675.855 
4 *260:19 gpio_dm0[5] 11.9553 
*END

*D_NET *261 0.237503
*CONN
*P gpio_dm0[6] O
*I *921:gpio_dm0[6] O *D CF_CARAVEL_SOC
*CAP
1 gpio_dm0[6] 0.00189214
2 *921:gpio_dm0[6] 0.00552213
3 *261:11 0.0215937
4 *261:9 0.0252237
5 gpio_dm0[6] gpio_inp_dis[6] 0
6 *261:9 *262:9 0
7 *261:11 *269:11 0.00621087
8 *261:11 *347:11 0.00214679
9 *261:11 *386:211 0.0522273
10 *261:11 *571:39 0.037539
11 *261:11 *826:131 0.0531104
12 gpio_analog_en[6] gpio_dm0[6] 0.00077331
13 gpio_analog_pol[6] gpio_dm0[6] 0
14 *220:11 *261:11 0.0312639
15 *260:9 *261:9 0
*RES
1 *921:gpio_dm0[6] *261:9 12.6321 
2 *261:9 *261:11 1092.02 
3 *261:11 gpio_dm0[6] 4.57803 
*END

*D_NET *262 0.32117
*CONN
*P gpio_dm0[7] O
*I *921:gpio_dm0[7] O *D CF_CARAVEL_SOC
*CAP
1 gpio_dm0[7] 0.000829772
2 *921:gpio_dm0[7] 0.00647069
3 *262:18 1.3443e-05
4 *262:11 0.055577
5 *262:9 0.0612313
6 *262:9 *263:9 0
7 *262:11 *268:11 0.00102312
8 *262:11 *430:35 0.000856515
9 *262:11 *482:11 0.14998
10 *262:11 *782:55 0.00189062
11 gpio_analog_en[7] gpio_dm0[7] 0
12 gpio_analog_pol[7] gpio_dm0[7] 0.000670552
13 *210:11 *262:11 0.00909976
14 *217:11 *262:11 0.0335272
15 *261:9 *262:9 0
*RES
1 *921:gpio_dm0[7] *262:9 14.3801 
2 *262:9 *262:11 1753.99 
3 *262:11 gpio_dm0[7] 2.52793 
4 gpio_dm0[7] *262:18 0.0386333 
*END

*D_NET *263 0.331926
*CONN
*P gpio_dm0[8] O
*I *921:gpio_dm0[8] O *D CF_CARAVEL_SOC
*CAP
1 gpio_dm0[8] 0.00197699
2 *921:gpio_dm0[8] 0.00495894
3 *263:11 0.0583358
4 *263:9 0.0613177
5 *263:9 *264:9 0
6 *263:11 *277:11 0
7 *263:11 *306:11 0.135445
8 *263:11 *787:27 0.00306294
9 *263:11 *793:31 0.00829529
10 *263:11 *804:27 0.00391493
11 gpio_analog_en[8] gpio_dm0[8] 0.00103293
12 gpio_analog_pol[8] gpio_dm0[8] 0.000486962
13 *165:11 *263:11 0.0502627
14 *195:11 *263:11 0.00183697
15 *218:11 *263:11 0.000997944
16 *222:19 *263:11 0
17 *262:9 *263:9 0
*RES
1 *921:gpio_dm0[8] *263:9 11.6416 
2 *263:9 *263:11 1917.7 
3 *263:11 gpio_dm0[8] 5.5939 
*END

*D_NET *264 0.398414
*CONN
*P gpio_dm0[9] O
*I *921:gpio_dm0[9] O *D CF_CARAVEL_SOC
*CAP
1 gpio_dm0[9] 0.000912462
2 *921:gpio_dm0[9] 0.00592857
3 *264:11 0.0520194
4 *264:9 0.0570355
5 gpio_dm0[9] gpio_inp_dis[9] 0
6 *264:11 gpio_holdover[7] 0
7 *264:11 *311:11 0.154514
8 *264:11 *364:43 0.0227688
9 *264:11 *815:53 0.00596145
10 gpio_analog_en[9] gpio_dm0[9] 0.00190181
11 gpio_analog_pol[9] gpio_dm0[9] 0.000570331
12 *222:17 *264:9 0
13 *230:11 *264:11 0.0968014
14 *263:9 *264:9 0
*RES
1 *921:gpio_dm0[9] *264:9 13.3896 
2 *264:9 *264:11 2083.46 
3 *264:11 gpio_dm0[9] 3.6635 
*END

*D_NET *265 0.0394393
*CONN
*P gpio_dm1[0] O
*I *921:gpio_dm1[0] O *D CF_CARAVEL_SOC
*CAP
1 gpio_dm1[0] 0.0114019
2 *921:gpio_dm1[0] 0.0114019
3 gpio_dm1[0] gpio_dm1[1] 0
4 gpio_dm1[0] *309:13 0.00559199
5 gpio_dm1[0] *443:19 0
6 gpio_dm1[0] *452:11 0.000970057
7 gpio_dm1[0] *463:11 0.000970057
8 gpio_dm1[0] *474:11 0.00134769
9 gpio_dm1[0] *479:11 0.00155629
10 gpio_dm1[0] *480:11 0.00138416
11 gpio_dm1[0] *534:15 0.000285279
12 gpio_dm1[0] *571:31 0.0014482
13 gpio_analog_en[0] gpio_dm1[0] 0
14 gpio_dm0[0] gpio_dm1[0] 0.00308171
*RES
1 *921:gpio_dm1[0] gpio_dm1[0] 30.9902 
*END

*D_NET *266 0.474426
*CONN
*P gpio_dm1[10] O
*I *921:gpio_dm1[10] O *D CF_CARAVEL_SOC
*CAP
1 gpio_dm1[10] 0.0040585
2 *921:gpio_dm1[10] 0.00360189
3 *266:11 0.0363255
4 *266:9 0.0358689
5 gpio_dm1[10] *750:15 0
6 *266:9 *267:17 0
7 *266:9 *308:9 0.00102584
8 *266:11 *312:17 0.000110459
9 *266:11 *312:19 0
10 *266:11 *419:197 0.0222339
11 *266:11 *532:36 0.185199
12 *266:11 *568:15 0.00563162
13 gpio_analog_en[10] gpio_dm1[10] 0
14 gpio_analog_en[3] *266:11 0.000208883
15 gpio_analog_pol[4] *266:11 0.00206035
16 *100:13 *266:11 0.0014996
17 *129:11 *266:11 0.000498449
18 *132:11 *266:11 0.138907
19 *136:11 *266:11 0.0288595
20 *259:11 *266:11 0.00833644
*RES
1 *921:gpio_dm1[10] *266:9 9.07787 
2 *266:9 *266:11 2058.98 
3 *266:11 gpio_dm1[10] 8.63897 
*END

*D_NET *267 0.432312
*CONN
*P gpio_dm1[11] O
*I *921:gpio_dm1[11] O *D CF_CARAVEL_SOC
*CAP
1 gpio_dm1[11] 0.00286061
2 *921:gpio_dm1[11] 0.0145368
3 *267:23 0.0503063
4 *267:21 0.0478264
5 *267:17 0.0149175
6 *267:17 *268:9 0
7 *267:17 *298:11 0.0128299
8 *267:23 gpio_oeb[3] 0.000117477
9 *267:23 *445:11 0
10 *267:23 *692:23 0.0071713
11 gpio_analog_en[11] gpio_dm1[11] 0
12 gpio_analog_sel[2] *267:21 0
13 *169:11 *267:17 0.00347328
14 *178:19 *267:23 0.119302
15 *222:17 *267:17 1.86715e-05
16 *222:19 *267:23 0.158951
17 *266:9 *267:17 0
*RES
1 *921:gpio_dm1[11] *267:17 49.5906 
2 *267:17 *267:21 1.26633 
3 *267:21 *267:23 1997.78 
4 *267:23 gpio_dm1[11] 6.16897 
*END

*D_NET *268 0.377433
*CONN
*P gpio_dm1[12] O
*I *921:gpio_dm1[12] O *D CF_CARAVEL_SOC
*CAP
1 gpio_dm1[12] 0.00114529
2 *921:gpio_dm1[12] 0.0068138
3 *268:11 0.0912947
4 *268:9 0.0969632
5 *268:9 *269:9 0
6 *268:11 gpio_holdover[10] 0
7 *268:11 gpio_ib_mode_sel[8] 0
8 *268:11 gpio_oeb[9] 0
9 *268:11 gpio_out[8] 0
10 *268:11 *482:11 0.132686
11 gpio_analog_en[12] gpio_dm1[12] 0
12 gpio_analog_pol[10] *268:11 0
13 gpio_analog_pol[9] *268:11 0
14 *222:17 *268:9 0
15 *229:11 *268:11 0.0475066
16 *262:11 *268:11 0.00102312
17 *267:17 *268:9 0
*RES
1 *921:gpio_dm1[12] *268:9 14.2636 
2 *268:9 *268:11 2392 
3 *268:11 gpio_dm1[12] 2.75403 
*END

*D_NET *269 0.418795
*CONN
*P gpio_dm1[13] O
*I *921:gpio_dm1[13] O *D CF_CARAVEL_SOC
*CAP
1 gpio_dm1[13] 0.00209392
2 *921:gpio_dm1[13] 0.00585498
3 *269:11 0.114628
4 *269:9 0.118389
5 *269:9 *270:17 0
6 *269:11 *273:11 0
7 *269:11 *327:63 0.0180246
8 *269:11 *386:211 0.0342305
9 *168:11 *269:11 0
10 *183:11 *269:11 0
11 *201:11 *269:11 0
12 *220:11 *269:11 0.119363
13 *261:11 *269:11 0.00621087
14 *268:9 *269:9 0
*RES
1 *921:gpio_dm1[13] *269:9 12.5156 
2 *269:9 *269:11 2720.96 
3 *269:11 gpio_dm1[13] 4.7503 
*END

*D_NET *270 0.543477
*CONN
*P gpio_dm1[14] O
*I *921:gpio_dm1[14] O *D CF_CARAVEL_SOC
*CAP
1 gpio_dm1[14] 0.00409273
2 *921:gpio_dm1[14] 0.00621581
3 *270:19 0.0996688
4 *270:17 0.101792
5 gpio_dm1[14] gpio_slow_sel[14] 0
6 *270:17 gpio_dm2[2] 0.000692286
7 *270:17 *347:9 0.000242608
8 *270:17 *530:113 0.00156656
9 *270:19 *342:11 0.000625965
10 *270:19 *444:11 0
11 gpio_analog_en[2] *270:19 0.00181939
12 gpio_dm0[14] gpio_dm1[14] 0
13 *103:11 *270:19 0.0174305
14 *130:11 *270:19 0.0138126
15 *134:11 *270:19 0.00653234
16 *138:11 *270:19 0
17 *141:21 *270:19 0.00369807
18 *144:19 *270:19 0.00346828
19 *179:11 *270:19 0.0022609
20 *207:19 *270:17 0.00285916
21 *216:13 *270:19 0.00278821
22 *223:11 *270:17 0.0130026
23 *223:19 *270:19 0.181175
24 *246:11 *270:19 0.0725047
25 *254:11 *270:17 0.00722851
26 *269:9 *270:17 0
*RES
1 *921:gpio_dm1[14] *270:17 32.0115 
2 *270:17 *270:19 2913.74 
3 *270:19 gpio_dm1[14] 9.5763 
*END

*D_NET *271 0.49551
*CONN
*P gpio_dm1[15] O
*I *921:gpio_dm1[15] O *D CF_CARAVEL_SOC
*CAP
1 gpio_dm1[15] 7.97879e-05
2 *921:gpio_dm1[15] 0.00139207
3 *271:27 0.09651
4 *271:25 0.0968981
5 *271:21 0.00180977
6 *271:11 0.01597
7 *271:9 0.0160203
8 *271:9 *272:9 0.000373238
9 *271:11 *272:11 0.0827429
10 *271:11 *286:11 0.0778456
11 *271:21 *274:125 0.00103989
12 *271:21 *315:15 0.00413998
13 *271:21 *315:25 0.000254771
14 *271:21 *337:39 0.000422499
15 *271:21 *833:31 2.21074e-05
16 *271:25 *315:25 0.00270261
17 *271:27 *277:21 0
18 *271:27 *536:153 0.0826378
19 *271:27 *537:118 0.00064519
20 *118:19 *271:11 0
21 *161:15 *271:25 0.00270261
22 *236:11 *271:11 0.0112249
23 *244:11 *271:11 7.5553e-05
*RES
1 *921:gpio_dm1[15] *271:9 3.3044 
2 *271:9 *271:11 924.862 
3 *271:11 *271:21 46.6275 
4 *271:21 *271:25 4.61667 
5 *271:25 *271:27 2265.52 
6 *271:27 gpio_dm1[15] 1.35 
*END

*D_NET *272 0.555579
*CONN
*P gpio_dm1[16] O
*I *921:gpio_dm1[16] O *D CF_CARAVEL_SOC
*CAP
1 gpio_dm1[16] 0.129357
2 *921:gpio_dm1[16] 0.00108823
3 *272:17 0.129357
4 *272:15 0.012865
5 *272:13 0.012865
6 *272:11 0.014547
7 *272:9 0.0156353
8 *272:9 *273:9 0
9 *272:11 *286:11 0.000778916
10 *272:11 *324:11 0.0655062
11 *272:15 *281:15 0.00199428
12 *272:15 *286:15 0.00614714
13 *114:23 *272:15 0.0100726
14 *184:15 *272:15 0.0491804
15 *236:11 *272:11 0.0122754
16 *244:11 *272:11 0.0107944
17 *271:9 *272:9 0.000373238
18 *271:11 *272:11 0.0827429
*RES
1 *921:gpio_dm1[16] *272:9 2.9016 
2 *272:9 *272:11 940.927 
3 *272:11 *272:13 2 
4 *272:13 *272:15 444.81 
5 *272:15 *272:17 2 
6 *272:17 gpio_dm1[16] 2251.32 
*END

*D_NET *273 0.61626
*CONN
*P gpio_dm1[17] O
*I *921:gpio_dm1[17] O *D CF_CARAVEL_SOC
*CAP
1 gpio_dm1[17] 0.124215
2 *921:gpio_dm1[17] 0.00507642
3 *273:17 0.124215
4 *273:15 0.0140278
5 *273:13 0.0140278
6 *273:11 0.0299119
7 *273:9 0.0349883
8 *273:9 *452:9 0.00168423
9 *273:11 gpio_ib_mode_sel[6] 0
10 *273:11 *274:119 0.000487036
11 *273:11 *327:61 0.000426492
12 *273:11 *789:27 0
13 *273:11 *832:59 0
14 *273:15 *275:15 0
15 *273:15 *277:23 0.0658757
16 *273:15 *329:64 0
17 *273:15 *332:19 0.00120087
18 *110:17 *273:15 0.000119762
19 *152:25 *273:15 0.000337719
20 *168:11 *273:11 0.0705558
21 *183:11 *273:11 0.00319219
22 *201:11 *273:11 0.0303994
23 *205:51 *273:11 0
24 *218:11 *273:11 0
25 *229:15 *273:15 0.0790284
26 *230:25 *273:15 0.0164913
27 *269:11 *273:11 0
28 *272:9 *273:9 0
*RES
1 *921:gpio_dm1[17] *273:9 12.166 
2 *273:9 *273:11 947.685 
3 *273:11 *273:13 0.5 
4 *273:13 *273:15 116.979 
5 *273:15 *273:17 0.5 
6 *273:17 gpio_dm1[17] 2240.48 
*END

*D_NET *274 0.585411
*CONN
*P gpio_dm1[18] O
*I *921:gpio_dm1[18] O *D CF_CARAVEL_SOC
*CAP
1 gpio_dm1[18] 0.0174234
2 *921:gpio_dm1[18] 0.0021786
3 *274:351 0.0176542
4 *274:345 0.0029675
5 *274:343 0.00624404
6 *274:335 0.00613931
7 *274:321 0.00635371
8 *274:319 0.00567821
9 *274:311 0.00501625
10 *274:303 0.00491055
11 *274:285 0.0096927
12 *274:283 0.00972535
13 *274:275 0.00395474
14 *274:267 0.00449707
15 *274:253 0.00814421
16 *274:251 0.00639201
17 *274:241 0.00348536
18 *274:239 0.00301537
19 *274:233 0.00400461
20 *274:231 0.00624172
21 *274:213 0.0215428
22 *274:211 0.0191022
23 *274:209 0.0413457
24 *274:207 0.0413457
25 *274:205 0.0243897
26 *274:203 0.0247219
27 *274:197 0.0119318
28 *274:195 0.014325
29 *274:179 0.00542488
30 *274:175 0.0036163
31 *274:167 0.00383826
32 *274:151 0.00641423
33 *274:139 0.005341
34 *274:135 0.00306712
35 *274:131 0.00269733
36 *274:125 0.00561873
37 *274:123 0.00492885
38 *274:119 0.00162841
39 *274:107 0.00254524
40 *274:93 0.00262646
41 *274:91 0.00337759
42 *274:77 0.0044578
43 *274:69 0.00269539
44 *274:65 0.00244256
45 *274:61 0.00406562
46 *274:51 0.00413096
47 *274:49 0.0048028
48 *274:45 0.00391393
49 *274:37 0.00376766
50 *274:27 0.00356843
51 *274:25 0.00143548
52 *274:19 0.00389706
53 *274:17 0.00407131
54 *274:11 0.0197737
55 *274:9 0.0210683
56 gpio_dm1[18] *538:409 0
57 *274:9 *275:9 0
58 *274:11 *284:11 0.0029385
59 *274:11 *292:11 0.00154914
60 *274:11 *293:11 0
61 *274:11 *309:13 0.00196441
62 *274:11 *314:17 0.0026716
63 *274:11 *316:11 0
64 *274:11 *339:11 0
65 *274:11 *534:15 0
66 *274:27 *327:19 0.000926623
67 *274:27 *328:11 0.00438566
68 *274:27 *334:6 0.00113671
69 *274:37 *530:113 0.000181504
70 *274:45 *321:25 0
71 *274:51 *831:83 0.00785448
72 *274:61 *694:10 0.000392548
73 *274:69 *321:49 2.84864e-05
74 *274:69 *445:11 0.00289822
75 *274:77 *281:11 0.0017941
76 *274:77 *305:11 0
77 *274:77 *321:43 4.66108e-05
78 *274:93 *349:11 0.00513864
79 *274:93 *787:37 0.000436478
80 *274:119 *283:11 1.61733e-05
81 *274:119 *789:27 0
82 *274:123 *283:11 0.00288194
83 *274:125 *315:15 0.000369725
84 *274:125 *326:15 4.40739e-05
85 *274:125 *692:13 0.000132277
86 *274:125 *698:13 0.000126737
87 *274:125 *833:31 0
88 *274:131 *283:25 0
89 *274:135 *277:15 0
90 *274:135 *321:67 0.00370909
91 *274:139 *277:21 0
92 *274:167 *403:19 0.00056652
93 *274:239 *399:23 0.000622396
94 *274:239 *663:11 0
95 *274:267 gpio_holdover[12] 0
96 *274:345 gpio_slow_sel[18] 0
97 *91:11 *274:11 0.000330995
98 *94:19 *274:107 0.000938815
99 *95:19 *274:139 0.00429659
100 *97:11 *274:11 0.000682563
101 *101:11 *274:37 0.000422311
102 *112:11 *274:45 0.00194252
103 *112:11 *274:91 0.000694746
104 *128:11 *274:45 0.000498677
105 *139:19 *274:151 0.00303078
106 *150:31 *274:267 0
107 *167:15 *274:51 0.00212673
108 *170:19 *274:19 0.0167009
109 *175:11 *274:93 0.00086695
110 *178:19 *274:69 0.00163084
111 *185:11 *274:19 0.00144802
112 *186:15 *274:151 0.000133244
113 *187:15 *274:151 0.000133244
114 *194:13 *274:27 0.00278894
115 *194:39 *274:267 0
116 *197:11 *274:51 0.00130342
117 *203:11 *274:91 0.000141078
118 *204:31 *274:125 0.000403513
119 *205:27 *274:51 0.000854841
120 *205:51 *274:119 6.63219e-06
121 *206:27 *274:51 0.00568121
122 *206:43 *274:119 2.13565e-05
123 *206:43 *274:123 0.00112559
124 *206:47 *274:135 0.000737525
125 *212:19 *274:19 0.00878319
126 *213:11 *274:51 0.000725215
127 *225:19 *274:45 0.00194252
128 *225:19 *274:91 0.000696406
129 *225:19 *274:93 0.00272426
130 *227:19 *274:151 0
131 *228:11 *274:19 0.00164671
132 *242:11 *274:107 0.000937149
133 *242:15 *274:125 0.00664437
134 *247:11 *274:61 0.000390881
135 *271:21 *274:125 0.00103989
136 *273:11 *274:119 0.000487036
*RES
1 *921:gpio_dm1[18] *274:9 4.7028 
2 *274:9 *274:11 362.587 
3 *274:11 *274:17 16.525 
4 *274:17 *274:19 186.51 
5 *274:19 *274:25 14.11 
6 *274:25 *274:27 49.065 
7 *274:27 *274:37 49.44 
8 *274:37 *274:45 34.6 
9 *274:45 *274:49 44.195 
10 *274:49 *274:51 112.56 
11 *274:51 *274:61 41.94 
12 *274:61 *274:65 26.6 
13 *274:65 *274:69 35.51 
14 *274:69 *274:77 42.115 
15 *274:77 *274:91 46.41 
16 *274:91 *274:93 56.97 
17 *274:93 *274:107 40.16 
18 *274:107 *274:119 20.2675 
19 *274:119 *274:123 35.3825 
20 *274:123 *274:125 93.255 
21 *274:125 *274:131 25.27 
22 *274:131 *274:135 35.57 
23 *274:135 *274:139 49.1825 
24 *274:139 *274:151 41.0511 
25 *274:151 *274:167 43.7845 
26 *274:167 *274:175 10.5266 
27 *274:175 *274:179 49.565 
28 *274:179 *274:195 35.5751 
29 *274:195 *274:197 209.205 
30 *274:197 *274:203 1.912 
31 *274:203 *274:205 439.725 
32 *274:205 *274:207 0.5 
33 *274:207 *274:209 114.532 
34 *274:209 *274:211 0.5 
35 *274:211 *274:213 344.355 
36 *274:213 *274:231 31.8197 
37 *274:231 *274:233 68.445 
38 *274:233 *274:239 1.912 
39 *274:239 *274:241 50.085 
40 *274:241 *274:251 2.94813 
41 *274:251 *274:253 103.635 
42 *274:253 *274:267 35.039 
43 *274:267 *274:275 33.127 
44 *274:275 *274:283 30.067 
45 *274:283 *274:285 142.395 
46 *274:285 *274:303 21.1097 
47 *274:303 *274:311 44.6089 
48 *274:311 *274:319 24.2671 
49 *274:319 *274:321 66.915 
50 *274:321 *274:335 40.0225 
51 *274:335 *274:343 26.1015 
52 *274:343 *274:345 49.575 
53 *274:345 *274:351 1.62067 
54 *274:351 gpio_dm1[18] 314.723 
*END

*D_NET *275 0.72487
*CONN
*P gpio_dm1[19] O
*I *921:gpio_dm1[19] O *D CF_CARAVEL_SOC
*CAP
1 gpio_dm1[19] 0.128478
2 *921:gpio_dm1[19] 0.000892861
3 *275:17 0.128478
4 *275:15 0.0437144
5 *275:13 0.0437144
6 *275:11 0.0250049
7 *275:9 0.0258978
8 *275:9 *277:9 0.000191426
9 *275:11 *285:11 0.0059587
10 *275:11 *289:11 0.000454312
11 *275:11 *294:11 0.00580817
12 *275:11 *295:11 0.00613129
13 *275:11 *327:11 0.0115183
14 *275:15 *277:23 0
15 *275:15 *290:15 0
16 *275:15 *329:64 0.00683717
17 *275:15 *332:19 6.01179e-05
18 *275:15 *403:15 0.144317
19 *275:15 *538:157 0.000404001
20 *275:15 *802:15 0.0400377
21 *118:11 *275:11 0
22 *186:11 *275:11 0
23 *187:11 *275:11 0
24 *189:11 *275:11 7.5553e-05
25 *190:11 *275:11 0.0353564
26 *194:35 *275:11 0.00327547
27 *200:11 *275:11 0.0319227
28 *212:19 *275:11 0
29 *227:11 *275:11 0.0200951
30 *230:25 *275:15 0.0162465
31 *273:15 *275:15 0
32 *274:9 *275:9 0
*RES
1 *921:gpio_dm1[19] *275:9 2.13907 
2 *275:9 *275:11 941.055 
3 *275:11 *275:13 0.5 
4 *275:13 *275:15 227.453 
5 *275:15 *275:17 0.5 
6 *275:17 gpio_dm1[19] 2236.91 
*END

*D_NET *276 0.0331767
*CONN
*P gpio_dm1[1] O
*I *921:gpio_dm1[1] O *D CF_CARAVEL_SOC
*CAP
1 gpio_dm1[1] 0.00926643
2 *921:gpio_dm1[1] 0.00926643
3 gpio_dm1[1] *277:9 0
4 gpio_dm1[1] *287:13 0.00742069
5 gpio_dm1[1] *304:11 0.00626603
6 gpio_analog_en[1] gpio_dm1[1] 0
7 gpio_dm1[0] gpio_dm1[1] 0
8 *243:11 gpio_dm1[1] 0.000228018
9 *260:17 gpio_dm1[1] 0.000729097
*RES
1 *921:gpio_dm1[1] gpio_dm1[1] 30.8674 
*END

*D_NET *277 0.813809
*CONN
*P gpio_dm1[20] O
*I *921:gpio_dm1[20] O *D CF_CARAVEL_SOC
*CAP
1 gpio_dm1[20] 9.87705e-05
2 *921:gpio_dm1[20] 0.00517908
3 *277:27 0.124272
4 *277:25 0.124174
5 *277:23 0.0270543
6 *277:21 0.0273633
7 *277:15 0.00751697
8 *277:13 0.00720804
9 *277:11 0.0193912
10 *277:9 0.0245703
11 *277:9 *278:9 0
12 *277:11 *692:15 0.0437323
13 *277:15 *391:15 0.00136337
14 *277:23 *286:39 0.00683935
15 *277:23 *329:64 0.000364174
16 *277:23 *403:15 0.00553597
17 *277:23 *686:11 0.143278
18 *277:23 *801:15 0.0588378
19 gpio_dm1[1] *277:9 0
20 *158:24 *277:23 0.00137493
21 *165:11 *277:11 0.0136648
22 *195:11 *277:11 0.000244494
23 *222:19 *277:11 0.00128833
24 *229:15 *277:23 0.000466235
25 *230:25 *277:23 0.0268136
26 *241:11 *277:11 0.07711
27 *263:11 *277:11 0
28 *271:27 *277:21 0
29 *273:15 *277:23 0.0658757
30 *274:135 *277:15 0
31 *274:139 *277:21 0
32 *275:9 *277:9 0.000191426
33 *275:15 *277:23 0
*RES
1 *921:gpio_dm1[20] *277:9 11.3503 
2 *277:9 *277:11 931.237 
3 *277:11 *277:13 2 
4 *277:13 *277:15 114.645 
5 *277:15 *277:21 7.3225 
6 *277:21 *277:23 250.293 
7 *277:23 *277:25 0.5 
8 *277:25 *277:27 2239 
9 *277:27 gpio_dm1[20] 1.35 
*END

*D_NET *278 0.702168
*CONN
*P gpio_dm1[21] O
*I *921:gpio_dm1[21] O *D CF_CARAVEL_SOC
*CAP
1 gpio_dm1[21] 9.87705e-05
2 *921:gpio_dm1[21] 0.00110821
3 *278:19 0.102011
4 *278:17 0.101912
5 *278:15 0.104893
6 *278:13 0.104893
7 *278:11 0.0252791
8 *278:9 0.0263873
9 *278:11 *324:11 0
10 *278:15 *538:241 0.0039342
11 *278:15 *676:11 0.00433226
12 *278:15 *758:13 0
13 *278:19 *671:7 0.00404425
14 *231:11 *278:11 0.0887444
15 *233:11 *278:11 0.000263998
16 *234:11 *278:11 0.116224
17 *235:11 *278:11 0.0177509
18 *240:11 *278:11 0.00029087
19 *277:9 *278:9 0
*RES
1 *921:gpio_dm1[21] *278:9 2.61027 
2 *278:9 *278:11 1302.14 
3 *278:11 *278:13 0.5 
4 *278:13 *278:15 293.469 
5 *278:15 *278:17 0.5 
6 *278:17 *278:19 1868.74 
7 *278:19 gpio_dm1[21] 1.35 
*END

*D_NET *279 0.755825
*CONN
*P gpio_dm1[22] O
*I *921:gpio_dm1[22] O *D CF_CARAVEL_SOC
*CAP
1 gpio_dm1[22] 0.103045
2 *921:gpio_dm1[22] 0.00187
3 *279:17 0.103045
4 *279:15 0.118696
5 *279:13 0.118696
6 *279:11 0.047344
7 *279:9 0.049214
8 gpio_dm1[22] *710:7 0
9 *279:9 *280:9 0
10 *279:11 gpio_dm2[1] 0
11 *279:11 *280:11 0.0103732
12 *279:11 *280:19 0.0481854
13 *279:11 *293:11 0.000522859
14 *279:11 *309:13 0
15 *279:11 *314:17 0
16 *279:11 *316:11 0.00718346
17 *279:11 *319:11 0.00966782
18 *279:11 *322:19 0.000919468
19 *279:11 *339:11 0.0020694
20 *279:11 *351:11 0
21 *279:11 *352:11 0
22 *279:11 *540:38 0.000117854
23 *279:11 *551:125 0.00228889
24 *279:15 *280:23 0
25 *279:15 *675:13 0
26 *279:15 *758:13 0
27 *91:11 *279:11 0
28 *117:11 *279:11 0.00337625
29 *140:71 *279:11 0.00057718
30 *140:113 *279:15 0.000545821
31 *153:25 *279:11 0.00461078
32 *245:11 *279:11 0.123477
*RES
1 *921:gpio_dm1[22] *279:9 3.88833 
2 *279:9 *279:11 220.712 
3 *279:11 *279:13 0.5 
4 *279:13 *279:15 327.06 
5 *279:15 *279:17 0.5 
6 *279:17 gpio_dm1[22] 1859.51 
*END

*D_NET *280 0.738448
*CONN
*P gpio_dm1[23] O
*I *921:gpio_dm1[23] O *D CF_CARAVEL_SOC
*CAP
1 gpio_dm1[23] 0.00208018
2 *921:gpio_dm1[23] 0.00178595
3 *280:27 0.102773
4 *280:25 0.100693
5 *280:23 0.129574
6 *280:21 0.129574
7 *280:19 0.0195707
8 *280:17 0.0195995
9 *280:11 0.0124831
10 *280:9 0.0142403
11 *280:9 *281:9 0.000447247
12 *280:11 *291:11 0.00375321
13 *280:11 *296:11 0.00299946
14 *280:11 *316:11 0.0575897
15 *280:11 *317:11 0.000317742
16 *280:11 *319:11 0.0566688
17 *280:11 *540:38 9.65729e-05
18 *280:11 *551:125 0.0077527
19 *280:17 *831:73 7.70373e-06
20 *280:19 gpio_oeb[6] 0.000307182
21 *280:19 *316:11 0.00215971
22 *280:19 *483:11 0.00776555
23 *280:19 *788:27 0.00145325
24 *280:23 *538:249 0.00589073
25 *280:23 *799:15 0
26 *280:27 *322:385 0
27 *280:27 *322:393 0
28 *280:27 *679:17 0
29 *91:11 *280:19 0
30 *169:9 *280:17 1.81196e-05
31 *245:11 *280:19 0.000286565
32 *279:9 *280:9 0
33 *279:11 *280:11 0.0103732
34 *279:11 *280:19 0.0481854
35 *279:15 *280:23 0
*RES
1 *921:gpio_dm1[23] *280:9 4.06187 
2 *280:9 *280:11 792.645 
3 *280:11 *280:17 1.06713 
4 *280:17 *280:19 86.9465 
5 *280:19 *280:21 0.5 
6 *280:21 *280:23 359.747 
7 *280:23 *280:25 0.5 
8 *280:25 *280:27 1819.32 
9 *280:27 gpio_dm1[23] 36.0975 
*END

*D_NET *281 1.03071
*CONN
*P gpio_dm1[24] O
*I *921:gpio_dm1[24] O *D CF_CARAVEL_SOC
*CAP
1 gpio_dm1[24] 2.44619e-05
2 *921:gpio_dm1[24] 0.00558372
3 *281:31 0.0513535
4 *281:29 0.0513291
5 *281:27 0.0539816
6 *281:25 0.0541861
7 *281:19 0.0318018
8 *281:17 0.0315973
9 *281:15 0.00364477
10 *281:13 0.00364477
11 *281:11 0.0336647
12 *281:9 0.0392484
13 *281:9 gpio_inp_dis[1] 0.00328719
14 *281:11 gpio_inp_dis[2] 0.000196871
15 *281:11 gpio_inp_dis[5] 0.000124378
16 *281:11 gpio_inp_dis[6] 4.88425e-05
17 *281:11 *305:11 0
18 *281:11 *375:35 1.49348e-05
19 *281:11 *375:59 0
20 *281:11 *782:19 0.00438016
21 *281:11 *782:29 0.000649714
22 *281:11 *782:47 0
23 *281:15 *286:15 0.000591984
24 *281:19 *326:19 0.00373913
25 *281:19 *326:23 0.0411415
26 *281:19 *329:58 0.000411917
27 *281:19 *330:13 0
28 *281:27 *326:31 0.0126916
29 *281:31 gpio_slow_sel[24] 0
30 *281:31 *322:475 0.000600538
31 *281:31 *402:15 0.00320061
32 *281:31 *666:11 0.195899
33 *281:31 *798:23 0.252524
34 gpio_analog_en[4] *281:11 0.000149554
35 gpio_analog_pol[3] *281:11 0.000174729
36 gpio_dm0[3] *281:11 9.92028e-05
37 gpio_dm0[5] *281:11 0.000149563
38 *110:23 *281:25 0.000464554
39 *120:11 *281:11 0.0360044
40 *150:27 *281:19 0.0156451
41 *150:27 *281:27 0
42 *184:11 *281:11 0.0348126
43 *184:15 *281:15 0.00403247
44 *195:31 *281:27 0.0260501
45 *196:27 *281:27 0.0289068
46 *219:11 *281:11 0
47 *229:11 *281:11 0
48 *242:25 *281:19 0.000425524
49 *242:33 *281:25 0
50 *272:15 *281:15 0.00199428
51 *274:77 *281:11 0.0017941
52 *280:9 *281:9 0.000447247
*RES
1 *921:gpio_dm1[24] *281:9 13.914 
2 *281:9 *281:11 908.542 
3 *281:11 *281:13 2 
4 *281:13 *281:15 83.94 
5 *281:15 *281:17 2 
6 *281:17 *281:19 849.638 
7 *281:19 *281:25 1.70807 
8 *281:25 *281:27 217.869 
9 *281:27 *281:29 0.5 
10 *281:29 *281:31 383.822 
11 *281:31 gpio_dm1[24] 0.0703 
*END

*D_NET *282 0.756113
*CONN
*P gpio_dm1[25] O
*I *921:gpio_dm1[25] O *D CF_CARAVEL_SOC
*CAP
1 gpio_dm1[25] 3.28362e-05
2 *921:gpio_dm1[25] 0.00155959
3 *282:15 0.141632
4 *282:13 0.141599
5 *282:11 0.120988
6 *282:9 0.122547
7 *282:9 *283:9 0.00046486
8 *282:11 *290:11 0.011602
9 *282:11 *318:11 0.0602846
10 *282:11 *323:11 0.0210266
11 *282:15 gpio_slow_sel[25] 0
12 *91:11 *282:11 0
13 *106:23 *282:15 0
14 *118:19 *282:11 0.00157428
15 *235:11 *282:11 0
16 *236:11 *282:11 0
17 *239:11 *282:11 0
18 *245:11 *282:11 0.132801
*RES
1 *921:gpio_dm1[25] *282:9 3.7414 
2 *282:9 *282:11 406.071 
3 *282:11 *282:13 0.5 
4 *282:13 *282:15 388.133 
5 *282:15 gpio_dm1[25] 0.0943667 
*END

*D_NET *283 0.62719
*CONN
*P gpio_dm1[26] O
*I *921:gpio_dm1[26] O *D CF_CARAVEL_SOC
*CAP
1 gpio_dm1[26] 0.0026469
2 *921:gpio_dm1[26] 0.00575344
3 *283:31 0.139513
4 *283:29 0.136866
5 *283:27 0.0656044
6 *283:25 0.0660025
7 *283:15 0.00525979
8 *283:13 0.00486169
9 *283:11 0.0378661
10 *283:9 0.0436195
11 *283:9 *284:9 0.000431647
12 *283:11 *327:61 0.00114468
13 *283:11 *347:11 0
14 *283:11 *391:51 0.00356733
15 *283:11 *392:57 0.000443005
16 *283:11 *436:27 0
17 *283:11 *571:39 0
18 *283:11 *698:15 0.0455925
19 *283:11 *782:39 0
20 *283:11 *826:131 0
21 *283:15 *705:35 0.00570324
22 *283:15 *832:39 0.000295725
23 *283:25 *782:15 0.000235924
24 *283:27 *328:61 0.00634553
25 *283:27 *332:21 0.0260931
26 *283:27 *440:35 0.0229729
27 gpio_analog_en[26] gpio_dm1[26] 0
28 gpio_analog_en[26] *283:31 0.000761395
29 gpio_analog_sel[1] *283:9 0.000164413
30 *104:31 *283:15 0
31 *107:27 *283:27 0
32 *107:31 *283:31 0
33 *114:23 *283:25 0.00013749
34 *196:11 *283:11 0.000214833
35 *205:35 *283:11 0.000865566
36 *205:47 *283:11 0.000864529
37 *206:43 *283:11 0
38 *230:11 *283:11 0
39 *274:119 *283:11 1.61733e-05
40 *274:123 *283:11 0.00288194
41 *274:131 *283:25 0
42 *282:9 *283:9 0.00046486
*RES
1 *921:gpio_dm1[26] *283:9 13.04 
2 *283:9 *283:11 896.812 
3 *283:11 *283:13 2 
4 *283:13 *283:15 91.875 
5 *283:15 *283:25 7.92597 
6 *283:25 *283:27 225.621 
7 *283:27 *283:29 0.5 
8 *283:29 *283:31 377.606 
9 *283:31 gpio_dm1[26] 5.06857 
*END

*D_NET *284 1.07013
*CONN
*P gpio_dm1[27] O
*I *921:gpio_dm1[27] O *D CF_CARAVEL_SOC
*CAP
1 gpio_dm1[27] 0.00315258
2 *921:gpio_dm1[27] 0.00185884
3 *284:67 0.0233734
4 *284:65 0.0204565
5 *284:59 0.0367907
6 *284:57 0.0378393
7 *284:51 0.0430256
8 *284:49 0.0436244
9 *284:39 0.00502034
10 *284:37 0.00313717
11 *284:35 0.0059652
12 *284:23 0.0260193
13 *284:21 0.0204043
14 *284:15 0.00836184
15 *284:13 0.00801161
16 *284:11 0.0145806
17 *284:9 0.0164394
18 *284:11 *292:11 0.0354382
19 *284:11 *309:13 0.00126461
20 *284:11 *480:11 0
21 *284:11 *534:15 0
22 *284:11 *571:31 0
23 *284:15 *300:19 0.0499072
24 *284:15 *325:23 0.000355474
25 *284:15 *345:15 0.0145284
26 *284:15 *560:19 0.0255864
27 *284:15 *564:13 0.0104084
28 *284:15 *804:23 6.92657e-05
29 *284:15 *844:13 7.16056e-05
30 *284:15 *861:11 0
31 *284:21 gpio_vtrip_sel[43] 0.00054043
32 *284:23 *387:23 0.0739767
33 *284:23 *428:23 0.00015452
34 *284:23 *538:43 0.0112093
35 *284:23 *692:35 0.0276827
36 *284:23 *736:43 0.00123065
37 *284:23 *740:171 0.0213402
38 *284:23 *742:120 0.000173544
39 *284:23 *857:11 0.142
40 *284:35 *428:23 0.029729
41 *284:35 *736:43 0.0165156
42 *284:35 *857:11 0.00651517
43 *284:35 *863:11 0.00711569
44 *284:39 *428:23 0.00448976
45 *284:39 *549:13 0.0207465
46 *284:39 *824:23 0.000184419
47 *284:39 *848:11 0.00953748
48 *284:39 *857:11 0.000578545
49 *284:39 *863:11 0.00528073
50 *284:49 *384:11 2.43469e-05
51 *284:49 *387:21 0.000253709
52 *284:49 *549:23 0.00372906
53 *284:49 *736:43 4.79305e-05
54 *284:51 *289:35 0.000449995
55 *284:51 *325:159 0
56 *284:51 *335:57 0
57 *284:51 *410:11 0
58 *284:51 *460:11 0.102543
59 *284:51 *767:17 0.000227494
60 *284:57 gpio_oeb[33] 0
61 *284:57 *381:9 0.000280718
62 *284:59 *409:11 0.0844074
63 *284:59 *546:25 0
64 *284:59 *832:27 0
65 *284:65 gpio_vtrip_sel[29] 8.34207e-05
66 *284:65 *726:21 0
67 *284:67 *369:19 0.000167282
68 *284:67 *369:23 0.00246904
69 *284:67 *546:25 0.00728512
70 *284:67 *813:19 0.015056
71 gpio_analog_en[27] gpio_dm1[27] 0
72 *250:23 *284:15 0.000482657
73 *251:15 *284:23 0.0145622
74 *274:11 *284:11 0.0029385
75 *283:9 *284:9 0.000431647
*RES
1 *921:gpio_dm1[27] *284:9 4.47227 
2 *284:9 *284:11 417.413 
3 *284:11 *284:13 2 
4 *284:13 *284:15 481.725 
5 *284:15 *284:21 10.735 
6 *284:21 *284:23 1306.96 
7 *284:23 *284:35 49.3081 
8 *284:35 *284:37 2 
9 *284:37 *284:39 191.235 
10 *284:39 *284:49 10.4229 
11 *284:49 *284:51 1165.45 
12 *284:51 *284:57 3.3104 
13 *284:57 *284:59 975.735 
14 *284:59 *284:65 1.53327 
15 *284:65 *284:67 60.1591 
16 *284:67 gpio_dm1[27] 6.5287 
*END

*D_NET *285 0.700898
*CONN
*P gpio_dm1[28] O
*I *921:gpio_dm1[28] O *D CF_CARAVEL_SOC
*CAP
1 gpio_dm1[28] 6.45706e-05
2 *921:gpio_dm1[28] 0.000903592
3 *285:15 0.141548
4 *285:13 0.141483
5 *285:11 0.0712023
6 *285:9 0.0721059
7 *285:9 *286:9 0
8 *285:11 *289:11 0.000734618
9 *285:11 *294:11 0.000189028
10 *285:11 *295:11 0.000320011
11 *285:11 *327:11 0.00166588
12 *285:11 *740:59 0.0183737
13 *285:11 *831:83 0.000582184
14 *285:15 *538:305 0
15 *285:15 *539:305 0.000622404
16 *109:27 *285:11 0
17 *109:31 *285:15 0
18 *149:33 *285:11 6.45983e-05
19 *149:35 *285:11 0.00446496
20 *153:25 *285:11 0.00123925
21 *156:11 *285:11 0
22 *190:11 *285:11 0.00126864
23 *192:11 *285:11 0.00585674
24 *193:31 *285:11 0.00374663
25 *194:35 *285:11 0.117276
26 *197:11 *285:11 0.0207896
27 *200:11 *285:11 0.0187975
28 *205:27 *285:11 0.00673363
29 *214:11 *285:11 0.0562104
30 *227:11 *285:11 0.00869567
31 *228:11 *285:11 0
32 *275:11 *285:11 0.0059587
*RES
1 *921:gpio_dm1[28] *285:9 1.9934 
2 *285:9 *285:11 321.832 
3 *285:11 *285:13 0.5 
4 *285:13 *285:15 386.385 
5 *285:15 gpio_dm1[28] 0.185567 
*END

*D_NET *286 1.01464
*CONN
*P gpio_dm1[29] O
*I *921:gpio_dm1[29] O *D CF_CARAVEL_SOC
*CAP
1 gpio_dm1[29] 0.00034535
2 *921:gpio_dm1[29] 0.00142206
3 *286:41 0.0207242
4 *286:39 0.118059
5 *286:15 0.121219
6 *286:13 0.0235389
7 *286:11 0.0317188
8 *286:9 0.0331409
9 *286:9 *288:9 0.000537478
10 *286:11 *290:11 0
11 *286:11 *318:11 0
12 *286:11 *324:11 4.21579e-05
13 *286:15 *321:67 0
14 *286:15 *782:15 0.0111076
15 *286:39 gpio_ib_mode_sel[32] 4.3455e-05
16 *286:39 *361:17 0
17 *286:39 *361:33 0
18 *286:39 *375:31 0.0514709
19 *286:39 *391:15 7.51597e-05
20 *286:39 *679:9 0
21 *286:39 *686:11 0.0151912
22 *286:39 *689:11 0.00148729
23 *286:39 *691:11 0.00192154
24 *286:39 *705:33 0.0324894
25 *286:39 *745:11 0.01668
26 *286:39 *782:15 0.0469297
27 *286:39 *787:15 0.0524313
28 *286:39 *788:15 0.0506135
29 *286:39 *801:15 0.0148707
30 *286:39 *831:31 0.000222752
31 *286:41 *325:167 0
32 *286:41 *466:11 0.000173106
33 gpio_dm0[16] *286:39 2.99518e-06
34 *110:23 gpio_dm1[29] 0
35 *118:19 *286:11 0
36 *141:29 *286:39 0.00621825
37 *158:24 *286:39 0.0123984
38 *184:15 *286:15 0
39 *193:61 *286:39 0.00204612
40 *193:63 *286:41 0.0735318
41 *206:47 *286:39 0.0514491
42 *230:25 *286:39 0.0111358
43 *236:11 *286:11 0.00969905
44 *244:15 *286:39 0.0124044
45 *244:19 *286:41 0.0332519
46 *246:23 *286:39 0.0123984
47 *247:15 *286:39 0.0514491
48 *271:11 *286:11 0.0778456
49 *272:11 *286:11 0.000778916
50 *272:15 *286:15 0.00614714
51 *277:23 *286:39 0.00683935
52 *281:15 *286:15 0.000591984
53 *285:9 *286:9 0
*RES
1 *921:gpio_dm1[29] *286:9 3.36267 
2 *286:9 *286:11 887.122 
3 *286:11 *286:13 2 
4 *286:13 *286:15 453.435 
5 *286:15 *286:39 45.9821 
6 *286:39 *286:41 849.765 
7 *286:41 gpio_dm1[29] 1.23023 
*END

*D_NET *287 0.0698765
*CONN
*P gpio_dm1[2] O
*I *921:gpio_dm1[2] O *D CF_CARAVEL_SOC
*CAP
1 gpio_dm1[2] 0.00458926
2 *921:gpio_dm1[2] 0.00764226
3 *287:13 0.0122315
4 gpio_dm1[2] gpio_slow_sel[2] 0
5 *287:13 *298:9 0
6 *287:13 *304:11 0.00121146
7 *287:13 *484:11 0.000221881
8 gpio_dm1[1] *287:13 0.00742069
9 *188:11 *287:13 0.0134749
10 *243:11 *287:13 0.0230845
*RES
1 *921:gpio_dm1[2] *287:13 49.8845 
2 *287:13 gpio_dm1[2] 8.79383 
*END

*D_NET *288 0.571765
*CONN
*P gpio_dm1[30] O
*I *921:gpio_dm1[30] O *D CF_CARAVEL_SOC
*CAP
1 gpio_dm1[30] 0.00269283
2 *921:gpio_dm1[30] 0.00413783
3 *288:71 0.144615
4 *288:69 0.141922
5 *288:67 0.0170263
6 *288:65 0.0171234
7 *288:59 0.00174069
8 *288:57 0.00228841
9 *288:53 0.00445476
10 *288:27 0.00586148
11 *288:25 0.00646283
12 *288:11 0.0200127
13 *288:9 0.0197393
14 *288:9 gpio_out[1] 0
15 *288:9 *289:9 0.000181245
16 *288:11 *307:11 0
17 *288:11 *326:11 0.0380059
18 *288:11 *535:121 0.00834955
19 *288:25 *321:25 0
20 *288:25 *327:19 1.93765e-05
21 *288:25 *337:17 0
22 *288:27 *328:51 0.000464689
23 *288:27 *329:10 0.00173788
24 *288:27 *329:52 0.000419536
25 *288:27 *330:13 0.0127511
26 *288:27 *787:51 0.012073
27 *288:53 *683:15 0.00119063
28 *288:53 *787:49 0.000454797
29 *288:53 *788:49 0.000285759
30 *288:53 *788:53 0.000583784
31 *288:53 *831:73 0.000602601
32 *288:57 *530:113 0.00165275
33 *288:57 *831:75 5.10462e-05
34 *288:59 *530:113 0.00340237
35 *288:67 *391:33 0.000992636
36 gpio_analog_en[30] gpio_dm1[30] 0
37 *90:11 *288:67 0.0273042
38 *94:17 *288:11 0.00163815
39 *98:11 *288:67 0.000141767
40 *101:11 *288:57 0.00161579
41 *101:11 *288:59 0.00787474
42 *101:11 *288:67 0.00013192
43 *102:11 *288:53 0.00029583
44 *104:11 *288:11 0.00124823
45 *112:31 *288:71 0
46 *113:11 *288:11 0.0196464
47 *116:27 *288:53 0.000200198
48 *133:11 *288:11 0.00453648
49 *150:11 *288:53 0.00206483
50 *157:17 *288:53 2.77165e-05
51 *159:13 *288:59 0.00146307
52 *161:15 *288:65 7.79454e-05
53 *165:9 *288:53 0
54 *179:11 *288:57 0.000399446
55 *179:11 *288:67 0.0279571
56 *181:11 *288:11 0.00158582
57 *183:17 *288:65 2.08937e-05
58 *204:9 *288:25 1.79483e-05
59 *204:17 *288:53 0.00019789
60 *206:17 *288:25 0.000133187
61 *212:9 *288:25 0.00122564
62 *213:9 *288:25 0
63 *247:11 *288:67 0.000126782
64 *286:9 *288:9 0.000537478
*RES
1 *921:gpio_dm1[30] *288:9 9.60227 
2 *288:9 *288:11 582.525 
3 *288:11 *288:25 17.337 
4 *288:25 *288:27 141.12 
5 *288:27 *288:53 40.7838 
6 *288:53 *288:57 32.28 
7 *288:57 *288:59 87.72 
8 *288:59 *288:65 1.24193 
9 *288:65 *288:67 118.988 
10 *288:67 *288:69 0.5 
11 *288:69 *288:71 387.278 
12 *288:71 gpio_dm1[30] 4.93177 
*END

*D_NET *289 1.03071
*CONN
*P gpio_dm1[31] O
*I *921:gpio_dm1[31] O *D CF_CARAVEL_SOC
*CAP
1 gpio_dm1[31] 0.00183416
2 *921:gpio_dm1[31] 0.000899749
3 *289:35 0.0445641
4 *289:33 0.0437022
5 *289:23 0.0362486
6 *289:21 0.0354099
7 *289:11 0.0267529
8 *289:9 0.027519
9 *289:11 *294:11 0.00371157
10 *289:11 *295:11 0.00487939
11 *289:21 *852:9 7.96104e-06
12 *289:23 *336:65 0.00358467
13 *289:23 *455:25 0.000946689
14 *289:23 *462:23 0.000350361
15 *289:23 *464:23 0.0847173
16 *289:23 *465:23 0.0857243
17 *289:23 *481:25 0.00661013
18 *289:23 *547:13 0.0230502
19 *289:23 *571:27 0.000313966
20 *289:23 *749:27 0.0112595
21 *289:23 *837:11 0.0073922
22 *289:23 *838:11 0.0335709
23 *289:33 *336:65 0.000507824
24 *289:33 *446:25 8.08514e-05
25 *289:33 *462:21 0.000104461
26 *289:33 *464:21 0.000953928
27 *289:33 *465:21 0.00064964
28 *289:33 *553:23 0.000292459
29 *289:35 *404:11 0
30 *289:35 *460:11 0.000291201
31 *289:35 *550:23 0.157291
32 *289:35 *691:15 0.00736041
33 *289:35 *812:11 0.101692
34 *113:23 gpio_dm1[31] 0
35 *119:15 *289:23 0.118676
36 *119:27 *289:33 3.92253e-05
37 *208:21 *289:23 0.119772
38 *212:19 *289:11 0.00147291
39 *214:11 *289:11 0.0218791
40 *227:11 *289:11 0.00198472
41 *228:11 *289:11 0.00290638
42 *248:11 *289:11 0.00260898
43 *249:11 *289:11 0.00147291
44 *252:11 *289:11 0.00269434
45 *255:11 *289:11 0.00308937
46 *255:15 *289:21 2.50072e-05
47 *275:11 *289:11 0.000454312
48 *284:51 *289:35 0.000449995
49 *285:11 *289:11 0.000734618
50 *288:9 *289:9 0.000181245
*RES
1 *921:gpio_dm1[31] *289:9 2.10993 
2 *289:9 *289:11 71.5287 
3 *289:11 *289:21 3.41617 
4 *289:21 *289:23 2243.64 
5 *289:23 *289:33 8.28897 
6 *289:33 *289:35 1836.1 
7 *289:35 gpio_dm1[31] 3.88517 
*END

*D_NET *290 0.655276
*CONN
*P gpio_dm1[32] O
*I *921:gpio_dm1[32] O *D CF_CARAVEL_SOC
*CAP
1 gpio_dm1[32] 0.000770323
2 *921:gpio_dm1[32] 0.00184291
3 *290:15 0.0934238
4 *290:13 0.0926535
5 *290:11 0.0138318
6 *290:9 0.0156747
7 gpio_dm1[32] *459:13 0.00285411
8 gpio_dm1[32] *553:25 0.00285523
9 *290:9 *291:9 0
10 *290:9 *740:65 0
11 *290:11 *291:11 0.0771819
12 *290:11 *296:11 0.000210254
13 *290:11 *317:11 0.00131095
14 *290:11 *318:11 0.000845738
15 *290:11 *323:11 0.0674531
16 *290:15 gpio_vtrip_sel[32] 0.000895769
17 *290:15 *361:17 0.000927423
18 *290:15 *361:33 0.0133483
19 *290:15 *369:17 6.838e-05
20 *290:15 *406:19 0
21 *290:15 *440:29 0
22 *290:15 *538:157 0.000289924
23 *290:15 *730:19 0
24 *290:15 *754:21 0
25 *290:15 *802:15 0
26 *290:15 *805:15 0
27 *118:19 *290:11 0.00597879
28 *148:13 *290:15 0.244148
29 *230:25 *290:15 0.00710908
30 *275:15 *290:15 0
31 *282:11 *290:11 0.011602
32 *286:11 *290:11 0
*RES
1 *921:gpio_dm1[32] *290:9 3.8288 
2 *290:9 *290:11 892.605 
3 *290:11 *290:13 0.5 
4 *290:13 *290:15 387.919 
5 *290:15 gpio_dm1[32] 34.4517 
*END

*D_NET *291 0.819945
*CONN
*P gpio_dm1[33] O
*I *921:gpio_dm1[33] O *D CF_CARAVEL_SOC
*CAP
1 gpio_dm1[33] 0.00043849
2 *921:gpio_dm1[33] 0.00162898
3 *291:27 0.00253923
4 *291:25 0.00697439
5 *291:15 0.0366399
6 *291:13 0.0317663
7 *291:11 0.0130298
8 *291:9 0.0146588
9 gpio_dm1[33] gpio_slow_sel[33] 6.87674e-05
10 *291:9 *292:9 0.000661649
11 *291:11 *296:11 0.00152051
12 *291:11 *317:11 0.066971
13 *291:15 *437:31 0.000851609
14 *291:15 *688:11 0.00343868
15 *291:15 *716:11 0.00110946
16 *291:15 *744:11 0.0494507
17 *291:25 *687:17 0.000425954
18 *291:25 *688:11 0.000556447
19 *291:27 *459:13 0.000244817
20 *291:27 *466:11 9.88751e-05
21 *115:15 *291:15 0.240256
22 *117:39 *291:25 0.0024178
23 *163:23 *291:15 0.238802
24 *163:33 *291:25 0.00115468
25 *163:35 *291:27 0.00862127
26 *204:45 *291:27 0.00465596
27 *245:11 *291:11 0.010027
28 *280:11 *291:11 0.00375321
29 *290:9 *291:9 0
30 *290:11 *291:11 0.0771819
*RES
1 *921:gpio_dm1[33] *291:9 3.88707 
2 *291:9 *291:11 861.112 
3 *291:11 *291:13 2 
4 *291:13 *291:15 2225.35 
5 *291:15 *291:25 16.9419 
6 *291:25 *291:27 101.595 
7 *291:27 gpio_dm1[33] 1.42657 
*END

*D_NET *292 0.839269
*CONN
*P gpio_dm1[34] O
*I *921:gpio_dm1[34] O *D CF_CARAVEL_SOC
*CAP
1 gpio_dm1[34] 0.00533407
2 *921:gpio_dm1[34] 0.00142655
3 *292:27 0.0331502
4 *292:25 0.0284615
5 *292:15 0.0390243
6 *292:13 0.0383789
7 *292:11 0.0150379
8 *292:9 0.0164644
9 *292:9 *293:9 0.000545594
10 *292:11 *293:11 0
11 *292:11 *309:13 0.00167701
12 *292:11 *339:11 0
13 *292:15 *295:15 0.239645
14 *292:15 *299:23 0.000346278
15 *292:15 *386:69 0.000360425
16 *292:15 *430:23 0
17 *292:15 *431:15 0.00166209
18 *292:15 *452:15 0.000868062
19 *292:15 *466:15 0.0166051
20 *292:15 *469:15 0.000279766
21 *292:15 *539:49 0.00455138
22 *292:15 *548:11 4.92064e-05
23 *292:15 *550:11 0.000349344
24 *292:15 *839:133 0.00143704
25 *292:15 *839:157 0.00251399
26 *292:15 *858:11 0.132343
27 *292:25 *459:23 0.000768171
28 *292:25 *468:27 1.81028e-05
29 *292:25 *468:29 0.000599273
30 *292:25 *470:15 0.000696895
31 *292:25 *543:21 7.4816e-05
32 *292:25 *771:25 0.00020566
33 *292:25 *865:15 6.78025e-05
34 *292:27 gpio_slow_sel[35] 0.00398731
35 *292:27 *353:11 0
36 *292:27 *386:21 0
37 *292:27 *416:11 0.0563706
38 *292:27 *423:11 0.0261358
39 *292:27 *438:17 0.00566555
40 *292:27 *555:17 0.0139389
41 *292:27 *556:43 0.00738578
42 *292:27 *755:11 0.00420588
43 *292:27 *793:11 0.0478197
44 *292:27 *815:11 0
45 *292:27 *827:11 0.0148748
46 gpio_analog_en[34] gpio_dm1[34] 0.00251017
47 *118:107 *292:15 0.00574313
48 *118:201 *292:15 0.0019943
49 *211:13 *292:15 0.028046
50 *274:11 *292:11 0.00154914
51 *284:11 *292:11 0.0354382
52 *291:9 *292:9 0.000661649
*RES
1 *921:gpio_dm1[34] *292:9 4.24173 
2 *292:9 *292:11 425.062 
3 *292:11 *292:13 2 
4 *292:13 *292:15 2225.01 
5 *292:15 *292:25 7.7505 
6 *292:25 *292:27 172.735 
7 *292:27 gpio_dm1[34] 11.6764 
*END

*D_NET *293 0.695057
*CONN
*P gpio_dm1[35] O
*I *921:gpio_dm1[35] O *D CF_CARAVEL_SOC
*CAP
1 gpio_dm1[35] 0.00694114
2 *921:gpio_dm1[35] 0.00187947
3 *293:27 0.0356834
4 *293:25 0.0301446
5 *293:15 0.0596489
6 *293:13 0.0582465
7 *293:11 0.014836
8 *293:9 0.0167155
9 gpio_dm1[35] gpio_ib_mode_sel[35] 0
10 gpio_dm1[35] gpio_vtrip_sel[35] 0.000152854
11 gpio_dm1[35] *414:11 0
12 gpio_dm1[35] *420:11 0.00326461
13 gpio_dm1[35] *456:27 0.000348647
14 *293:9 *294:9 0
15 *293:11 *339:11 0.0378838
16 *293:15 *322:129 0.000638177
17 *293:15 *322:165 0.00267878
18 *293:15 *322:167 8.28018e-06
19 *293:15 *325:145 0.000297582
20 *293:15 *325:153 0.00156365
21 *293:15 *346:15 0.0100532
22 *293:15 *397:79 0
23 *293:15 *444:71 0.0034113
24 *293:15 *463:15 0.23291
25 *293:15 *467:15 0.0012423
26 *293:15 *471:27 0.0064476
27 *293:15 *472:55 0.00328835
28 *293:15 *531:16 0.0133631
29 *293:15 *538:25 0.000381639
30 *293:15 *539:55 0.0174812
31 *293:15 *541:105 0.00173556
32 *293:15 *556:11 0
33 *293:15 *557:11 0
34 *293:15 *557:19 0.000864729
35 *293:15 *559:11 0
36 *293:15 *560:11 0
37 *293:15 *568:11 0
38 *293:15 *570:14 7.86045e-05
39 *293:15 *571:19 0.00543316
40 *293:15 *693:137 0.00239185
41 *293:15 *693:175 0.000460154
42 *293:15 *826:45 0.000171966
43 *293:15 *840:19 0.0252355
44 *293:25 *364:37 7.4816e-05
45 *293:25 *430:21 0.000179383
46 *293:25 *469:15 0.000979968
47 *293:25 *548:21 0.000779201
48 *293:25 *557:29 0.000365515
49 *293:25 *771:25 0.000619075
50 *293:25 *793:25 0.000465698
51 *293:25 *842:21 0
52 *293:25 *846:37 0.00148677
53 *293:25 *860:15 0.000348825
54 *293:27 gpio_vtrip_sel[35] 0.00232979
55 *293:27 *295:27 0.00695045
56 *293:27 *384:11 0.00441049
57 *293:27 *415:11 0
58 *293:27 *420:11 0.00139189
59 *293:27 *552:25 0
60 *293:27 *737:81 0
61 *293:27 *757:11 0
62 *293:27 *760:11 0.0663666
63 gpio_analog_en[35] gpio_dm1[35] 0
64 *118:93 *293:15 0.00162124
65 *118:179 *293:15 0.00405459
66 *118:185 *293:15 0.000456159
67 *118:187 *293:15 0.00522597
68 *274:11 *293:11 0
69 *279:11 *293:11 0.000522859
70 *292:9 *293:9 0.000545594
71 *292:11 *293:11 0
*RES
1 *921:gpio_dm1[35] *293:9 4.3532 
2 *293:9 *293:11 422.258 
3 *293:11 *293:13 2 
4 *293:13 *293:15 2213.62 
5 *293:15 *293:25 12.6528 
6 *293:25 *293:27 822.735 
7 *293:27 gpio_dm1[35] 17.2124 
*END

*D_NET *294 0.836425
*CONN
*P gpio_dm1[36] O
*I *921:gpio_dm1[36] O *D CF_CARAVEL_SOC
*CAP
1 gpio_dm1[36] 0.00406189
2 *921:gpio_dm1[36] 0.000881829
3 *294:27 0.0167012
4 *294:25 0.0177129
5 *294:15 0.0352506
6 *294:13 0.030177
7 *294:11 0.00754384
8 *294:9 0.00842567
9 gpio_dm1[36] gpio_vtrip_sel[36] 0.00031148
10 gpio_dm1[36] *823:15 0.000172524
11 *294:9 *295:9 0
12 *294:11 *295:11 0.00549835
13 *294:11 *346:11 0.00860499
14 *294:15 *338:71 0.0194707
15 *294:15 *386:207 0.0104865
16 *294:15 *474:15 0.000216119
17 *294:15 *480:15 0.223512
18 *294:15 *559:19 0.198264
19 *294:15 *847:16 0.000153576
20 *294:25 *338:77 0
21 *294:25 *339:23 0.0202259
22 *294:25 *390:23 0.00327721
23 *294:25 *461:21 3.47471e-05
24 *294:25 *472:11 0.0106672
25 *294:25 *558:23 0.000844169
26 *294:25 *760:23 0.00356779
27 *294:27 *446:19 0.0605745
28 *294:27 *446:25 0.000202969
29 *294:27 *544:17 0
30 *294:27 *779:11 0.0131421
31 gpio_analog_en[36] gpio_dm1[36] 0
32 *119:27 *294:27 0.0465561
33 *209:15 *294:15 0.0331334
34 *213:11 *294:11 0
35 *227:11 *294:11 0.023304
36 *238:25 *294:27 1.79483e-05
37 *252:11 *294:11 0.0237233
38 *275:11 *294:11 0.00580817
39 *285:11 *294:11 0.000189028
40 *289:11 *294:11 0.00371157
41 *293:9 *294:9 0
*RES
1 *921:gpio_dm1[36] *294:9 1.99467 
2 *294:9 *294:11 437.812 
3 *294:11 *294:13 2 
4 *294:13 *294:15 2060.45 
5 *294:15 *294:25 37.5834 
6 *294:25 *294:27 704.925 
7 *294:27 gpio_dm1[36] 8.29823 
*END

*D_NET *295 0.833669
*CONN
*P gpio_dm1[37] O
*I *921:gpio_dm1[37] O *D CF_CARAVEL_SOC
*CAP
1 gpio_dm1[37] 0.00519447
2 *921:gpio_dm1[37] 0.00100693
3 *295:27 0.0378198
4 *295:25 0.0339069
5 *295:15 0.0328166
6 *295:13 0.0315349
7 *295:11 0.0102079
8 *295:9 0.0112148
9 *295:9 *296:9 0
10 *295:15 *299:23 0.000374128
11 *295:15 *431:15 0.0021159
12 *295:15 *452:15 0.234286
13 *295:15 *469:15 0.0209477
14 *295:15 *548:11 0.00164506
15 *295:15 *839:133 0.00132477
16 *295:15 *839:157 0.000782517
17 *295:25 *389:21 1.14185e-05
18 *295:25 *390:21 0.00126735
19 *295:25 *428:11 0.000111374
20 *295:25 *432:11 3.28414e-05
21 *295:25 *470:15 0.00298132
22 *295:25 *760:21 6.20394e-05
23 *295:25 *847:36 0.000127935
24 *295:25 *851:15 9.7244e-05
25 *295:25 *852:25 6.90597e-06
26 *295:25 *853:21 0
27 *295:27 *921:porb_l 0
28 *295:27 *384:11 0.0117763
29 *295:27 *386:21 0
30 *295:27 *414:11 0
31 *295:27 *419:13 0
32 *295:27 *420:11 0.00919833
33 *295:27 *436:17 0
34 *295:27 *456:27 0.00995339
35 *295:27 *469:11 0.00787089
36 *295:27 *760:11 0.0103647
37 *295:27 *815:11 0
38 gpio_analog_en[37] gpio_dm1[37] 0
39 *211:13 *295:15 0.0257137
40 *212:19 *295:11 0
41 *250:35 *295:27 0.00845786
42 *251:27 *295:27 0.00961743
43 *252:11 *295:11 0.0232479
44 *255:11 *295:11 0.0241673
45 *275:11 *295:11 0.00613129
46 *285:11 *295:11 0.000320011
47 *289:11 *295:11 0.00487939
48 *292:15 *295:15 0.239645
49 *293:27 *295:27 0.00695045
50 *294:9 *295:9 0
51 *294:11 *295:11 0.00549835
*RES
1 *921:gpio_dm1[37] *295:9 2.19733 
2 *295:9 *295:11 435.517 
3 *295:11 *295:13 2 
4 *295:13 *295:15 2206.03 
5 *295:15 *295:25 11.4727 
6 *295:25 *295:27 90.8225 
7 *295:27 gpio_dm1[37] 10.1362 
*END

*D_NET *296 0.487059
*CONN
*P gpio_dm1[38] O
*I *921:gpio_dm1[38] O *D CF_CARAVEL_SOC
*CAP
1 gpio_dm1[38] 0.00190099
2 *921:gpio_dm1[38] 0.00176518
3 *296:23 0.0346971
4 *296:21 0.0328191
5 *296:15 0.00996085
6 *296:13 0.0099378
7 *296:11 0.00821035
8 *296:9 0.00997553
9 gpio_dm1[38] *325:101 0
10 gpio_dm1[38] *335:31 0.000537298
11 *296:11 *540:38 0.00409149
12 *296:11 *740:67 0.016508
13 *296:15 *339:15 0.00113444
14 *296:15 *771:27 0.0223656
15 *296:15 *842:11 0.0526641
16 *296:21 *545:9 4.04634e-05
17 *296:23 *432:15 0.0951513
18 *296:23 *456:31 0.00309595
19 *296:23 *470:15 0.0490776
20 *296:23 *543:11 0.00795045
21 *296:23 *842:11 0.00538547
22 *296:23 *847:16 0
23 gpio_analog_pol[43] *296:21 2.99518e-06
24 *118:19 *296:11 0
25 *121:15 *296:23 0.0107827
26 *165:23 *296:23 0.0245122
27 *169:15 *296:23 0.00413923
28 *170:23 *296:15 0.0124809
29 *245:11 *296:11 0.00301271
30 *250:21 *296:11 0.00320532
31 *251:11 *296:11 0.00896985
32 *257:11 *296:11 0.024957
33 *257:15 *296:23 0.0229963
34 *280:11 *296:11 0.00299946
35 *290:11 *296:11 0.000210254
36 *291:11 *296:11 0.00152051
37 *295:9 *296:9 0
*RES
1 *921:gpio_dm1[38] *296:9 3.77307 
2 *296:9 *296:11 442.913 
3 *296:11 *296:13 2 
4 *296:13 *296:15 503.46 
5 *296:15 *296:21 2.9875 
6 *296:21 *296:23 208.982 
7 *296:23 gpio_dm1[38] 28.7075 
*END

*D_NET *297 0.488404
*CONN
*P gpio_dm1[39] O
*I *921:gpio_dm1[39] O *D CF_CARAVEL_SOC
*CAP
1 gpio_dm1[39] 0.00679527
2 *921:gpio_dm1[39] 0.000340808
3 *297:20 0.00777572
4 *297:14 0.0259966
5 *297:12 0.0250161
6 *297:10 0.0172343
7 *297:8 0.0175751
8 gpio_dm1[39] gpio_out[40] 0.00171641
9 gpio_dm1[39] *549:13 0.00421057
10 gpio_dm1[39] *692:35 0.0265869
11 gpio_dm1[39] *693:193 0.00426625
12 gpio_dm1[39] *848:11 0.00512919
13 gpio_dm1[39] *867:11 0.00388297
14 *297:8 *302:13 0.000340924
15 *297:8 *341:12 0.00083146
16 *297:10 *340:35 0.0066722
17 *297:10 *341:12 0.000408971
18 *297:10 *341:14 0.0405747
19 *297:10 *839:15 0.000435958
20 *297:14 *482:15 0.0275466
21 *297:14 *483:23 0.0200606
22 *297:14 *555:13 0.0153958
23 *297:14 *558:13 0.0206268
24 *297:14 *828:15 0.0228425
25 *297:14 *837:11 0.0526653
26 *297:14 *838:11 0.000380001
27 *297:20 gpio_ib_mode_sel[40] 0
28 *297:20 gpio_vtrip_sel[40] 0.000689192
29 *167:19 *297:14 2.95342e-05
30 *207:31 gpio_dm1[39] 0.00560356
31 *252:15 gpio_dm1[39] 0.00732875
32 *255:15 *297:14 0.119445
*RES
1 *921:gpio_dm1[39] *297:8 2.11373 
2 *297:8 *297:10 75.7492 
3 *297:10 *297:12 0.5 
4 *297:12 *297:14 181.335 
5 *297:14 *297:20 17.935 
6 *297:20 gpio_dm1[39] 44.3293 
*END

*D_NET *298 0.092673
*CONN
*P gpio_dm1[3] O
*I *921:gpio_dm1[3] O *D CF_CARAVEL_SOC
*CAP
1 gpio_dm1[3] 0.0035227
2 *921:gpio_dm1[3] 0.0045501
3 *298:11 0.0125976
4 *298:9 0.013625
5 gpio_dm1[3] gpio_slow_sel[3] 0
6 *298:9 *303:9 0
7 *298:11 *303:11 0.0386677
8 gpio_dm0[3] gpio_dm1[3] 0
9 *133:11 *298:11 0.000251111
10 *169:11 *298:11 0.00286764
11 *199:13 *298:11 0.00194163
12 *222:17 *298:11 0.00181956
13 *224:17 *298:9 0
14 *267:17 *298:11 0.0128299
15 *287:13 *298:9 0
*RES
1 *921:gpio_dm1[3] *298:9 10.1558 
2 *298:9 *298:11 69.3753 
3 *298:11 gpio_dm1[3] 7.08477 
*END

*D_NET *299 0.44743
*CONN
*P gpio_dm1[40] O
*I *921:gpio_dm1[40] O *D CF_CARAVEL_SOC
*CAP
1 gpio_dm1[40] 0.00223388
2 *921:gpio_dm1[40] 0.000356147
3 *299:23 0.0239676
4 *299:21 0.0222264
5 *299:11 0.00646219
6 *299:9 0.00632568
7 gpio_dm1[40] gpio_out[40] 0
8 gpio_dm1[40] *921:gpio_in[43] 0
9 *299:9 *341:12 0.000229581
10 *299:11 *300:11 0.039073
11 *299:11 *340:11 0.01509
12 *299:11 *340:33 0.000951139
13 *299:11 *341:12 0.000375259
14 *299:11 *341:14 0.00531879
15 *299:21 *301:13 0.00127814
16 *299:21 *302:13 0.00127793
17 *299:21 *535:117 0.000119762
18 *299:23 *431:15 0.00390193
19 *299:23 *452:15 0.0285606
20 *299:23 *479:15 0.0260855
21 *299:23 *484:15 0.00433794
22 *299:23 *548:11 0.00473269
23 *299:23 *839:133 0.000863362
24 *121:15 *299:23 0.0109777
25 *211:13 *299:23 0.120995
26 *256:15 *299:23 0.09955
27 *258:11 *299:11 0.00355551
28 *258:15 *299:11 0.0178639
29 *292:15 *299:23 0.000346278
30 *295:15 *299:23 0.000374128
*RES
1 *921:gpio_dm1[40] *299:9 0.973733 
2 *299:9 *299:11 432.967 
3 *299:11 *299:21 21.1725 
4 *299:21 *299:23 187.132 
5 *299:23 gpio_dm1[40] 31.4075 
*END

*D_NET *300 0.331918
*CONN
*P gpio_dm1[41] O
*I *921:gpio_dm1[41] O *D CF_CARAVEL_SOC
*CAP
1 gpio_dm1[41] 0.000432916
2 *921:gpio_dm1[41] 0.00027449
3 *300:29 0.00545283
4 *300:19 0.0159358
5 *300:17 0.0124428
6 *300:11 0.007441
7 *300:9 0.00618853
8 *300:9 *301:11 0
9 *300:9 *341:12 0.000229581
10 *300:11 *301:13 0.0395339
11 *300:11 *340:11 0.000212125
12 *300:11 *340:33 0.00236099
13 *300:11 *341:12 0.00041041
14 *300:11 *341:14 0.00604467
15 *300:17 *301:13 0.000666746
16 *300:17 *842:9 0.00163223
17 *300:17 *843:9 0.000245661
18 *300:17 *845:9 0
19 *300:19 *335:25 0.0252744
20 *300:19 *560:19 0.0132315
21 *300:19 *561:18 0.00401694
22 *300:19 *564:13 0.00944731
23 *300:19 *695:67 0.0101718
24 *300:19 *844:13 0.0217419
25 *300:29 gpio_dm2[42] 0.000980697
26 *300:29 gpio_vtrip_sel[42] 4.85306e-05
27 *300:29 *478:9 4.53412e-05
28 *300:29 *560:27 0.025214
29 *300:29 *786:23 0.000340096
30 *300:29 *859:11 0.00553141
31 *124:9 *300:17 0
32 *211:9 *300:17 0
33 *252:15 *300:29 0.0263639
34 *258:15 *300:11 4.20968e-05
35 *258:15 *300:17 0.0009837
36 *284:15 *300:19 0.0499072
37 *299:11 *300:11 0.039073
*RES
1 *921:gpio_dm1[41] *300:9 0.973733 
2 *300:9 *300:11 438.195 
3 *300:11 *300:17 38.1275 
4 *300:17 *300:19 666.3 
5 *300:19 *300:29 46.8697 
6 *300:29 gpio_dm1[41] 6.0375 
*END

*D_NET *301 0.295204
*CONN
*P gpio_dm1[42] O
*I *921:gpio_dm1[42] O *D CF_CARAVEL_SOC
*CAP
1 gpio_dm1[42] 0.00069807
2 *921:gpio_dm1[42] 0.000285611
3 *301:17 0.0157131
4 *301:15 0.015015
5 *301:13 0.00821272
6 *301:11 0.00849833
7 *301:11 *302:11 0
8 *301:13 *302:13 0.0233626
9 *301:13 *302:19 0.000313964
10 *301:13 *322:11 7.94308e-05
11 *301:13 *340:11 0.00012289
12 *301:13 *340:33 0.00264004
13 *301:13 *341:12 0.000444569
14 *301:13 *341:14 0.00650013
15 *301:13 *841:9 0.000241023
16 *301:13 *842:9 0.00160258
17 *301:17 *302:21 0.00221008
18 *301:17 *345:15 0.0116774
19 *301:17 *541:19 0.000367129
20 *301:17 *546:13 0.000143059
21 *301:17 *552:13 0.000131882
22 *301:17 *560:19 0.0106472
23 *301:17 *564:13 0.070677
24 *301:17 *565:13 0.0722726
25 *301:17 *566:13 0.00151644
26 *301:17 *843:11 0.000230474
27 *248:19 *301:17 0.000121769
28 *252:15 *301:17 0
29 *299:21 *301:13 0.00127814
30 *300:9 *301:11 0
31 *300:11 *301:13 0.0395339
32 *300:17 *301:13 0.000666746
*RES
1 *921:gpio_dm1[42] *301:11 1.3376 
2 *301:11 *301:13 477.975 
3 *301:13 *301:15 0.5 
4 *301:15 *301:17 117.853 
5 *301:17 gpio_dm1[42] 10.0475 
*END

*D_NET *302 0.215539
*CONN
*P gpio_dm1[43] O
*I *921:gpio_dm1[43] O *D CF_CARAVEL_SOC
*CAP
1 gpio_dm1[43] 0.000709442
2 *921:gpio_dm1[43] 0.000191298
3 *302:21 0.014865
4 *302:19 0.0147358
5 *302:13 0.0178935
6 *302:11 0.0175046
7 *302:13 *322:11 0
8 *302:13 *340:35 0
9 *302:13 *341:12 0.00104111
10 *302:13 *341:14 0.0142234
11 *302:13 *840:9 0.000237495
12 *302:19 *840:9 0.00130126
13 *302:19 *841:9 0.00037865
14 *302:21 *345:15 0.000487629
15 *302:21 *565:13 0.0506743
16 *302:21 *843:11 0.020848
17 *302:21 *854:11 0.0103536
18 *302:21 *861:11 0.0113331
19 *207:29 gpio_dm1[43] 0
20 *248:19 *302:21 0.0112555
21 *297:8 *302:13 0.000340924
22 *299:21 *302:13 0.00127793
23 *301:11 *302:11 0
24 *301:13 *302:13 0.0233626
25 *301:13 *302:19 0.000313964
26 *301:17 *302:21 0.00221008
*RES
1 *921:gpio_dm1[43] *302:11 1.85533 
2 *302:11 *302:13 466.125 
3 *302:13 *302:19 16.985 
4 *302:19 *302:21 83.068 
5 *302:21 gpio_dm1[43] 10.3925 
*END

*D_NET *303 0.148172
*CONN
*P gpio_dm1[4] O
*I *921:gpio_dm1[4] O *D CF_CARAVEL_SOC
*CAP
1 gpio_dm1[4] 0.0028666
2 *921:gpio_dm1[4] 0.00441416
3 *303:11 0.0121392
4 *303:9 0.0136868
5 *303:9 *304:9 0
6 *303:11 *771:31 0.00363471
7 gpio_analog_en[4] gpio_dm1[4] 0.00258255
8 gpio_dm0[4] gpio_dm1[4] 0
9 *133:11 *303:11 0.0548588
10 *166:13 *303:11 0.0148101
11 *199:13 *303:11 0
12 *224:17 *303:9 0.000397887
13 *225:17 *303:9 0.000113214
14 *298:9 *303:9 0
15 *298:11 *303:11 0.0386677
*RES
1 *921:gpio_dm1[4] *303:9 10.1254 
2 *303:9 *303:11 97.5409 
3 *303:11 gpio_dm1[4] 7.0151 
*END

*D_NET *304 0.193144
*CONN
*P gpio_dm1[5] O
*I *921:gpio_dm1[5] O *D CF_CARAVEL_SOC
*CAP
1 gpio_dm1[5] 0.00393196
2 *921:gpio_dm1[5] 0.00364421
3 *304:11 0.0237613
4 *304:9 0.0234735
5 gpio_dm1[5] gpio_slow_sel[5] 0.00223822
6 *304:9 *305:9 0
7 *304:11 *310:11 0.00274853
8 *304:11 *312:17 0.0085539
9 *304:11 *349:11 0.00817799
10 *304:11 *484:11 0.00299775
11 gpio_dm0[5] gpio_dm1[5] 0
12 gpio_dm1[1] *304:11 0.00626603
13 *128:11 *304:11 0.0358783
14 *131:11 *304:11 0.00289455
15 *155:11 *304:11 0.0101588
16 *175:11 *304:11 0.000837646
17 *180:11 *304:11 0.00095541
18 *188:11 *304:11 0.0410716
19 *225:17 *304:9 0.0002549
20 *225:19 *304:11 0.0102685
21 *259:11 *304:11 0
22 *260:17 *304:11 0.00381943
23 *287:13 *304:11 0.00121146
24 *303:9 *304:9 0
*RES
1 *921:gpio_dm1[5] *304:9 8.4078 
2 *304:9 *304:11 124.845 
3 *304:11 gpio_dm1[5] 8.98477 
*END

*D_NET *305 0.176841
*CONN
*P gpio_dm1[6] O
*I *921:gpio_dm1[6] O *D CF_CARAVEL_SOC
*CAP
1 gpio_dm1[6] 0.00164929
2 *921:gpio_dm1[6] 0.00636669
3 *305:11 0.0227491
4 *305:9 0.0274665
5 gpio_dm1[6] gpio_slow_sel[6] 0
6 *305:9 *306:9 0
7 *305:11 gpio_inp_dis[2] 0
8 *305:11 *311:11 0.0147753
9 *305:11 *375:59 0.0380006
10 *305:11 *782:47 0.00978946
11 *305:11 *815:53 0.023772
12 *120:11 *305:11 0
13 *219:11 *305:11 0.0322726
14 *225:17 *305:9 0
15 *274:77 *305:11 0
16 *281:11 *305:11 0
17 *304:9 *305:9 0
*RES
1 *921:gpio_dm1[6] *305:9 13.5644 
2 *305:9 *305:11 905.355 
3 *305:11 gpio_dm1[6] 3.6863 
*END

*D_NET *306 0.326379
*CONN
*P gpio_dm1[7] O
*I *921:gpio_dm1[7] O *D CF_CARAVEL_SOC
*CAP
1 gpio_dm1[7] 0.00259438
2 *921:gpio_dm1[7] 0.00534778
3 *306:11 0.032677
4 *306:9 0.0354304
5 *306:9 *307:9 0
6 *306:11 *348:11 0.018037
7 *306:11 *408:101 0.000176228
8 *306:11 *804:27 0.00780365
9 gpio_analog_en[7] gpio_dm1[7] 0
10 *168:11 *306:11 0
11 *218:11 *306:11 0.0888675
12 *263:11 *306:11 0.135445
13 *305:9 *306:9 0
*RES
1 *921:gpio_dm1[7] *306:9 11.6999 
2 *306:9 *306:11 1565.81 
3 *306:11 gpio_dm1[7] 5.54577 
*END

*D_NET *307 0.295854
*CONN
*P gpio_dm1[8] O
*I *921:gpio_dm1[8] O *D CF_CARAVEL_SOC
*CAP
1 gpio_dm1[8] 0.00349282
2 *921:gpio_dm1[8] 0.00440199
3 *307:11 0.0699795
4 *307:9 0.0708886
5 gpio_dm1[8] *791:27 0
6 *307:11 *321:63 0.00759319
7 *307:11 *327:39 0.000456826
8 *307:11 *481:11 0.0792937
9 *307:11 *535:121 0
10 gpio_analog_en[8] gpio_dm1[8] 0
11 *89:11 *307:11 0.00632945
12 *104:11 *307:11 0.0142834
13 *113:11 *307:11 0
14 *133:11 *307:11 0.00410258
15 *181:11 *307:11 0.0247815
16 *202:11 *307:11 0.0102507
17 *224:19 *307:11 0
18 *288:11 *307:11 0
19 *306:9 *307:9 0
*RES
1 *921:gpio_dm1[8] *307:9 9.8936 
2 *307:9 *307:11 1730.54 
3 *307:11 gpio_dm1[8] 7.46857 
*END

*D_NET *308 0.461106
*CONN
*P gpio_dm1[9] O
*I *921:gpio_dm1[9] O *D CF_CARAVEL_SOC
*CAP
1 gpio_dm1[9] 0.00484286
2 *921:gpio_dm1[9] 0.00267699
3 *308:11 0.0457216
4 *308:9 0.0435558
5 *308:11 gpio_dm2[2] 0
6 *308:11 *430:27 0.000222998
7 *308:11 *445:19 0.00553673
8 *308:11 *562:123 0.000222998
9 *308:11 *705:39 0.0128017
10 *308:11 *716:15 0.0134806
11 *308:11 *727:15 0.00176265
12 *90:11 *308:11 0.145162
13 *144:11 *308:11 0.00162654
14 *223:11 *308:11 0.00285761
15 *226:11 *308:11 0.179608
16 *266:9 *308:9 0.00102584
*RES
1 *921:gpio_dm1[9] *308:9 6.77127 
2 *308:9 *308:11 320.109 
3 *308:11 gpio_dm1[9] 10.5808 
*END

*D_NET *309 0.0743242
*CONN
*P gpio_dm2[0] O
*I *921:gpio_dm2[0] O *D CF_CARAVEL_SOC
*CAP
1 gpio_dm2[0] 0.00434736
2 *921:gpio_dm2[0] 0.0175595
3 *309:13 0.0219069
4 gpio_dm2[0] gpio_holdover[0] 0.00177773
5 gpio_dm2[0] gpio_out[0] 0
6 *309:13 gpio_dm2[1] 0.00629218
7 *309:13 *443:19 0
8 *309:13 *452:11 0.000169377
9 *309:13 *463:11 0.000643607
10 *309:13 *474:11 0.000662777
11 *309:13 *479:11 0.00113563
12 *309:13 *480:11 0.00122032
13 *309:13 *534:15 0.00414371
14 *309:13 *571:31 0.000662777
15 gpio_analog_sel[0] gpio_dm2[0] 0.0024519
16 gpio_dm1[0] *309:13 0.00559199
17 *242:9 gpio_dm2[0] 0.000852394
18 *245:11 *309:13 0
19 *250:21 *309:13 0
20 *274:11 *309:13 0.00196441
21 *279:11 *309:13 0
22 *284:11 *309:13 0.00126461
23 *292:11 *309:13 0.00167701
*RES
1 *921:gpio_dm2[0] *309:13 45.3245 
2 *309:13 gpio_dm2[0] 12.0048 
*END

*D_NET *310 0.421954
*CONN
*P gpio_dm2[10] O
*I *921:gpio_dm2[10] O *D CF_CARAVEL_SOC
*CAP
1 gpio_dm2[10] 0.00302337
2 *921:gpio_dm2[10] 0.00351132
3 *310:11 0.0380059
4 *310:9 0.0384938
5 gpio_dm2[10] gpio_holdover[10] 0.000396456
6 gpio_dm2[10] *354:15 0.00359087
7 gpio_dm2[10] *706:11 0
8 *310:9 *311:9 0
9 *310:9 *352:9 0.000700756
10 *310:11 *349:11 0.00889822
11 *310:11 *444:11 0.010807
12 *310:11 *484:11 0.152734
13 *131:11 *310:11 0.123826
14 *135:11 *310:11 0.0294313
15 *155:11 *310:11 0.00578584
16 *225:19 *310:11 0
17 *304:11 *310:11 0.00274853
*RES
1 *921:gpio_dm2[10] *310:9 8.26213 
2 *310:9 *310:11 1905.46 
3 *310:11 gpio_dm2[10] 8.88977 
*END

*D_NET *311 0.395165
*CONN
*P gpio_dm2[11] O
*I *921:gpio_dm2[11] O *D CF_CARAVEL_SOC
*CAP
1 gpio_dm2[11] 0.00146267
2 *921:gpio_dm2[11] 0.00655061
3 *311:11 0.048726
4 *311:9 0.0538139
5 gpio_dm2[11] gpio_holdover[11] 0.000270152
6 gpio_dm2[11] *355:15 6.35795e-05
7 *311:9 *312:17 0
8 *311:11 gpio_holdover[10] 0
9 *311:11 gpio_ib_mode_sel[8] 0
10 *311:11 gpio_oeb[9] 0
11 *311:11 gpio_out[8] 0
12 *311:11 *815:53 0.00578506
13 gpio_analog_pol[10] *311:11 0
14 gpio_analog_pol[9] *311:11 0
15 gpio_analog_sel[11] gpio_dm2[11] 0
16 *219:11 *311:11 0.109203
17 *264:11 *311:11 0.154514
18 *305:11 *311:11 0.0147753
19 *310:9 *311:9 0
*RES
1 *921:gpio_dm2[11] *311:9 13.4479 
2 *311:9 *311:11 2069.69 
3 *311:11 gpio_dm2[11] 3.78003 
*END

*D_NET *312 0.410781
*CONN
*P gpio_dm2[12] O
*I *921:gpio_dm2[12] O *D CF_CARAVEL_SOC
*CAP
1 gpio_dm2[12] 0.00278128
2 *921:gpio_dm2[12] 0.00783184
3 *312:19 0.0643098
4 *312:17 0.0693604
5 gpio_dm2[12] gpio_holdover[12] 0
6 *312:17 *313:9 0
7 *312:17 *315:11 0.00246572
8 *312:17 *321:11 0.0023866
9 *312:19 *337:37 0.00174909
10 *312:19 *375:43 0.0115712
11 *312:19 *532:36 0
12 *312:19 *535:121 0.000229715
13 *312:19 *568:15 0.0139677
14 *312:19 *782:31 0.00601649
15 gpio_analog_en[3] *312:19 0.000725619
16 gpio_analog_pol[4] *312:19 0.00128874
17 gpio_analog_sel[12] gpio_dm2[12] 0.00294383
18 gpio_analog_sel[4] *312:19 0.000208883
19 *94:17 *312:19 0.00316634
20 *113:19 *312:19 0.000354443
21 *128:11 *312:17 0.00021311
22 *129:9 *312:17 4.85629e-05
23 *132:11 *312:19 0
24 *136:11 *312:19 0.0059579
25 *161:13 *312:19 0.00232745
26 *176:11 *312:19 0.00876914
27 *182:19 *312:19 0.152358
28 *202:25 *312:19 0.000532351
29 *259:11 *312:17 0.00616729
30 *260:19 *312:19 0.0343848
31 *266:11 *312:17 0.000110459
32 *266:11 *312:19 0
33 *304:11 *312:17 0.0085539
34 *311:9 *312:17 0
*RES
1 *921:gpio_dm2[12] *312:17 36.2852 
2 *312:17 *312:19 2080.91 
3 *312:19 gpio_dm2[12] 8.0107 
*END

*D_NET *313 0.516361
*CONN
*P gpio_dm2[13] O
*I *921:gpio_dm2[13] O *D CF_CARAVEL_SOC
*CAP
1 gpio_dm2[13] 0.00212995
2 *921:gpio_dm2[13] 0.00509038
3 *313:18 1.55914e-05
4 *313:11 0.0545811
5 *313:9 0.0575572
6 gpio_dm2[13] gpio_holdover[13] 0.000858335
7 gpio_dm2[13] gpio_out[13] 0
8 gpio_dm2[13] *357:23 0.00189368
9 *313:9 *463:9 0
10 *313:11 *445:11 0.198193
11 *313:11 *531:28 0.184328
12 *313:11 *692:23 0.0117137
13 *94:19 *313:11 0
14 *312:17 *313:9 0
*RES
1 *921:gpio_dm2[13] *313:9 10.8259 
2 *313:9 *313:11 2566.43 
3 *313:11 gpio_dm2[13] 6.0822 
4 gpio_dm2[13] *313:18 0.0411667 
*END

*D_NET *314 0.535881
*CONN
*P gpio_dm2[14] O
*I *921:gpio_dm2[14] O *D CF_CARAVEL_SOC
*CAP
1 gpio_dm2[14] 0.00423933
2 *921:gpio_dm2[14] 0.011287
3 *314:19 0.0935524
4 *314:17 0.1006
5 gpio_dm2[14] *358:23 0.000271408
6 *314:17 *315:9 0.000601981
7 *314:17 *352:11 0.00219949
8 *314:17 *474:9 0.000137581
9 *314:19 *337:19 0.0111737
10 *314:19 *350:11 0.00533202
11 *314:19 *474:11 1.75432e-05
12 *314:19 *479:11 0
13 *314:19 *480:11 0
14 *314:19 *534:15 0
15 *314:19 *571:31 0
16 *314:19 *699:10 0
17 *314:19 *700:10 0.00620052
18 *314:19 *744:15 0
19 gpio_analog_sel[14] gpio_dm2[14] 0.00325244
20 *91:9 *314:17 0.000140784
21 *91:11 *314:17 4.27064e-05
22 *92:9 *314:17 0
23 *96:11 *314:19 0.243181
24 *105:27 *314:19 0.0499866
25 *125:11 *314:19 0.000992794
26 *206:21 *314:19 0
27 *274:11 *314:17 0.0026716
28 *279:11 *314:17 0
*RES
1 *921:gpio_dm2[14] *314:17 34.902 
2 *314:17 *314:19 2722.49 
3 *314:19 gpio_dm2[14] 15.833 
*END

*D_NET *315 0.413647
*CONN
*P gpio_dm2[15] O
*I *921:gpio_dm2[15] O *D CF_CARAVEL_SOC
*CAP
1 gpio_dm2[15] 7.7176e-05
2 *921:gpio_dm2[15] 0.00385266
3 *315:27 0.130325
4 *315:25 0.131774
5 *315:15 0.00375113
6 *315:13 0.00222416
7 *315:11 0.0158811
8 *315:9 0.0197338
9 gpio_dm2[15] gpio_holdover[15] 0
10 *315:9 *463:9 0
11 *315:11 *321:11 0.0217344
12 *315:11 *532:36 0.0291383
13 *315:15 *789:23 0.000460946
14 *315:15 *833:31 0.00782537
15 *315:25 *436:23 0.00241213
16 *315:25 *694:6 0.00290256
17 gpio_analog_sel[15] gpio_dm2[15] 0
18 *112:11 *315:11 0.00388603
19 *129:11 *315:11 0.00644224
20 *139:11 *315:11 0.00447142
21 *161:15 *315:25 0.00141619
22 *162:11 *315:11 0.0110571
23 *182:17 *315:11 0.00291818
24 *183:19 *315:27 0
25 *203:11 *315:11 0.000828707
26 *225:19 *315:11 0
27 *271:21 *315:15 0.00413998
28 *271:21 *315:25 0.000254771
29 *271:25 *315:25 0.00270261
30 *274:125 *315:15 0.000369725
31 *312:17 *315:11 0.00246572
32 *314:17 *315:9 0.000601981
*RES
1 *921:gpio_dm2[15] *315:9 8.8448 
2 *315:9 *315:11 747.128 
3 *315:11 *315:13 2 
4 *315:13 *315:15 73.59 
5 *315:15 *315:25 14.8813 
6 *315:25 *315:27 2265.01 
7 *315:27 gpio_dm2[15] 1.35 
*END

*D_NET *316 0.467057
*CONN
*P gpio_dm2[16] O
*I *921:gpio_dm2[16] O *D CF_CARAVEL_SOC
*CAP
1 gpio_dm2[16] 0.12265
2 *921:gpio_dm2[16] 0.00193223
3 *316:17 0.12265
4 *316:15 0.0240287
5 *316:13 0.0240287
6 *316:11 0.0176389
7 *316:9 0.0195711
8 gpio_dm2[16] gpio_holdover[16] 0
9 gpio_dm2[16] *537:240 0.00169447
10 *316:9 *317:9 0
11 *316:11 gpio_oeb[6] 0.00218222
12 *316:11 *319:11 0.0061226
13 *316:11 *339:11 0.00265148
14 *316:11 *483:11 0
15 *316:11 *551:125 0.00143432
16 *316:11 *788:27 0.00612876
17 *316:15 *681:15 0.00015107
18 *316:15 *685:15 0.000230355
19 gpio_analog_sel[16] gpio_dm2[16] 0
20 *97:11 *316:11 0
21 *99:11 *316:11 0
22 *117:11 *316:11 0.0322383
23 *140:71 *316:11 0.00231939
24 *140:81 *316:15 0
25 *143:15 *316:15 0
26 *153:25 *316:11 0.000211314
27 *202:27 *316:15 0.0122603
28 *274:11 *316:11 0
29 *279:11 *316:11 0.00718346
30 *280:11 *316:11 0.0575897
31 *280:19 *316:11 0.00215971
*RES
1 *921:gpio_dm2[16] *316:9 4.034 
2 *316:9 *316:11 789.585 
3 *316:11 *316:13 0.5 
4 *316:13 *316:15 79.9216 
5 *316:15 *316:17 0.5 
6 *316:17 gpio_dm2[16] 2221.61 
*END

*D_NET *317 0.563061
*CONN
*P gpio_dm2[17] O
*I *921:gpio_dm2[17] O *D CF_CARAVEL_SOC
*CAP
1 gpio_dm2[17] 0.118739
2 *921:gpio_dm2[17] 0.00181359
3 *317:17 0.118739
4 *317:15 0.0414118
5 *317:13 0.0414118
6 *317:11 0.0141572
7 *317:9 0.0159708
8 gpio_dm2[17] gpio_holdover[17] 0
9 gpio_dm2[17] *361:35 0.0539754
10 *317:9 *318:9 0
11 *317:11 *319:11 0.0725209
12 *317:11 *323:11 0.00349436
13 *317:11 *483:11 0
14 *317:15 *538:177 0
15 gpio_analog_sel[17] gpio_dm2[17] 0
16 *245:11 *317:11 0.0122282
17 *280:11 *317:11 0.000317742
18 *290:11 *317:11 0.00131095
19 *291:11 *317:11 0.066971
20 *316:9 *317:9 0
*RES
1 *921:gpio_dm2[17] *317:9 3.8592 
2 *317:9 *317:11 863.025 
3 *317:11 *317:13 0.5 
4 *317:13 *317:15 112.318 
5 *317:15 *317:17 0.5 
6 *317:17 gpio_dm2[17] 2144.09 
*END

*D_NET *318 0.586304
*CONN
*P gpio_dm2[18] O
*I *921:gpio_dm2[18] O *D CF_CARAVEL_SOC
*CAP
1 gpio_dm2[18] 0.00440066
2 *921:gpio_dm2[18] 0.00150007
3 *318:17 0.00440066
4 *318:15 0.0604867
5 *318:13 0.0604867
6 *318:11 0.133427
7 *318:9 0.134927
8 gpio_dm2[18] gpio_holdover[18] 0
9 *318:9 *319:9 0.000634059
10 *318:11 *323:11 0.123914
11 *318:11 *324:11 0
12 gpio_analog_sel[18] gpio_dm2[18] 0
13 *140:361 *318:15 0.000996772
14 *282:11 *318:11 0.0602846
15 *286:11 *318:11 0
16 *290:11 *318:11 0.000845738
17 *317:9 *318:9 0
*RES
1 *921:gpio_dm2[18] *318:9 3.71227 
2 *318:9 *318:11 2922.92 
3 *318:11 *318:13 0.5 
4 *318:13 *318:15 168.429 
5 *318:15 *318:17 0.5 
6 *318:17 gpio_dm2[18] 79.6125 
*END

*D_NET *319 0.589362
*CONN
*P gpio_dm2[19] O
*I *921:gpio_dm2[19] O *D CF_CARAVEL_SOC
*CAP
1 gpio_dm2[19] 0.121373
2 *921:gpio_dm2[19] 0.00141117
3 *319:17 0.121373
4 *319:15 0.084833
5 *319:13 0.084833
6 *319:11 0.0129871
7 *319:9 0.0143983
8 *319:9 *321:9 0
9 *319:11 *483:11 0
10 *319:15 *538:169 0
11 gpio_analog_sel[19] gpio_dm2[19] 0
12 *140:71 *319:11 0.00232105
13 *140:93 *319:15 0.00021841
14 *187:15 *319:15 0
15 *279:11 *319:11 0.00966782
16 *280:11 *319:11 0.0566688
17 *316:11 *319:11 0.0061226
18 *317:11 *319:11 0.0725209
19 *318:9 *319:9 0.000634059
*RES
1 *921:gpio_dm2[19] *319:9 3.65907 
2 *319:9 *319:11 809.985 
3 *319:11 *319:13 0.5 
4 *319:13 *319:15 233.221 
5 *319:15 *319:17 0.5 
6 *319:17 gpio_dm2[19] 2191.01 
*END

*D_NET *320 0.0365641
*CONN
*P gpio_dm2[1] O
*I *921:gpio_dm2[1] O *D CF_CARAVEL_SOC
*CAP
1 gpio_dm2[1] 0.0102397
2 *921:gpio_dm2[1] 0.0102397
3 gpio_dm2[1] gpio_holdover[1] 0.000976093
4 gpio_dm2[1] gpio_out[1] 0
5 gpio_dm2[1] *443:19 0
6 gpio_dm2[1] *463:11 0.000999527
7 gpio_dm2[1] *474:11 0.00138864
8 gpio_dm2[1] *479:11 0.00160357
9 gpio_dm2[1] *480:11 0.00142644
10 gpio_dm2[1] *571:31 0.00149219
11 gpio_analog_sel[1] gpio_dm2[1] 0.00190601
12 *279:11 gpio_dm2[1] 0
13 *309:13 gpio_dm2[1] 0.00629218
*RES
1 *921:gpio_dm2[1] gpio_dm2[1] 29.4677 
*END

*D_NET *321 0.663504
*CONN
*P gpio_dm2[20] O
*I *921:gpio_dm2[20] O *D CF_CARAVEL_SOC
*CAP
1 gpio_dm2[20] 9.87705e-05
2 *921:gpio_dm2[20] 0.00346917
3 *321:71 0.124723
4 *321:69 0.124624
5 *321:67 0.0932146
6 *321:65 0.0932146
7 *321:63 0.00311167
8 *321:61 0.00429802
9 *321:49 0.00216538
10 *321:43 0.00542268
11 *321:41 0.00889972
12 *321:25 0.00926283
13 *321:11 0.0127542
14 *321:9 0.0114167
15 gpio_dm2[20] gpio_holdover[20] 0
16 *321:9 gpio_inp_dis[2] 0.0010829
17 *321:41 *333:11 0.00203853
18 *321:41 *334:34 0.00278792
19 *321:49 *445:11 0.00220178
20 *321:71 gpio_holdover[20] 0
21 *321:71 *722:9 0
22 gpio_analog_en[2] *321:9 0.000675465
23 gpio_analog_sel[20] gpio_dm2[20] 0
24 gpio_analog_sel[20] *321:71 0
25 *93:11 *321:25 0.00179544
26 *109:21 *321:41 0.00553154
27 *109:25 *321:41 0.000108729
28 *112:11 *321:11 0.0177623
29 *116:27 *321:41 0.00203074
30 *128:11 *321:11 0.00327393
31 *130:11 *321:25 0.000453136
32 *137:11 *321:63 0.0011818
33 *142:11 *321:41 0.000717383
34 *143:11 *321:41 0.000496578
35 *148:11 *321:41 5.23758e-05
36 *152:9 *321:41 0
37 *178:19 *321:49 0.0039202
38 *182:17 *321:11 0.000929788
39 *189:19 *321:71 0
40 *193:9 *321:41 0.000230857
41 *203:11 *321:11 0.000148561
42 *205:27 *321:41 0.00521272
43 *206:17 *321:25 0.000133187
44 *206:47 *321:67 0.0642893
45 *209:9 *321:25 2.82743e-05
46 *212:9 *321:25 0
47 *222:19 *321:61 0.00258396
48 *223:17 *321:9 0.000488724
49 *223:19 *321:25 0
50 *224:19 *321:63 0
51 *225:19 *321:11 0.00859123
52 *241:11 *321:61 0.00258396
53 *274:45 *321:25 0
54 *274:69 *321:49 2.84864e-05
55 *274:77 *321:43 4.66108e-05
56 *274:135 *321:67 0.00370909
57 *286:15 *321:67 0
58 *288:25 *321:25 0
59 *307:11 *321:63 0.00759319
60 *312:17 *321:11 0.0023866
61 *315:11 *321:11 0.0217344
62 *319:9 *321:9 0
*RES
1 *921:gpio_dm2[20] *321:9 8.72827 
2 *321:9 *321:11 418.432 
3 *321:11 *321:25 39.2674 
4 *321:25 *321:41 47.9114 
5 *321:41 *321:43 62.205 
6 *321:43 *321:49 49.495 
7 *321:49 *321:61 45.12 
8 *321:61 *321:63 85.53 
9 *321:63 *321:65 2 
10 *321:65 *321:67 1611.26 
11 *321:67 *321:69 2 
12 *321:69 *321:71 2246.53 
13 *321:71 gpio_dm2[20] 1.35 
*END

*D_NET *322 1.26797
*CONN
*P gpio_dm2[21] O
*I *921:gpio_dm2[21] O *D CF_CARAVEL_SOC
*CAP
1 gpio_dm2[21] 0.000693365
2 *921:gpio_dm2[21] 0.000242219
3 *322:483 0.0140131
4 *322:477 0.0176514
5 *322:475 0.00640804
6 *322:461 0.00709874
7 *322:459 0.00877933
8 *322:445 0.00701819
9 *322:443 0.00566857
10 *322:429 0.00868531
11 *322:427 0.00695148
12 *322:417 0.00721312
13 *322:415 0.0071775
14 *322:409 0.00261942
15 *322:407 0.00332944
16 *322:393 0.00938881
17 *322:391 0.00825216
18 *322:385 0.00510445
19 *322:383 0.00555803
20 *322:377 0.0169325
21 *322:375 0.0174472
22 *322:363 0.00424294
23 *322:349 0.0102941
24 *322:347 0.00755164
25 *322:341 0.00464042
26 *322:339 0.00466072
27 *322:333 0.0227641
28 *322:331 0.0239048
29 *322:317 0.0121567
30 *322:315 0.0124679
31 *322:309 0.00315936
32 *322:307 0.00357668
33 *322:301 0.00445677
34 *322:293 0.00812357
35 *322:291 0.00882386
36 *322:285 0.00847401
37 *322:283 0.00576428
38 *322:277 0.0107256
39 *322:275 0.0104887
40 *322:273 0.00279929
41 *322:271 0.00594481
42 *322:259 0.00358137
43 *322:255 0.00661826
44 *322:235 0.0124168
45 *322:219 0.00752559
46 *322:211 0.00413068
47 *322:191 0.00556224
48 *322:189 0.0037347
49 *322:181 0.00610169
50 *322:167 0.0112615
51 *322:165 0.00708424
52 *322:161 0.00455296
53 *322:149 0.00585237
54 *322:131 0.0043251
55 *322:129 0.0054408
56 *322:113 0.00882037
57 *322:93 0.00877506
58 *322:79 0.0055283
59 *322:69 0.00320939
60 *322:61 0.00375413
61 *322:39 0.00622372
62 *322:37 0.00343296
63 *322:35 0.00635308
64 *322:33 0.00733637
65 *322:27 0.00190425
66 *322:25 0.00153543
67 *322:19 0.00346905
68 *322:17 0.00425034
69 *322:11 0.00462307
70 *322:9 0.00346953
71 gpio_dm2[21] gpio_holdover[21] 0
72 *322:9 *341:12 0.000229581
73 *322:11 *340:11 0.00857201
74 *322:11 *341:12 0.00378215
75 *322:19 *339:11 0.0180229
76 *322:19 *551:125 0.0180245
77 *322:27 *335:13 0.00574603
78 *322:27 *338:11 0.00574603
79 *322:27 *443:19 0.00113467
80 *322:35 *740:75 0.0162498
81 *322:39 *697:109 0.000297864
82 *322:39 *826:127 0.0180473
83 *322:61 *397:173 0.0054686
84 *322:61 *530:93 0.00394043
85 *322:61 *535:113 0.0021495
86 *322:61 *537:56 1.95991e-05
87 *322:61 *551:121 0.0060533
88 *322:61 *696:93 0.0016947
89 *322:61 *826:125 0.000111776
90 *322:69 *444:21 0.000227379
91 *322:69 *533:104 0.00392999
92 *322:69 *536:63 0.000512631
93 *322:79 *386:205 0.00187309
94 *322:79 *474:15 0.000992749
95 *322:79 *771:27 0
96 *322:93 *386:201 0
97 *322:93 *533:92 0.00486124
98 *322:93 *535:93 0.000139941
99 *322:93 *536:35 0.00199835
100 *322:93 *536:51 0.00816189
101 *322:93 *537:24 1.03323e-05
102 *322:93 *537:48 0.00823842
103 *322:93 *540:32 8.33066e-06
104 *322:93 *826:117 6.26655e-05
105 *322:113 *325:37 0
106 *322:113 *336:25 0
107 *322:113 *397:135 0.00138125
108 *322:113 *533:68 0.00735056
109 *322:113 *533:70 0.00125906
110 *322:113 *535:65 0.00700545
111 *322:113 *551:95 0.00137364
112 *322:113 *740:123 0.00126604
113 *322:113 *741:138 7.61005e-05
114 *322:113 *826:117 2.85943e-05
115 *322:129 *336:45 0
116 *322:129 *338:35 0.000119028
117 *322:129 *419:117 0.000272411
118 *322:129 *444:55 0.00141813
119 *322:129 *531:16 0.002258
120 *322:129 *535:33 0
121 *322:129 *537:12 0.00393234
122 *322:129 *538:41 1.9579e-05
123 *322:129 *540:24 0.00155728
124 *322:129 *840:19 0.00012901
125 *322:131 *386:157 0.000307807
126 *322:131 *386:161 0
127 *322:131 *419:117 0.00148427
128 *322:131 *539:11 0.00692774
129 *322:149 *364:39 0.00154264
130 *322:149 *536:25 0.000136754
131 *322:149 *539:17 0
132 *322:149 *571:25 0
133 *322:149 *696:145 4.13249e-05
134 *322:149 *740:169 0
135 *322:149 *760:29 2.88984e-05
136 *322:149 *847:14 0
137 *322:149 *852:11 0.00154032
138 *322:161 *529:9 0.0143142
139 *322:161 *531:14 1.7635e-05
140 *322:161 *539:41 3.79555e-05
141 *322:161 *540:24 0.00214845
142 *322:161 *570:14 0.00289549
143 *322:161 *571:19 0.00289841
144 *322:161 *571:25 0
145 *322:161 *840:19 0.00763088
146 *322:165 *397:79 0.00114226
147 *322:165 *570:14 0.000437555
148 *322:165 *571:19 0.000622848
149 *322:165 *840:19 0.00101927
150 *322:167 *921:gpio_in[41] 0.00364059
151 *322:167 *397:79 0.0260108
152 *322:167 *472:55 0.000611461
153 *322:167 *529:9 0.0033021
154 *322:167 *539:55 0.0432887
155 *322:167 *571:17 0.000422499
156 *322:167 *840:19 0.00104946
157 *322:181 gpio_out[39] 0.00477176
158 *322:181 *338:69 0.000947705
159 *322:181 *444:69 4.36573e-06
160 *322:181 *472:55 6.68625e-06
161 *322:181 *539:69 0.0274476
162 *322:181 *541:37 0.00887846
163 *322:181 *826:45 1.0911e-05
164 *322:189 *826:31 0.00154106
165 *322:191 *325:87 0
166 *322:191 *419:31 0.0152125
167 *322:191 *539:75 0.0181188
168 *322:211 gpio_out[39] 0.00255236
169 *322:211 *921:gpio_in[19] 9.68083e-06
170 *322:211 *325:101 0.00557159
171 *322:211 *397:77 0.000416363
172 *322:211 *541:57 1.0911e-05
173 *322:211 *693:175 0.00040961
174 *322:211 *739:112 0.000117276
175 *322:211 *826:29 0.000110187
176 *322:219 *325:117 0.000428574
177 *322:219 *539:105 0.00154795
178 *322:219 *541:65 0.000721796
179 *322:219 *543:11 0
180 *322:219 *739:92 7.27641e-05
181 *322:219 *739:112 0.000228159
182 *322:235 *921:gpio_in[11] 9.49713e-05
183 *322:235 *397:53 0.00204748
184 *322:235 *419:23 0.000337995
185 *322:235 *539:117 0.0132003
186 *322:235 *541:77 4.24492e-05
187 *322:235 *556:37 0.000683279
188 *322:235 *693:163 0.000121592
189 *322:235 *737:147 2.65152e-05
190 *322:235 *739:92 0.000130014
191 *322:235 *815:47 6.7949e-05
192 *322:235 *826:29 0.00180845
193 *322:235 *873:17 0
194 *322:255 *325:145 3.6016e-05
195 *322:255 *386:45 0.000235065
196 *322:255 *472:11 0.000236947
197 *322:255 *539:151 0.000515787
198 *322:255 *541:89 0
199 *322:255 *737:147 0
200 *322:255 *739:80 0.013108
201 *322:255 *826:29 0.00144519
202 *322:259 *364:39 0.00278614
203 *322:259 *390:23 0.00163478
204 *322:259 *472:11 0.000638497
205 *322:271 *539:151 0.00688375
206 *322:271 *693:109 0.00628798
207 *322:271 *737:103 0.000194705
208 *322:273 *539:155 0.0113157
209 *322:273 *541:107 0.0068988
210 *322:273 *693:95 0.000124501
211 *322:273 *815:25 0.00266753
212 *322:277 *338:83 0.0217825
213 *322:277 *440:19 0.00701058
214 *322:285 *411:11 0.0271903
215 *322:285 *544:17 0.0271917
216 *322:293 *459:13 0.00741308
217 *322:301 *396:11 0.00154301
218 *322:301 *541:115 0
219 *322:301 *802:11 0.00154429
220 *322:307 *693:37 0.00103813
221 *322:309 *361:17 0.00210312
222 *322:309 *370:11 0.00890514
223 *322:309 *755:11 0.00890391
224 *322:315 *436:23 0
225 *322:315 *539:187 0.00378443
226 *322:315 *693:27 0.000331611
227 *322:315 *731:16 0.000101386
228 *322:315 *808:25 0
229 *322:317 *539:209 0
230 *322:317 *705:33 0
231 *322:317 *808:25 0
232 *322:333 *680:17 0.00448085
233 *322:341 *677:15 0.0111936
234 *322:349 *676:15 0.00732225
235 *322:363 *720:13 0
236 *322:363 *792:15 0
237 *322:375 gpio_holdover[9] 0
238 *322:375 *722:17 0
239 *322:375 *836:15 0.00120868
240 *322:377 *544:33 0.0164025
241 *322:391 *326:35 0.00061627
242 *322:391 *400:23 0
243 *322:407 *764:23 0.00180742
244 *322:409 *456:11 0.00522091
245 *322:483 *539:435 0.0209575
246 gpio_analog_sel[21] gpio_dm2[21] 0
247 gpio_analog_sel[43] *322:61 0.00105223
248 gpio_analog_sel[43] *322:113 0.000579471
249 *104:35 *322:385 0
250 *118:19 *322:35 0
251 *118:33 *322:61 0
252 *118:37 *322:61 0.000252007
253 *118:39 *322:69 0.00392831
254 *118:69 *322:113 1.95991e-05
255 *118:93 *322:129 0.00115398
256 *118:177 *322:211 0.00997143
257 *118:179 *322:211 0.000108569
258 *118:211 *322:277 0.0453036
259 *125:15 *322:39 0.00610785
260 *169:15 *322:79 0.000294978
261 *190:19 gpio_dm2[21] 0
262 *192:19 *322:375 0.000562271
263 *193:61 *322:317 0
264 *197:15 *322:375 0.000290024
265 *204:45 *322:293 0.0136287
266 *206:59 *322:293 0.0266752
267 *245:11 *322:19 0.000759514
268 *251:11 *322:35 0
269 *255:15 *322:149 0.000221223
270 *279:11 *322:19 0.000919468
271 *280:27 *322:385 0
272 *280:27 *322:393 0
273 *281:31 *322:475 0.000600538
274 *293:15 *322:129 0.000638177
275 *293:15 *322:165 0.00267878
276 *293:15 *322:167 8.28018e-06
277 *301:13 *322:11 7.94308e-05
278 *302:13 *322:11 0
*RES
1 *921:gpio_dm2[21] *322:9 0.973733 
2 *322:9 *322:11 94.8375 
3 *322:11 *322:17 24.115 
4 *322:17 *322:19 200.79 
5 *322:19 *322:25 12.73 
6 *322:25 *322:27 64.365 
7 *322:27 *322:33 18.25 
8 *322:33 *322:35 180.645 
9 *322:35 *322:37 2 
10 *322:37 *322:39 163.635 
11 *322:39 *322:61 33.7489 
12 *322:61 *322:69 44.9525 
13 *322:69 *322:79 49.675 
14 *322:79 *322:93 49.6252 
15 *322:93 *322:113 44.1355 
16 *322:113 *322:129 40.9903 
17 *322:129 *322:131 62.55 
18 *322:131 *322:149 48.3225 
19 *322:149 *322:161 35.2548 
20 *322:161 *322:165 42.465 
21 *322:165 *322:167 390.645 
22 *322:167 *322:181 48.8691 
23 *322:181 *322:189 28.6 
24 *322:189 *322:191 163.29 
25 *322:191 *322:211 41.2595 
26 *322:211 *322:219 34.8325 
27 *322:219 *322:235 38.9692 
28 *322:235 *322:255 27.4926 
29 *322:255 *322:259 27.635 
30 *322:259 *322:271 43.4689 
31 *322:271 *322:273 106.02 
32 *322:273 *322:275 2 
33 *322:275 *322:277 523.365 
34 *322:277 *322:283 7.555 
35 *322:283 *322:285 314.52 
36 *322:285 *322:291 47.23 
37 *322:291 *322:293 308.4 
38 *322:293 *322:301 49.315 
39 *322:301 *322:307 39.295 
40 *322:307 *322:309 98.79 
41 *322:309 *322:315 44.815 
42 *322:315 *322:317 186.128 
43 *322:317 *322:331 13.0213 
44 *322:331 *322:333 423.915 
45 *322:333 *322:339 1.912 
46 *322:339 *322:341 124.545 
47 *322:341 *322:347 1.85373 
48 *322:347 *322:349 186.765 
49 *322:349 *322:363 49.3799 
50 *322:363 *322:375 15.4209 
51 *322:375 *322:377 418.815 
52 *322:377 *322:383 2.786 
53 *322:383 *322:385 88.335 
54 *322:385 *322:391 1.912 
55 *322:391 *322:393 145.455 
56 *322:393 *322:407 23.819 
57 *322:407 *322:409 57.735 
58 *322:409 *322:415 2.786 
59 *322:415 *322:417 118.425 
60 *322:417 *322:427 2.94813 
61 *322:427 *322:429 113.835 
62 *322:429 *322:443 30.813 
63 *322:443 *322:445 59.265 
64 *322:445 *322:459 40.211 
65 *322:459 *322:461 89.865 
66 *322:461 *322:475 26.733 
67 *322:475 *322:477 77.625 
68 *322:477 *322:483 46.8356 
69 *322:483 gpio_dm2[21] 12.165 
*END

*D_NET *323 0.700111
*CONN
*P gpio_dm2[22] O
*I *921:gpio_dm2[22] O *D CF_CARAVEL_SOC
*CAP
1 gpio_dm2[22] 0.0889492
2 *921:gpio_dm2[22] 0.00174457
3 *323:17 0.0889492
4 *323:15 0.120039
5 *323:13 0.120039
6 *323:11 0.0312705
7 *323:9 0.033015
8 *323:9 *324:9 0
9 *323:15 *684:21 0
10 gpio_analog_sel[22] gpio_dm2[22] 0
11 *140:189 *323:15 0.000217141
12 *282:11 *323:11 0.0210266
13 *290:11 *323:11 0.0674531
14 *317:11 *323:11 0.00349436
15 *318:11 *323:11 0.123914
*RES
1 *921:gpio_dm2[22] *323:9 3.77053 
2 *323:9 *323:11 1380.17 
3 *323:11 *323:13 0.5 
4 *323:13 *323:15 330.76 
5 *323:15 *323:17 0.5 
6 *323:17 gpio_dm2[22] 1606.04 
*END

*D_NET *324 0.710493
*CONN
*P gpio_dm2[23] O
*I *921:gpio_dm2[23] O *D CF_CARAVEL_SOC
*CAP
1 gpio_dm2[23] 0.00208224
2 *921:gpio_dm2[23] 0.00112022
3 *324:19 0.106204
4 *324:17 0.104122
5 *324:15 0.122763
6 *324:13 0.122763
7 *324:11 0.0279731
8 *324:9 0.0290933
9 gpio_dm2[23] gpio_holdover[23] 0
10 *324:9 *325:9 0.00103262
11 *324:15 *405:15 0
12 *324:15 *679:13 0
13 *324:15 *806:15 0.0430826
14 *324:15 *807:17 0
15 gpio_analog_sel[23] gpio_dm2[23] 0
16 *102:23 *324:15 0
17 *192:19 *324:19 0
18 *233:11 *324:11 0.00350932
19 *236:11 *324:11 0.0149404
20 *244:11 *324:11 0.0662585
21 *272:11 *324:11 0.0655062
22 *278:11 *324:11 0
23 *286:11 *324:11 4.21579e-05
24 *318:11 *324:11 0
25 *323:9 *324:9 0
*RES
1 *921:gpio_dm2[23] *324:9 3.0156 
2 *324:9 *324:11 1066.52 
3 *324:11 *324:13 0.5 
4 *324:13 *324:15 362.748 
5 *324:15 *324:17 0.5 
6 *324:17 *324:19 1881.54 
7 *324:19 gpio_dm2[23] 36.0975 
*END

*D_NET *325 1.18159
*CONN
*P gpio_dm2[24] O
*I *921:gpio_dm2[24] O *D CF_CARAVEL_SOC
*CAP
1 gpio_dm2[24] 0.000452516
2 *921:gpio_dm2[24] 0.000868154
3 *325:167 0.111305
4 *325:165 0.111726
5 *325:159 0.0234881
6 *325:157 0.0289909
7 *325:153 0.00807627
8 *325:145 0.00403248
9 *325:133 0.00632709
10 *325:117 0.00634244
11 *325:103 0.00311054
12 *325:101 0.00424655
13 *325:87 0.0176212
14 *325:85 0.0175498
15 *325:71 0.0129531
16 *325:69 0.0101212
17 *325:63 0.00133193
18 *325:61 0.00141907
19 *325:57 0.00362142
20 *325:39 0.00365057
21 *325:37 0.00339012
22 *325:29 0.00520015
23 *325:23 0.00980188
24 *325:21 0.00729456
25 *325:19 0.0110807
26 *325:17 0.0112575
27 *325:11 0.00355475
28 *325:9 0.00424613
29 gpio_dm2[24] gpio_holdover[24] 0.000175365
30 *325:19 *858:9 0.00182296
31 *325:23 *345:15 0.0478019
32 *325:23 *552:13 0.0108858
33 *325:23 *565:13 0.00948405
34 *325:23 *740:87 0.00698818
35 *325:23 *861:11 0.000131289
36 *325:29 *335:23 0
37 *325:29 *336:25 0.000488907
38 *325:29 *547:11 0.000791486
39 *325:37 *336:25 0.00677065
40 *325:37 *336:29 0.000232396
41 *325:39 *444:53 0.00128441
42 *325:39 *532:16 0.00590459
43 *325:57 *336:31 0.00180771
44 *325:57 *338:33 0
45 *325:57 *386:173 0.00683187
46 *325:57 *397:117 1.63407e-05
47 *325:57 *408:53 0
48 *325:57 *444:53 7.9642e-06
49 *325:57 *533:56 0.000755895
50 *325:57 *535:33 3.57564e-05
51 *325:57 *541:13 0.000889355
52 *325:57 *696:103 0
53 *325:57 *740:155 0.0034642
54 *325:57 *741:164 0
55 *325:63 *338:35 0.00612335
56 *325:63 *532:16 2.26739e-05
57 *325:63 *537:12 0.00045111
58 *325:69 *539:17 0.000864601
59 *325:71 *548:11 0.0603843
60 *325:71 *842:11 0.0159491
61 *325:85 gpio_out[39] 0.000735128
62 *325:85 *338:69 0.000666462
63 *325:85 *386:103 0.0058918
64 *325:85 *541:37 0.0137346
65 *325:85 *839:157 9.03164e-05
66 *325:87 *386:103 0.00692687
67 *325:87 *419:31 0
68 *325:87 *541:43 0.0206432
69 *325:101 gpio_out[39] 0.000342812
70 *325:101 *386:89 0.00239731
71 *325:101 *434:21 0
72 *325:101 *539:97 0.000981872
73 *325:101 *693:187 0
74 *325:103 *737:171 0.000334902
75 *325:103 *784:13 0.000844019
76 *325:103 *861:11 0.00593374
77 *325:117 *921:gpio_in[12] 6.51859e-05
78 *325:117 *386:69 0.000307039
79 *325:117 *541:65 0
80 *325:117 *693:163 0
81 *325:117 *739:112 0.00124224
82 *325:117 *815:47 1.1411e-05
83 *325:133 *921:gpio_in[10] 2.6411e-05
84 *325:133 *386:69 0.000436526
85 *325:133 *451:25 0.000424068
86 *325:133 *539:151 0.000437178
87 *325:133 *541:89 0.000561002
88 *325:133 *693:125 9.39388e-06
89 *325:133 *693:163 0
90 *325:133 *737:151 0.012648
91 *325:133 *739:80 4.42839e-05
92 *325:133 *739:92 0.0132366
93 *325:133 *793:27 0.000388697
94 *325:133 *815:47 0.00022289
95 *325:133 *826:29 0.00128574
96 *325:133 *839:209 0.00195833
97 *325:133 *866:17 0.0019509
98 *325:145 *386:69 0.0133965
99 *325:145 *539:151 0.000491154
100 *325:145 *541:89 0.000566085
101 *325:145 *541:105 0.00172684
102 *325:145 *556:37 0
103 *325:145 *693:117 0.000842917
104 *325:145 *739:80 0.0136171
105 *325:145 *826:29 0.00225403
106 *325:153 *693:117 6.69608e-06
107 *325:153 *840:19 0.000705457
108 *325:157 *386:45 0.000208347
109 *325:157 *419:21 0.0150309
110 *325:157 *550:21 0
111 *325:157 *556:41 0.014519
112 *325:157 *826:29 0.00332547
113 *325:159 *335:57 0.0990967
114 *325:159 *554:25 0.110076
115 *325:159 *873:57 0.00595305
116 *325:167 *378:11 0
117 *325:167 *466:11 0.00367185
118 *325:167 *547:25 0
119 gpio_analog_pol[24] *325:167 0.00149694
120 gpio_analog_sel[24] gpio_dm2[24] 0
121 gpio_analog_sel[28] *325:167 0.00207268
122 gpio_dm1[38] *325:101 0
123 *118:69 *325:37 0
124 *118:73 *325:37 0.00066669
125 *118:93 *325:57 0
126 *118:97 *325:61 0.000622832
127 *118:99 *325:63 0.00608761
128 *118:163 *325:87 2.16917e-05
129 *118:177 *325:101 4.80442e-05
130 *118:187 *325:145 0.00019746
131 *118:209 *325:157 0
132 *121:15 *325:71 0.0144464
133 *125:15 *325:39 0.00590793
134 *165:15 *325:71 0.0216075
135 *170:19 *325:11 0.0100015
136 *170:19 *325:19 0
137 *193:63 *325:167 0
138 *204:43 *325:165 0.000217671
139 *212:19 *325:11 0.0173577
140 *228:11 *325:11 0.00196519
141 *231:11 *325:19 0.0162433
142 *234:11 *325:19 0.015468
143 *235:11 *325:19 0.00174701
144 *238:11 *325:19 0.00743676
145 *244:19 *325:167 0.0212143
146 *248:19 *325:23 0.0178526
147 *248:19 *325:103 0.00593606
148 *284:15 *325:23 0.000355474
149 *284:51 *325:159 0
150 *286:41 *325:167 0
151 *293:15 *325:145 0.000297582
152 *293:15 *325:153 0.00156365
153 *322:113 *325:37 0
154 *322:191 *325:87 0
155 *322:211 *325:101 0.00557159
156 *322:219 *325:117 0.000428574
157 *322:255 *325:145 3.6016e-05
158 *324:9 *325:9 0.00103262
*RES
1 *921:gpio_dm2[24] *325:9 2.54693 
2 *325:9 *325:11 194.033 
3 *325:11 *325:17 6.52 
4 *325:17 *325:19 388.98 
5 *325:19 *325:21 2 
6 *325:21 *325:23 448.605 
7 *325:23 *325:29 45.3175 
8 *325:29 *325:37 25.6226 
9 *325:37 *325:39 53.235 
10 *325:39 *325:57 48.3394 
11 *325:57 *325:61 14.9825 
12 *325:61 *325:63 55.305 
13 *325:63 *325:69 14.815 
14 *325:69 *325:71 555.555 
15 *325:71 *325:85 40.1983 
16 *325:85 *325:87 316.125 
17 *325:87 *325:101 47.1819 
18 *325:101 *325:103 54.615 
19 *325:103 *325:117 35.8791 
20 *325:117 *325:133 36.7243 
21 *325:133 *325:145 49.951 
22 *325:145 *325:153 41.5975 
23 *325:153 *325:157 30.6619 
24 *325:157 *325:159 1272.05 
25 *325:159 *325:165 2.66947 
26 *325:165 *325:167 2126.29 
27 *325:167 gpio_dm2[24] 1.58997 
*END

*D_NET *326 0.669039
*CONN
*P gpio_dm2[25] O
*I *921:gpio_dm2[25] O *D CF_CARAVEL_SOC
*CAP
1 gpio_dm2[25] 0.00221662
2 *921:gpio_dm2[25] 0.0041708
3 *326:35 0.140012
4 *326:33 0.137796
5 *326:31 0.0224341
6 *326:29 0.0225389
7 *326:23 0.0291961
8 *326:21 0.0291161
9 *326:19 0.0023833
10 *326:17 0.00235851
11 *326:15 0.00260384
12 *326:13 0.00260384
13 *326:11 0.010431
14 *326:9 0.0146018
15 gpio_dm2[25] gpio_holdover[25] 0.00066068
16 *326:9 gpio_dm2[2] 0
17 *326:9 gpio_out[2] 0.00101503
18 *326:9 *327:9 0
19 *326:11 *535:121 0.063635
20 *326:15 *436:23 0
21 *326:35 gpio_holdover[25] 1.13211e-05
22 *326:35 gpio_out[25] 0
23 *326:35 *664:11 0
24 gpio_analog_en[3] *326:11 0.000640716
25 gpio_analog_sel[4] *326:11 0.000139918
26 *94:17 *326:11 0.00317485
27 *100:13 *326:11 0.00100156
28 *104:27 *326:11 0.0118773
29 *113:11 *326:11 0.00795918
30 *117:35 *326:19 0.000113898
31 *140:71 *326:19 0.000608589
32 *144:17 *326:9 0
33 *150:27 *326:31 0.00830251
34 *161:13 *326:11 0.00232745
35 *176:11 *326:11 0.00120331
36 *177:11 *326:11 0.000114586
37 *181:11 *326:11 0.00151173
38 *194:39 gpio_dm2[25] 0
39 *194:39 *326:35 0
40 *196:27 *326:31 0.0172408
41 *204:31 *326:15 0.000666603
42 *242:15 *326:15 0.0060947
43 *242:25 *326:19 0.000705395
44 *242:27 *326:23 0.0197516
45 *242:27 *326:31 0.00158057
46 *274:125 *326:15 4.40739e-05
47 *281:19 *326:19 0.00373913
48 *281:19 *326:23 0.0411415
49 *281:27 *326:31 0.0126916
50 *288:11 *326:11 0.0380059
51 *322:391 *326:35 0.00061627
*RES
1 *921:gpio_dm2[25] *326:9 9.544 
2 *326:9 *326:11 708.112 
3 *326:11 *326:13 2 
4 *326:13 *326:15 58.41 
5 *326:15 *326:17 2 
6 *326:17 *326:19 59.3025 
7 *326:19 *326:21 0.45 
8 *326:21 *326:23 786.87 
9 *326:23 *326:29 1.24193 
10 *326:29 *326:31 109.341 
11 *326:31 *326:33 0.5 
12 *326:33 *326:35 379.82 
13 *326:35 gpio_dm2[25] 4.92417 
*END

*D_NET *327 0.823265
*CONN
*P gpio_dm2[26] O
*I *921:gpio_dm2[26] O *D CF_CARAVEL_SOC
*CAP
1 gpio_dm2[26] 9.36604e-05
2 *921:gpio_dm2[26] 0.000774154
3 *327:67 0.0930204
4 *327:65 0.0929267
5 *327:63 0.0360819
6 *327:61 0.0387535
7 *327:39 0.00482292
8 *327:37 0.00260943
9 *327:31 0.00126547
10 *327:29 0.00477445
11 *327:19 0.0118132
12 *327:17 0.00824024
13 *327:11 0.00222734
14 *327:9 0.00260739
15 *327:19 gpio_slow_sel[4] 0.00067397
16 *327:19 *328:11 0.00799551
17 *327:19 *334:6 0.00126856
18 *327:29 *334:6 0.000120926
19 *327:31 *375:43 0.00259169
20 *327:39 *391:43 2.99518e-06
21 *327:39 *481:11 0.00463171
22 *327:61 *337:33 4.57227e-05
23 *327:61 *789:27 0
24 *327:63 *571:39 0.0719193
25 *327:67 gpio_holdover[26] 0.000648796
26 *327:67 *723:21 0
27 gpio_analog_sel[26] *327:67 0.000643941
28 *93:9 *327:17 0.000124201
29 *94:17 *327:17 0.000247316
30 *116:27 *327:19 0.00435873
31 *116:27 *327:29 0.00305949
32 *132:11 *327:31 0.00447231
33 *137:11 *327:39 0.00102783
34 *140:17 *327:29 0.00177318
35 *148:11 *327:29 3.49615e-05
36 *149:33 *327:29 4.57283e-05
37 *161:13 *327:37 4.14437e-05
38 *176:11 *327:31 0.000961519
39 *194:13 *327:19 0.00393191
40 *194:33 *327:19 0.000489536
41 *195:35 *327:67 0.257934
42 *204:9 *327:19 0.00526165
43 *204:9 *327:29 0.000183085
44 *205:35 *327:61 0.00040086
45 *205:47 *327:61 0.000432062
46 *206:33 *327:29 0.00486551
47 *211:9 *327:19 0.00995661
48 *218:11 *327:61 0
49 *220:11 *327:63 0.0874077
50 *224:19 *327:39 0
51 *227:11 *327:11 0.0115183
52 *269:11 *327:63 0.0180246
53 *273:11 *327:61 0.000426492
54 *274:27 *327:19 0.000926623
55 *275:11 *327:11 0.0115183
56 *283:11 *327:61 0.00114468
57 *285:11 *327:11 0.00166588
58 *288:25 *327:19 1.93765e-05
59 *307:11 *327:39 0.000456826
60 *326:9 *327:9 0
*RES
1 *921:gpio_dm2[26] *327:9 1.90853 
2 *327:9 *327:11 128.115 
3 *327:11 *327:17 2.0868 
4 *327:17 *327:19 365.1 
5 *327:19 *327:29 43.9832 
6 *327:29 *327:31 49.575 
7 *327:31 *327:37 1.85373 
8 *327:37 *327:39 60.285 
9 *327:39 *327:61 28.5752 
10 *327:61 *327:63 1377.1 
11 *327:63 *327:65 0.5 
12 *327:65 *327:67 397.369 
13 *327:67 gpio_dm2[26] 0.269167 
*END

*D_NET *328 0.765815
*CONN
*P gpio_dm2[27] O
*I *921:gpio_dm2[27] O *D CF_CARAVEL_SOC
*CAP
1 gpio_dm2[27] 3.12087e-05
2 *921:gpio_dm2[27] 0.000234753
3 *328:65 0.0869053
4 *328:63 0.086874
5 *328:61 0.0295487
6 *328:59 0.0300625
7 *328:53 0.00454409
8 *328:51 0.00712733
9 *328:11 0.012808
10 *328:9 0.0099457
11 *328:9 *341:12 0.000229581
12 *328:11 gpio_slow_sel[4] 0.00116417
13 *328:11 *329:10 0.00119156
14 *328:11 *330:13 0
15 *328:11 *332:13 0.000241849
16 *328:11 *333:11 0.0448597
17 *328:11 *334:6 0.0040047
18 *328:11 *340:11 0.00364233
19 *328:11 *341:12 0.000263841
20 *328:51 *329:52 0.00022602
21 *328:51 *329:56 0.000239991
22 *328:51 *330:13 0.00178589
23 *328:51 *332:13 0.00262829
24 *328:51 *333:11 0.000795418
25 *328:51 *334:34 0.00434857
26 *328:51 *392:45 2.00977e-05
27 *328:51 *787:51 0.000250977
28 *328:53 *329:58 0.00979735
29 *328:53 *330:13 0
30 *328:53 *392:45 0.000134196
31 *328:53 *831:43 0
32 *328:59 *745:11 0.00214152
33 *328:61 *332:21 0.0624362
34 *328:65 gpio_holdover[27] 0
35 gpio_analog_sel[27] *328:65 0.00150774
36 *99:15 *328:59 0.000322636
37 *101:15 *328:59 0.000295725
38 *107:27 *328:61 0.0185692
39 *112:27 *328:61 0.0383709
40 *116:27 *328:11 0.00978573
41 *116:27 *328:51 1.79536e-05
42 *116:41 *328:51 0
43 *117:33 *328:51 0.000322505
44 *141:29 *328:59 0.000305444
45 *157:37 *328:51 0.000199423
46 *158:22 *328:51 0.0027633
47 *158:22 *328:53 0.00168004
48 *194:13 *328:11 0.000687215
49 *194:33 *328:11 0.00046974
50 *196:31 *328:65 0.257676
51 *205:27 *328:51 0
52 *208:9 *328:11 0.00302959
53 *211:9 *328:11 0
54 *227:17 *328:59 0.00213703
55 *274:27 *328:11 0.00438566
56 *283:27 *328:61 0.00634553
57 *288:27 *328:51 0.000464689
58 *327:19 *328:11 0.00799551
*RES
1 *921:gpio_dm2[27] *328:9 0.973733 
2 *328:9 *328:11 513.292 
3 *328:11 *328:51 45.8717 
4 *328:51 *328:53 110.265 
5 *328:53 *328:59 4.21353 
6 *328:59 *328:61 195.475 
7 *328:61 *328:63 0.5 
8 *328:63 *328:65 381.491 
9 *328:65 gpio_dm2[27] 0.0829667 
*END

*D_NET *329 0.526532
*CONN
*P gpio_dm2[28] O
*I *921:gpio_dm2[28] O *D CF_CARAVEL_SOC
*CAP
1 gpio_dm2[28] 0.00115073
2 *921:gpio_dm2[28] 0.000567324
3 *329:70 0.136065
4 *329:68 0.134914
5 *329:66 0.0568471
6 *329:64 0.05887
7 *329:58 0.00676938
8 *329:56 0.00656864
9 *329:52 0.00546271
10 *329:10 0.0224172
11 *329:8 0.019344
12 gpio_dm2[28] gpio_holdover[28] 0.00071343
13 gpio_dm2[28] *548:23 0.000138699
14 gpio_dm2[28] *811:11 0.000137575
15 *329:8 *330:13 0.000206186
16 *329:8 *341:12 0.00146949
17 *329:10 *330:13 0.00565597
18 *329:10 *334:6 0.0176619
19 *329:10 *341:12 0.00227114
20 *329:10 *787:51 0.00525337
21 *329:52 *330:13 0.00022602
22 *329:52 *332:13 0.000314007
23 *329:52 *333:11 0.000685864
24 *329:52 *334:6 0.00120982
25 *329:52 *334:34 0.00242976
26 *329:52 *787:51 0.000953916
27 *329:52 *788:49 7.40928e-05
28 *329:56 *330:13 0
29 *329:58 *330:13 0
30 *329:58 *392:45 0.000141632
31 *329:64 *332:19 0.000616383
32 *329:70 gpio_holdover[28] 0.00452707
33 *329:70 *725:19 0
34 gpio_analog_sel[28] gpio_dm2[28] 0
35 *109:25 *329:52 0.00414193
36 *116:27 *329:52 0.000524484
37 *116:53 *329:58 0.00198493
38 *117:33 *329:56 0.000282144
39 *117:35 *329:58 0
40 *140:71 *329:58 0
41 *147:11 *329:52 5.19633e-06
42 *148:11 *329:52 4.1436e-07
43 *152:9 *329:52 0.000206859
44 *153:25 *329:52 0.000262458
45 *157:37 *329:56 0.000555883
46 *157:37 *329:58 0
47 *158:22 *329:56 0.00114464
48 *158:22 *329:58 0.000108757
49 *230:25 *329:64 0.00061131
50 *242:25 *329:58 0.00181498
51 *273:15 *329:64 0
52 *275:15 *329:64 0.00683717
53 *277:23 *329:64 0.000364174
54 *281:19 *329:58 0.000411917
55 *288:27 *329:10 0.00173788
56 *288:27 *329:52 0.000419536
57 *328:11 *329:10 0.00119156
58 *328:51 *329:52 0.00022602
59 *328:51 *329:56 0.000239991
60 *328:53 *329:58 0.00979735
*RES
1 *921:gpio_dm2[28] *329:8 3.23347 
2 *329:8 *329:10 79.5973 
3 *329:10 *329:52 26.1035 
4 *329:52 *329:56 38.7375 
5 *329:56 *329:58 131.805 
6 *329:58 *329:64 11.1473 
7 *329:64 *329:66 164.897 
8 *329:66 *329:68 0.5 
9 *329:68 *329:70 372.275 
10 *329:70 gpio_dm2[28] 5.22723 
*END

*D_NET *330 0.539137
*CONN
*P gpio_dm2[29] O
*I *921:gpio_dm2[29] O *D CF_CARAVEL_SOC
*CAP
1 gpio_dm2[29] 9.54235e-05
2 *921:gpio_dm2[29] 0.000189776
3 *330:33 0.0255285
4 *330:31 0.0254331
5 *330:29 0.0457015
6 *330:27 0.0457015
7 *330:25 0.101436
8 *330:23 0.101808
9 *330:13 0.0211752
10 *330:11 0.0209925
11 *330:11 *332:11 0
12 *330:13 *332:13 0.0308543
13 *330:13 *334:34 0.000560004
14 *330:13 *341:12 0.000645488
15 *330:13 *392:45 0
16 *330:13 *787:51 0.00542098
17 *330:13 *831:43 0.00537157
18 *330:23 *333:19 0.00193946
19 *330:23 *334:36 1.91769e-05
20 *330:33 gpio_holdover[29] 0.000302312
21 gpio_analog_sel[29] *330:33 0.000305868
22 *117:33 *330:13 0.00211262
23 *145:15 *330:25 0
24 *148:13 *330:23 0
25 *150:19 *330:13 0
26 *150:25 *330:25 4.43977e-05
27 *153:27 *330:13 0.00188695
28 *153:27 *330:23 0.0019346
29 *157:37 *330:13 0.000181633
30 *158:22 *330:13 0.000564263
31 *163:19 *330:13 0.00931243
32 *186:15 *330:25 0
33 *198:31 *330:33 0.068994
34 *281:19 *330:13 0
35 *288:27 *330:13 0.0127511
36 *328:11 *330:13 0
37 *328:51 *330:13 0.00178589
38 *328:53 *330:13 0
39 *329:8 *330:13 0.000206186
40 *329:10 *330:13 0.00565597
41 *329:52 *330:13 0.00022602
42 *329:56 *330:13 0
43 *329:58 *330:13 0
*RES
1 *921:gpio_dm2[29] *330:11 1.85533 
2 *330:11 *330:13 732.465 
3 *330:13 *330:23 5.05047 
4 *330:23 *330:25 280.65 
5 *330:25 *330:27 0.5 
6 *330:27 *330:29 132.597 
7 *330:29 *330:31 0.5 
8 *330:31 *330:33 104.375 
9 *330:33 gpio_dm2[29] 0.274233 
*END

*D_NET *331 0.0353592
*CONN
*P gpio_dm2[2] O
*I *921:gpio_dm2[2] O *D CF_CARAVEL_SOC
*CAP
1 gpio_dm2[2] 0.0097367
2 *921:gpio_dm2[2] 0.0097367
3 gpio_dm2[2] gpio_holdover[2] 0
4 gpio_dm2[2] gpio_out[2] 0
5 gpio_dm2[2] *342:11 0
6 gpio_analog_sel[2] gpio_dm2[2] 0.00119452
7 *144:11 gpio_dm2[2] 3.77439e-05
8 *144:17 gpio_dm2[2] 0.000299627
9 *207:19 gpio_dm2[2] 0.00102312
10 *223:11 gpio_dm2[2] 0.00376868
11 *247:11 gpio_dm2[2] 0.000222998
12 *254:11 gpio_dm2[2] 0.00864679
13 *270:17 gpio_dm2[2] 0.000692286
14 *308:11 gpio_dm2[2] 0
15 *326:9 gpio_dm2[2] 0
*RES
1 *921:gpio_dm2[2] gpio_dm2[2] 32.3304 
*END

*D_NET *332 0.541775
*CONN
*P gpio_dm2[30] O
*I *921:gpio_dm2[30] O *D CF_CARAVEL_SOC
*CAP
1 gpio_dm2[30] 1.60876e-05
2 *921:gpio_dm2[30] 0.000257436
3 *332:25 0.140189
4 *332:23 0.140173
5 *332:21 0.0127326
6 *332:19 0.0134774
7 *332:13 0.012377
8 *332:11 0.0118896
9 *332:11 *333:9 0
10 *332:13 *333:11 0.0616447
11 *332:13 *334:6 0.0110195
12 *332:13 *334:34 0.000677263
13 *332:13 *341:12 0.000331741
14 *332:25 gpio_holdover[30] 0
15 gpio_analog_sel[30] *332:25 3.48545e-05
16 *152:19 *332:13 0.00114195
17 *152:25 *332:19 0.000262737
18 *153:27 *332:13 0.0017857
19 *163:19 *332:13 0.00932016
20 *273:15 *332:19 0.00120087
21 *275:15 *332:19 6.01179e-05
22 *283:27 *332:21 0.0260931
23 *328:11 *332:13 0.000241849
24 *328:51 *332:13 0.00262829
25 *328:61 *332:21 0.0624362
26 *329:52 *332:13 0.000314007
27 *329:64 *332:19 0.000616383
28 *330:11 *332:11 0
29 *330:13 *332:13 0.0308543
*RES
1 *921:gpio_dm2[30] *332:11 1.3376 
2 *332:11 *332:13 714.615 
3 *332:13 *332:19 4.56313 
4 *332:19 *332:21 111.064 
5 *332:21 *332:23 0.5 
6 *332:23 *332:25 381.607 
7 *332:25 gpio_dm2[30] 0.0462333 
*END

*D_NET *333 0.537564
*CONN
*P gpio_dm2[31] O
*I *921:gpio_dm2[31] O *D CF_CARAVEL_SOC
*CAP
1 gpio_dm2[31] 0.00420674
2 *921:gpio_dm2[31] 0.000284613
3 *333:27 0.14144
4 *333:25 0.137816
5 *333:19 0.0101528
6 *333:17 0.00970592
7 *333:11 0.00947849
8 *333:9 0.00962786
9 gpio_dm2[31] gpio_holdover[31] 0.000986646
10 gpio_dm2[31] *769:11 0.000405468
11 *333:9 *341:12 0.000229581
12 *333:11 *334:6 0.00985946
13 *333:11 *334:34 0.000428875
14 *333:11 *341:12 0.000371662
15 *333:11 *788:49 0.00103434
16 *333:17 *694:6 0.000109076
17 *333:27 gpio_ib_mode_sel[31] 0.000519818
18 *333:27 *729:21 0
19 *116:27 *333:11 0.00101732
20 *116:41 *333:11 3.44143e-05
21 *117:33 *333:11 0.000711768
22 *152:19 *333:11 0.0087626
23 *152:27 *333:19 0.0459925
24 *153:27 *333:11 0.00199676
25 *153:27 *333:19 0.0271849
26 *157:37 *333:19 1.66367e-05
27 *158:22 *333:19 0.00104578
28 *161:15 *333:17 0.000112057
29 *163:17 *333:11 0.00204395
30 *201:15 gpio_dm2[31] 0
31 *241:25 *333:25 2.38374e-05
32 *242:27 *333:19 0
33 *245:15 *333:27 0
34 *321:41 *333:11 0.00203853
35 *328:11 *333:11 0.0448597
36 *328:51 *333:11 0.000795418
37 *329:52 *333:11 0.000685864
38 *330:23 *333:19 0.00193946
39 *332:11 *333:9 0
40 *332:13 *333:11 0.0616447
*RES
1 *921:gpio_dm2[31] *333:9 0.973733 
2 *333:9 *333:11 683.505 
3 *333:11 *333:17 1.35847 
4 *333:17 *333:19 86.0852 
5 *333:19 *333:25 1.82747 
6 *333:25 *333:27 376.907 
7 *333:27 gpio_dm2[31] 9.9319 
*END

*D_NET *334 0.746514
*CONN
*P gpio_dm2[32] O
*I *921:gpio_dm2[32] O *D CF_CARAVEL_SOC
*CAP
1 gpio_dm2[32] 6.31711e-05
2 *921:gpio_dm2[32] 0
3 *334:44 0.013744
4 *334:42 0.0138823
5 *334:36 0.0365253
6 *334:34 0.0428522
7 *334:6 0.0215283
8 *334:4 0.015
9 *334:6 gpio_slow_sel[4] 0.000293646
10 *334:6 *336:9 0.000229581
11 *334:6 *340:9 0.000229581
12 *334:6 *340:11 0.000510649
13 *334:6 *341:12 0.00222019
14 *334:6 *343:9 0.000229581
15 *334:6 *346:9 0.000229581
16 *334:34 *788:49 0.000388957
17 *334:34 *831:61 0.000510475
18 *334:36 *361:33 0.0335193
19 *334:36 *394:15 3.48975e-05
20 *334:36 *438:23 0.226137
21 *334:36 *440:31 0.0293174
22 *334:36 *757:15 0.0173552
23 *334:36 *759:15 0.0730695
24 *334:44 gpio_holdover[32] 0
25 *334:44 *361:17 0.00187376
26 *334:44 *361:33 0.00160455
27 *334:44 *873:61 0.032229
28 gpio_analog_sel[32] *334:44 0.000427963
29 *91:9 *334:6 0.000229581
30 *92:9 *334:6 0.000229581
31 *95:9 *334:6 0.000229581
32 *96:9 *334:6 0.000229581
33 *97:9 *334:6 0.000229581
34 *102:9 *334:6 0.000229581
35 *106:9 *334:6 0.000229581
36 *107:9 *334:6 0.000229581
37 *109:21 *334:6 0.00057541
38 *109:25 *334:6 0.000137759
39 *109:25 *334:34 0.0112141
40 *114:29 *334:42 7.86462e-05
41 *116:9 *334:6 0.000229581
42 *116:27 *334:6 0.000483387
43 *116:27 *334:34 0.00062323
44 *116:41 *334:34 0.000552385
45 *117:33 *334:34 0.000175493
46 *119:9 *334:6 0.000229581
47 *125:9 *334:6 0.000229581
48 *126:9 *334:6 0.000229581
49 *142:9 *334:6 0.000229581
50 *143:9 *334:6 0.000229581
51 *145:9 *334:34 0.000115792
52 *145:11 *334:34 0.000536869
53 *146:15 *334:34 0.000205464
54 *148:11 *334:34 0.00127398
55 *151:7 *334:34 4.88577e-05
56 *152:19 *334:34 0.00178415
57 *153:27 *334:34 0.012546
58 *157:17 *334:34 0.000206859
59 *157:37 *334:34 5.41028e-05
60 *158:22 *334:34 0
61 *158:30 *334:42 0
62 *163:17 *334:34 0.000658456
63 *187:9 *334:6 0.000229581
64 *189:9 *334:6 0.000229581
65 *192:9 *334:6 0.000229581
66 *193:31 *334:34 4.3249e-05
67 *194:13 *334:6 0.000581364
68 *194:33 *334:6 0.00663869
69 *197:9 *334:6 0.000229581
70 *200:9 *334:6 0.000229581
71 *202:27 *334:36 0.0665502
72 *202:27 *334:44 0.000116749
73 *204:17 *334:34 0.000177213
74 *208:9 *334:6 0.015234
75 *274:27 *334:6 0.00113671
76 *321:41 *334:34 0.00278792
77 *327:19 *334:6 0.00126856
78 *327:29 *334:6 0.000120926
79 *328:11 *334:6 0.0040047
80 *328:51 *334:34 0.00434857
81 *329:10 *334:6 0.0176619
82 *329:52 *334:6 0.00120982
83 *329:52 *334:34 0.00242976
84 *330:13 *334:34 0.000560004
85 *330:23 *334:36 1.91769e-05
86 *332:13 *334:6 0.0110195
87 *332:13 *334:34 0.000677263
88 *333:11 *334:6 0.00985946
89 *333:11 *334:34 0.000428875
*RES
1 *921:gpio_dm2[32] *334:4 0.5 
2 *334:4 *334:6 82.878 
3 *334:6 *334:34 43.0891 
4 *334:34 *334:36 334.489 
5 *334:36 *334:42 1.46867 
6 *334:42 *334:44 50.7693 
7 *334:44 gpio_dm2[32] 0.1425 
*END

*D_NET *335 0.858091
*CONN
*P gpio_dm2[33] O
*I *921:gpio_dm2[33] O *D CF_CARAVEL_SOC
*CAP
1 gpio_dm2[33] 0.00143076
2 *921:gpio_dm2[33] 0.00207867
3 *335:57 0.0312593
4 *335:55 0.0385006
5 *335:43 0.0113569
6 *335:33 0.00716975
7 *335:31 0.00484213
8 *335:25 0.0333879
9 *335:23 0.0334098
10 *335:17 0.00737542
11 *335:15 0.00699634
12 *335:13 0.0118918
13 *335:11 0.0139705
14 gpio_dm2[33] gpio_holdover[33] 0.000212679
15 *335:11 *336:9 0.00106998
16 *335:13 *336:11 0.00035251
17 *335:13 *338:11 0.0263281
18 *335:13 *338:17 0.00290808
19 *335:13 *443:11 9.50342e-06
20 *335:13 *443:19 0.00987018
21 *335:13 *570:26 0.0319636
22 *335:13 *572:26 0.000134296
23 *335:17 *856:11 0.0482349
24 *335:17 *861:11 0
25 *335:17 *864:11 0.0101655
26 *335:25 *453:49 0.00163737
27 *335:25 *454:53 0.000856999
28 *335:25 *475:17 0.00136747
29 *335:25 *541:19 0.00213593
30 *335:25 *541:59 0.000491177
31 *335:25 *546:13 0.0116151
32 *335:25 *560:19 0.000457069
33 *335:25 *561:18 0.00254117
34 *335:25 *563:14 0.0165005
35 *335:25 *825:23 0.01045
36 *335:25 *844:13 0.140003
37 *335:33 *387:23 0.0354962
38 *335:33 *736:43 0.00867529
39 *335:43 *921:gpio_in[5] 0.000318506
40 *335:43 *338:77 0
41 *335:43 *541:105 0.000551435
42 *335:43 *850:21 5.96859e-05
43 *335:55 *338:81 0.000405377
44 *335:55 *419:21 0.000200818
45 *335:55 *541:105 0.0137371
46 *335:55 *737:103 0.00591601
47 *335:55 *826:29 0.000455692
48 *335:57 *410:11 0.0364402
49 *335:57 *873:57 0.00229469
50 gpio_analog_sel[33] gpio_dm2[33] 0
51 gpio_dm1[38] *335:31 0.000537298
52 *118:209 *335:55 0.0141575
53 *207:23 *335:17 0.0502539
54 *251:15 *335:33 0.0354985
55 *284:51 *335:57 0
56 *300:19 *335:25 0.0252744
57 *322:27 *335:13 0.00574603
58 *325:29 *335:23 0
59 *325:159 *335:57 0.0990967
*RES
1 *921:gpio_dm2[33] *335:11 5.7988 
2 *335:11 *335:13 618.607 
3 *335:13 *335:15 2 
4 *335:15 *335:17 462.75 
5 *335:17 *335:23 8.95 
6 *335:23 *335:25 1288.33 
7 *335:25 *335:31 10.735 
8 *335:31 *335:33 326.475 
9 *335:33 *335:43 43.5775 
10 *335:43 *335:55 42.0173 
11 *335:55 *335:57 1145.06 
12 *335:57 gpio_dm2[33] 2.99533 
*END

*D_NET *336 0.913701
*CONN
*P gpio_dm2[34] O
*I *921:gpio_dm2[34] O *D CF_CARAVEL_SOC
*CAP
1 gpio_dm2[34] 0.00308851
2 *921:gpio_dm2[34] 0.00228348
3 *336:82 1.42862e-06
4 *336:67 0.0183691
5 *336:65 0.0212347
6 *336:55 0.00740444
7 *336:53 0.00159267
8 *336:47 0.0228728
9 *336:45 0.0250767
10 *336:41 0.0046057
11 *336:31 0.00468687
12 *336:29 0.00289359
13 *336:25 0.00446256
14 *336:15 0.0105776
15 *336:13 0.00658263
16 *336:11 0.00938187
17 *336:9 0.0116654
18 gpio_dm2[34] gpio_holdover[34] 0.00128478
19 gpio_dm2[34] gpio_out[34] 0.00141071
20 gpio_dm2[34] *381:15 0.000315449
21 gpio_dm2[34] *548:23 0.000314334
22 *336:11 *338:11 0.0513509
23 *336:11 *338:17 0.00162874
24 *336:11 *350:11 0.00116888
25 *336:11 *443:19 0.00458806
26 *336:11 *443:29 4.09447e-05
27 *336:11 *452:11 0
28 *336:11 *474:11 0
29 *336:11 *571:31 0
30 *336:15 *481:15 0.050295
31 *336:15 *838:11 0.0113379
32 *336:25 *547:11 0.00153373
33 *336:29 *386:189 0.000198769
34 *336:31 *533:56 0.000266169
35 *336:31 *569:18 0.00500807
36 *336:31 *741:160 0.00126141
37 *336:41 *338:33 0.000172456
38 *336:41 *397:109 0.000610792
39 *336:41 *408:53 7.78168e-05
40 *336:41 *535:33 0
41 *336:41 *540:24 0.000476148
42 *336:41 *562:65 7.20493e-06
43 *336:41 *562:73 0.000196391
44 *336:41 *826:77 1.20045e-05
45 *336:47 *353:31 0.0832134
46 *336:47 *542:11 0.147921
47 *336:47 *760:31 0.00649415
48 *336:47 *868:11 0.0314516
49 *336:55 *749:27 0.00239755
50 *336:65 *455:25 0.00357703
51 *336:65 *462:23 0.00327868
52 *336:65 *464:21 0.00354779
53 *336:65 *464:23 0.00327868
54 *336:65 *465:21 1.18044e-05
55 *336:65 *827:19 0.000204219
56 *336:65 *837:11 0.000650914
57 *336:65 *838:11 0.015251
58 *336:67 gpio_ib_mode_sel[36] 0.00405247
59 *336:67 *390:11 0.0225847
60 *336:67 *417:11 0.0509249
61 *336:67 *437:11 0.00207675
62 *336:67 *455:21 0.000255419
63 *336:67 *545:15 0.0899687
64 *336:67 *547:23 0.000103643
65 *336:67 *817:11 0.00654541
66 *336:82 gpio_holdover[34] 2.60489e-05
67 gpio_analog_sel[34] gpio_dm2[34] 0
68 *118:69 *336:25 0
69 *118:73 *336:29 0.000581916
70 *118:93 *336:41 0.00591605
71 *119:15 *336:15 0.0502973
72 *119:23 *336:55 0.00158158
73 *119:23 *336:65 0.0111179
74 *125:11 *336:11 0.0534245
75 *207:39 *336:55 0.0075858
76 *289:23 *336:65 0.00358467
77 *289:33 *336:65 0.000507824
78 *322:113 *336:25 0
79 *322:129 *336:45 0
80 *325:29 *336:25 0.000488907
81 *325:37 *336:25 0.00677065
82 *325:37 *336:29 0.000232396
83 *325:57 *336:31 0.00180771
84 *334:6 *336:9 0.000229581
85 *335:11 *336:9 0.00106998
86 *335:13 *336:11 0.00035251
*RES
1 *921:gpio_dm2[34] *336:9 5.5768 
2 *336:9 *336:11 614.782 
3 *336:11 *336:13 2 
4 *336:13 *336:15 463.095 
5 *336:15 *336:25 47.5789 
6 *336:25 *336:29 13.9625 
7 *336:29 *336:31 75.315 
8 *336:31 *336:41 17.6788 
9 *336:41 *336:45 34.6175 
10 *336:45 *336:47 1361.13 
11 *336:47 *336:53 5.89 
12 *336:53 *336:55 69.795 
13 *336:55 *336:65 36.6141 
14 *336:65 *336:67 1007.35 
15 *336:67 gpio_dm2[34] 11.9035 
16 gpio_dm2[34] *336:82 0.0465306 
*END

*D_NET *337 0.83999
*CONN
*P gpio_dm2[35] O
*I *921:gpio_dm2[35] O *D CF_CARAVEL_SOC
*CAP
1 gpio_dm2[35] 0.000803431
2 *921:gpio_dm2[35] 0.00464557
3 *337:43 0.00845016
4 *337:41 0.00764673
5 *337:39 0.04596
6 *337:37 0.0467952
7 *337:33 0.0024694
8 *337:27 0.00374369
9 *337:25 0.00665015
10 *337:19 0.00779083
11 *337:17 0.00616274
12 *337:11 0.016823
13 *337:9 0.018556
14 gpio_dm2[35] gpio_holdover[35] 0
15 *337:9 *338:9 0.000779145
16 *337:11 *531:28 0
17 *337:17 *375:57 0
18 *337:19 *350:11 0.00133503
19 *337:19 *699:10 0
20 *337:19 *700:10 0.0014907
21 *337:33 gpio_inp_dis[6] 1.19971e-05
22 *337:33 *782:29 0.0024114
23 *337:33 *787:25 4.18687e-05
24 *337:39 *698:13 0.000715468
25 *337:39 *731:16 0.00208766
26 *337:39 *789:23 0.256632
27 *337:43 *782:11 0.0378084
28 *337:43 *810:11 0.0378095
29 gpio_analog_sel[35] gpio_dm2[35] 0.000468547
30 *114:11 *337:11 0.0197479
31 *114:21 *337:33 2.0877e-05
32 *132:11 *337:37 0.00404265
33 *159:15 *337:39 0.24986
34 *176:11 *337:37 0.00080299
35 *178:17 *337:11 0.00208579
36 *196:11 *337:27 0.00944066
37 *199:13 *337:11 0.00486777
38 *206:21 *337:19 0.00151429
39 *206:35 *337:27 0.00472719
40 *230:11 *337:27 0.00266956
41 *242:11 *337:11 0.00873104
42 *271:21 *337:39 0.000422499
43 *288:25 *337:17 0
44 *312:19 *337:37 0.00174909
45 *314:19 *337:19 0.0111737
46 *327:61 *337:33 4.57227e-05
*RES
1 *921:gpio_dm2[35] *337:9 10.5345 
2 *337:9 *337:11 387.195 
3 *337:11 *337:17 6.57333 
4 *337:17 *337:19 124.545 
5 *337:19 *337:25 9.2536 
6 *337:25 *337:27 109.245 
7 *337:27 *337:33 5.0584 
8 *337:33 *337:37 45.485 
9 *337:37 *337:39 392.464 
10 *337:39 *337:41 0.5 
11 *337:41 *337:43 437.175 
12 *337:43 gpio_dm2[35] 2.3259 
*END

*D_NET *338 0.818581
*CONN
*P gpio_dm2[36] O
*I *921:gpio_dm2[36] O *D CF_CARAVEL_SOC
*CAP
1 gpio_dm2[36] 0.0034448
2 *921:gpio_dm2[36] 0.00229766
3 *338:83 0.0184956
4 *338:81 0.0192777
5 *338:77 0.00543756
6 *338:71 0.0177172
7 *338:69 0.0363506
8 *338:35 0.0270142
9 *338:33 0.0104719
10 *338:19 0.0132328
11 *338:17 0.0106101
12 *338:11 0.0101642
13 *338:9 0.011783
14 gpio_dm2[36] gpio_holdover[36] 0.00523477
15 *338:9 *339:9 0
16 *338:11 *350:11 0.000110459
17 *338:11 *443:11 0.000395092
18 *338:11 *443:19 0.00810304
19 *338:17 *443:19 0.000416344
20 *338:17 *443:29 3.98126e-05
21 *338:19 *484:15 0.0280598
22 *338:19 *548:11 0.017284
23 *338:33 *386:173 0
24 *338:33 *533:52 9.04344e-05
25 *338:33 *540:24 0.00045863
26 *338:33 *541:13 0
27 *338:33 *562:73 0.00019569
28 *338:33 *696:117 0.000771062
29 *338:33 *839:53 0
30 *338:35 *444:55 0.0104129
31 *338:35 *531:14 0.000369096
32 *338:35 *532:14 0.00162847
33 *338:35 *532:16 0.000996338
34 *338:35 *533:36 0.000104141
35 *338:35 *537:12 0.000534788
36 *338:35 *569:18 0.0239918
37 *338:35 *826:47 0.00644453
38 *338:69 gpio_out[39] 0.00024223
39 *338:69 *921:gpio_in[41] 0.000158569
40 *338:69 *386:103 0.000941168
41 *338:69 *419:45 0.000858756
42 *338:69 *444:69 0.00111561
43 *338:69 *472:55 0.0030775
44 *338:69 *529:9 0.00451462
45 *338:69 *539:69 0.00103343
46 *338:69 *540:24 0.00280793
47 *338:69 *541:27 0.00266222
48 *338:69 *541:37 0.000666462
49 *338:69 *551:25 0.00152911
50 *338:69 *567:12 0.00152386
51 *338:69 *840:19 0.000657841
52 *338:71 *340:39 0.0239583
53 *338:71 *429:19 0.0013618
54 *338:71 *474:15 0.00931252
55 *338:71 *545:11 0.0121692
56 *338:71 *554:13 0.0111557
57 *338:71 *559:19 0.0178467
58 *338:71 *780:13 0.00271819
59 *338:71 *847:16 0.0835059
60 *338:71 *852:19 0.0306858
61 *338:77 *921:gpio_in[5] 0.000350847
62 *338:77 *693:109 0
63 *338:81 *539:151 5.787e-05
64 *338:81 *541:105 0.00792955
65 *338:81 *737:103 0.000360894
66 *338:81 *815:25 0.0189694
67 *338:81 *826:29 0.00176727
68 *338:83 *387:11 0.0324933
69 *338:83 *440:19 0.0187983
70 gpio_analog_sel[36] gpio_dm2[36] 0
71 *118:93 *338:33 0.00502205
72 *118:99 *338:35 0.000364606
73 *118:145 *338:69 0
74 *118:159 *338:69 0.000858756
75 *118:201 *338:77 0
76 *118:209 *338:81 0.00549554
77 *118:211 *338:83 2.805e-05
78 *121:15 *338:19 0.0147227
79 *125:11 *338:11 0.000447379
80 *165:15 *338:19 0.0651001
81 *253:15 *338:71 0.000944322
82 *294:15 *338:71 0.0194707
83 *294:25 *338:77 0
84 *322:27 *338:11 0.00574603
85 *322:129 *338:35 0.000119028
86 *322:181 *338:69 0.000947705
87 *322:277 *338:83 0.0217825
88 *325:57 *338:33 0
89 *325:63 *338:35 0.00612335
90 *325:85 *338:69 0.000666462
91 *335:13 *338:11 0.0263281
92 *335:13 *338:17 0.00290808
93 *335:43 *338:77 0
94 *335:55 *338:81 0.000405377
95 *336:11 *338:11 0.0513509
96 *336:11 *338:17 0.00162874
97 *336:41 *338:33 0.000172456
98 *337:9 *338:9 0.000779145
*RES
1 *921:gpio_dm2[36] *338:9 5.54893 
2 *338:9 *338:11 579.84 
3 *338:11 *338:17 35.4575 
4 *338:17 *338:19 599.715 
5 *338:19 *338:33 38.6579 
6 *338:33 *338:35 354.42 
7 *338:35 *338:69 43.8517 
8 *338:69 *338:71 126.768 
9 *338:71 *338:77 20.485 
10 *338:77 *338:81 30.9532 
11 *338:81 *338:83 660.555 
12 *338:83 gpio_dm2[36] 9.08863 
*END

*D_NET *339 0.853076
*CONN
*P gpio_dm2[37] O
*I *921:gpio_dm2[37] O *D CF_CARAVEL_SOC
*CAP
1 gpio_dm2[37] 0.00289951
2 *921:gpio_dm2[37] 0.00188198
3 *339:42 1.42862e-06
4 *339:27 0.0118921
5 *339:25 0.00899397
6 *339:23 0.0367311
7 *339:21 0.0370912
8 *339:15 0.0106712
9 *339:13 0.0103111
10 *339:11 0.0137999
11 *339:9 0.0156819
12 gpio_dm2[37] gpio_holdover[37] 0.0013014
13 gpio_dm2[37] gpio_out[37] 0.00342604
14 gpio_dm2[37] *447:17 0
15 gpio_dm2[37] *548:23 0.000358524
16 *339:9 *340:9 5.3396e-06
17 *339:11 *441:11 0.0164053
18 *339:11 *551:125 0.00835712
19 *339:15 *771:27 2.64416e-05
20 *339:15 *842:11 0.0752262
21 *339:23 *343:15 0.0242434
22 *339:23 *386:45 0.00146338
23 *339:23 *389:23 0.0354061
24 *339:23 *390:23 0.00507634
25 *339:23 *429:19 0.000214474
26 *339:23 *461:21 0.00239899
27 *339:23 *472:11 0.0121705
28 *339:23 *559:29 0.000359989
29 *339:23 *693:163 0.000679035
30 *339:23 *760:23 0.0221605
31 *339:23 *827:19 0.00687761
32 *339:23 *845:19 0.167769
33 *339:23 *852:11 0.00467973
34 *339:42 gpio_holdover[37] 2.60489e-05
35 gpio_analog_en[42] *339:21 0.000574465
36 gpio_analog_sel[37] gpio_dm2[37] 0.00067838
37 *119:27 *339:27 0.0447086
38 *164:43 *339:23 0.0450049
39 *165:15 *339:15 0.0774418
40 *207:51 *339:27 0.0447075
41 *245:11 *339:11 0.000929985
42 *255:15 *339:23 0.000674298
43 *256:11 *339:11 0
44 *257:11 *339:11 0
45 *257:15 *339:15 0.0177818
46 *274:11 *339:11 0
47 *279:11 *339:11 0.0020694
48 *292:11 *339:11 0
49 *293:11 *339:11 0.0378838
50 *294:25 *339:23 0.0202259
51 *296:15 *339:15 0.00113444
52 *316:11 *339:11 0.00265148
53 *322:19 *339:11 0.0180229
54 *338:9 *339:9 0
*RES
1 *921:gpio_dm2[37] *339:9 4.03653 
2 *339:9 *339:11 618.352 
3 *339:11 *339:13 2 
4 *339:13 *339:15 713.22 
5 *339:15 *339:21 9.6175 
6 *339:21 *339:23 260.665 
7 *339:23 *339:25 0.5 
8 *339:25 *339:27 516.735 
9 *339:27 gpio_dm2[37] 13.3458 
10 gpio_dm2[37] *339:42 0.04 
*END

*D_NET *340 0.563063
*CONN
*P gpio_dm2[38] O
*I *921:gpio_dm2[38] O *D CF_CARAVEL_SOC
*CAP
1 gpio_dm2[38] 0.00182282
2 *921:gpio_dm2[38] 0.000280894
3 *340:39 0.03645
4 *340:37 0.0346272
5 *340:35 0.00933788
6 *340:33 0.0139005
7 *340:11 0.0168088
8 *340:9 0.012527
9 *340:11 *341:12 0.00388708
10 *340:11 *341:14 0.00215243
11 *340:33 *341:14 0.00634161
12 *340:35 *840:9 0.000351064
13 *340:39 *429:19 0.0466161
14 *340:39 *461:23 0.00581566
15 *340:39 *845:19 0.0237283
16 gpio_analog_sel[38] gpio_dm2[38] 0
17 *164:35 *340:39 0.00920374
18 *168:15 *340:39 0.0991408
19 *208:9 *340:33 0.00456272
20 *211:9 *340:11 0
21 *211:9 *340:33 0
22 *226:9 *340:33 4.2145e-05
23 *227:9 *340:33 0.000229581
24 *233:9 *340:33 0.000229581
25 *234:9 *340:33 0.000229581
26 *237:9 *340:33 0.000229581
27 *238:15 *340:39 0.0203467
28 *239:9 *340:33 0.000229581
29 *244:9 *340:33 0.000229581
30 *245:9 *340:33 0.000229581
31 *250:9 *340:33 0.000229581
32 *251:9 *340:33 0.000229581
33 *252:9 *340:33 0.000229581
34 *253:15 *340:39 0.14529
35 *256:9 *340:33 0.000229581
36 *257:9 *340:33 0.000229581
37 *258:9 *340:33 5.56633e-06
38 *258:11 *340:11 5.33602e-05
39 *258:11 *340:33 0.000230857
40 *258:15 *340:33 0.00181675
41 *297:10 *340:35 0.0066722
42 *299:11 *340:11 0.01509
43 *299:11 *340:33 0.000951139
44 *300:11 *340:11 0.000212125
45 *300:11 *340:33 0.00236099
46 *301:13 *340:11 0.00012289
47 *301:13 *340:33 0.00264004
48 *302:13 *340:35 0
49 *322:11 *340:11 0.00857201
50 *328:11 *340:11 0.00364233
51 *334:6 *340:9 0.000229581
52 *334:6 *340:11 0.000510649
53 *338:71 *340:39 0.0239583
54 *339:9 *340:9 5.3396e-06
*RES
1 *921:gpio_dm2[38] *340:9 0.973733 
2 *340:9 *340:11 338.745 
3 *340:11 *340:33 37.5023 
4 *340:33 *340:35 165.727 
5 *340:35 *340:37 0.5 
6 *340:37 *340:39 286.419 
7 *340:39 gpio_dm2[38] 24.8075 
*END

*D_NET *341 0.518478
*CONN
*P gpio_dm2[39] O
*I *921:gpio_dm2[39] O *D CF_CARAVEL_SOC
*CAP
1 gpio_dm2[39] 0.00246627
2 *921:gpio_dm2[39] 0.00867108
3 *341:18 0.0271865
4 *341:16 0.0247202
5 *341:14 0.0135544
6 *341:12 0.0222255
7 gpio_dm2[39] gpio_holdover[39] 0.000302422
8 *341:18 *344:15 0.000723596
9 *341:18 *408:23 0.00931225
10 *341:18 *471:27 0.00394844
11 *341:18 *534:11 0.0141369
12 *341:18 *557:19 0.0208889
13 *341:18 *866:17 0.142185
14 gpio_analog_sel[39] gpio_dm2[39] 0
15 *123:15 *341:18 0.122672
16 *208:9 *341:12 0.002232
17 *208:9 *341:14 0
18 *258:15 *341:14 0.00219466
19 *297:8 *341:12 0.00083146
20 *297:10 *341:12 0.000408971
21 *297:10 *341:14 0.0405747
22 *299:9 *341:12 0.000229581
23 *299:11 *341:12 0.000375259
24 *299:11 *341:14 0.00531879
25 *300:9 *341:12 0.000229581
26 *300:11 *341:12 0.00041041
27 *300:11 *341:14 0.00604467
28 *301:13 *341:12 0.000444569
29 *301:13 *341:14 0.00650013
30 *302:13 *341:12 0.00104111
31 *302:13 *341:14 0.0142234
32 *322:9 *341:12 0.000229581
33 *322:11 *341:12 0.00378215
34 *328:9 *341:12 0.000229581
35 *328:11 *341:12 0.000263841
36 *329:8 *341:12 0.00146949
37 *329:10 *341:12 0.00227114
38 *330:13 *341:12 0.000645488
39 *332:13 *341:12 0.000331741
40 *333:9 *341:12 0.000229581
41 *333:11 *341:12 0.000371662
42 *334:6 *341:12 0.00222019
43 *340:11 *341:12 0.00388708
44 *340:11 *341:14 0.00215243
45 *340:33 *341:14 0.00634161
*RES
1 *921:gpio_dm2[39] *341:12 33.8665 
2 *341:12 *341:14 72.0961 
3 *341:14 *341:16 0.5 
4 *341:16 *341:18 217.868 
5 *341:18 gpio_dm2[39] 35.3675 
*END

*D_NET *342 0.0752078
*CONN
*P gpio_dm2[3] O
*I *921:gpio_dm2[3] O *D CF_CARAVEL_SOC
*CAP
1 gpio_dm2[3] 0.00483145
2 *921:gpio_dm2[3] 0.0108716
3 *342:11 0.015703
4 gpio_dm2[3] gpio_holdover[3] 0.000372474
5 *342:11 *347:9 0
6 *342:11 *530:113 0.000351142
7 *342:11 *567:18 0.00361357
8 gpio_analog_en[2] *342:11 0.0066573
9 gpio_analog_sel[3] gpio_dm2[3] 0.00123721
10 gpio_dm2[2] *342:11 0
11 *93:11 *342:11 0.000218944
12 *103:9 gpio_dm2[3] 0
13 *130:11 *342:11 0.00536194
14 *144:11 *342:11 0.000205283
15 *144:19 *342:11 0.00102312
16 *155:11 *342:11 0
17 *223:19 *342:11 0.000110459
18 *243:11 *342:11 0
19 *246:11 *342:11 0.0014994
20 *254:11 *342:11 0.0225249
21 *270:19 *342:11 0.000625965
*RES
1 *921:gpio_dm2[3] *342:11 49.9469 
2 *342:11 gpio_dm2[3] 10.33 
*END

*D_NET *343 0.443139
*CONN
*P gpio_dm2[40] O
*I *921:gpio_dm2[40] O *D CF_CARAVEL_SOC
*CAP
1 gpio_dm2[40] 0.00149504
2 *921:gpio_dm2[40] 0.000626506
3 *343:15 0.03014
4 *343:13 0.0286449
5 *343:11 0.00965153
6 *343:9 0.010278
7 gpio_dm2[40] gpio_holdover[40] 8.62579e-05
8 gpio_dm2[40] gpio_out[40] 0
9 *343:9 *344:9 0
10 *343:11 *344:11 0.0559343
11 *343:11 *345:11 0.000329838
12 *343:11 *847:6 3.11927e-05
13 *343:15 *390:23 0.015717
14 *343:15 *845:11 0.0105588
15 *343:15 *845:19 0.00856863
16 *343:15 *847:8 0.0159122
17 *343:15 *852:11 0.0251983
18 gpio_analog_sel[40] gpio_dm2[40] 0
19 *119:21 gpio_dm2[40] 0.000142477
20 *126:15 *343:15 0.0208294
21 *164:21 *343:9 2.15755e-05
22 *167:15 *343:11 0.0569426
23 *168:15 *343:15 8.91836e-05
24 *209:11 *343:11 0.00611266
25 *255:15 *343:15 0.121356
26 *334:6 *343:9 0.000229581
27 *339:23 *343:15 0.0242434
*RES
1 *921:gpio_dm2[40] *343:9 1.67293 
2 *343:9 *343:11 637.095 
3 *343:11 *343:13 0.5 
4 *343:13 *343:15 184.277 
5 *343:15 gpio_dm2[40] 21.8825 
*END

*D_NET *344 0.369519
*CONN
*P gpio_dm2[41] O
*I *921:gpio_dm2[41] O *D CF_CARAVEL_SOC
*CAP
1 gpio_dm2[41] 0.00223752
2 *921:gpio_dm2[41] 0.000496155
3 *344:15 0.020853
4 *344:13 0.0186155
5 *344:11 0.0109827
6 *344:9 0.0114789
7 gpio_dm2[41] gpio_holdover[41] 0.000930302
8 *344:9 *345:9 0
9 *344:11 *345:11 0.0323252
10 *344:15 *346:15 2.88835e-05
11 *344:15 *430:23 0.00706318
12 *344:15 *793:27 0.0205575
13 *344:15 *815:49 0.018939
14 *344:15 *839:53 0.0116046
15 *344:15 *839:69 0.00398181
16 *344:15 *839:101 0.000983381
17 *344:15 *866:17 0.0963913
18 gpio_analog_sel[41] gpio_dm2[41] 0
19 *123:15 *344:15 0.000167932
20 *164:15 *344:11 0.000281849
21 *167:15 *344:11 0.000263998
22 *209:11 *344:11 0.00731315
23 *258:19 *344:15 0.0473654
24 *341:18 *344:15 0.000723596
25 *343:9 *344:9 0
26 *343:11 *344:11 0.0559343
*RES
1 *921:gpio_dm2[41] *344:9 1.4424 
2 *344:9 *344:11 629.955 
3 *344:11 *344:13 0.5 
4 *344:13 *344:15 149.492 
5 *344:15 gpio_dm2[41] 34.2425 
*END

*D_NET *345 0.287651
*CONN
*P gpio_dm2[42] O
*I *921:gpio_dm2[42] O *D CF_CARAVEL_SOC
*CAP
1 gpio_dm2[42] 0.00673849
2 *921:gpio_dm2[42] 0.000270711
3 *345:15 0.0143756
4 *345:13 0.00763714
5 *345:11 0.0118542
6 *345:9 0.012125
7 gpio_dm2[42] gpio_holdover[42] 0.000429359
8 gpio_dm2[42] gpio_ib_mode_sel[42] 0.000212024
9 gpio_dm2[42] *478:9 0.00711122
10 gpio_dm2[42] *561:18 0.000662832
11 gpio_dm2[42] *786:23 0.00414902
12 gpio_dm2[42] *829:43 0.000195558
13 gpio_dm2[42] *859:11 0.00416591
14 *345:9 *346:9 0.000102783
15 *345:11 *846:11 0.000856558
16 *345:11 *847:6 0.000993256
17 *345:15 *546:13 0.00270638
18 *345:15 *552:13 0.00153198
19 *345:15 *560:19 0.0283939
20 gpio_analog_pol[43] gpio_dm2[42] 0.000111532
21 gpio_analog_sel[42] gpio_dm2[42] 0
22 *121:11 *345:11 0.0571756
23 *164:15 *345:11 0.000739621
24 *209:11 *345:11 0.00587457
25 *252:15 gpio_dm2[42] 0.0111066
26 *284:15 *345:15 0.0145284
27 *300:29 gpio_dm2[42] 0.000980697
28 *301:17 *345:15 0.0116774
29 *302:21 *345:15 0.000487629
30 *325:23 *345:15 0.0478019
31 *343:11 *345:11 0.000329838
32 *344:9 *345:9 0
33 *344:11 *345:11 0.0323252
*RES
1 *921:gpio_dm2[42] *345:9 1.1536 
2 *345:9 *345:11 658.643 
3 *345:11 *345:13 2 
4 *345:13 *345:15 488.97 
5 *345:15 gpio_dm2[42] 45.4647 
*END

*D_NET *346 0.247949
*CONN
*P gpio_dm2[43] O
*I *921:gpio_dm2[43] O *D CF_CARAVEL_SOC
*CAP
1 gpio_dm2[43] 0.00257264
2 *921:gpio_dm2[43] 0.000713899
3 *346:15 0.0160983
4 *346:13 0.0135256
5 *346:11 0.0125853
6 *346:9 0.0132992
7 gpio_dm2[43] gpio_holdover[43] 0
8 *346:15 *441:15 0.0109005
9 *346:15 *444:15 0.0120761
10 *346:15 *463:15 0.0121029
11 *346:15 *529:9 0.00252185
12 *346:15 *532:30 0.00263179
13 *346:15 *540:24 0.000977825
14 *346:15 *840:19 0.00240557
15 gpio_analog_sel[43] gpio_dm2[43] 0
16 *123:15 *346:15 0.0526127
17 *213:11 *346:11 0.0244564
18 *214:11 *346:11 0.00749039
19 *227:11 *346:11 0.0419585
20 *293:15 *346:15 0.0100532
21 *294:11 *346:11 0.00860499
22 *334:6 *346:9 0.000229581
23 *344:15 *346:15 2.88835e-05
24 *345:9 *346:9 0.000102783
*RES
1 *921:gpio_dm2[43] *346:9 1.96427 
2 *346:9 *346:11 635.055 
3 *346:11 *346:13 0.5 
4 *346:13 *346:15 80.5625 
5 *346:15 gpio_dm2[43] 35.3825 
*END

*D_NET *347 0.083246
*CONN
*P gpio_dm2[4] O
*I *921:gpio_dm2[4] O *D CF_CARAVEL_SOC
*CAP
1 gpio_dm2[4] 0.00168478
2 *921:gpio_dm2[4] 0.00602387
3 *347:11 0.0175827
4 *347:9 0.0219218
5 gpio_dm2[4] gpio_holdover[4] 0
6 *347:9 *348:9 0
7 *347:11 *571:39 0.00971434
8 *347:11 *826:131 0.022766
9 gpio_analog_sel[4] gpio_dm2[4] 0.0011631
10 *261:11 *347:11 0.00214679
11 *270:17 *347:9 0.000242608
12 *283:11 *347:11 0
13 *342:11 *347:9 0
*RES
1 *921:gpio_dm2[4] *347:9 12.7487 
2 *347:9 *347:11 419.325 
3 *347:11 gpio_dm2[4] 4.4235 
*END

*D_NET *348 0.099513
*CONN
*P gpio_dm2[5] O
*I *921:gpio_dm2[5] O *D CF_CARAVEL_SOC
*CAP
1 gpio_dm2[5] 0.00256737
2 *921:gpio_dm2[5] 0.00556366
3 *348:11 0.0257618
4 *348:9 0.028758
5 gpio_dm2[5] gpio_holdover[5] 0
6 gpio_dm2[5] gpio_out[5] 0
7 *348:9 *349:9 0
8 gpio_analog_sel[5] gpio_dm2[5] 0
9 *168:11 *348:11 0
10 *218:11 *348:11 0.0188251
11 *306:11 *348:11 0.018037
12 *347:9 *348:9 0
*RES
1 *921:gpio_dm2[5] *348:9 11.8164 
2 *348:9 *348:11 585.075 
3 *348:11 gpio_dm2[5] 5.17337 
*END

*D_NET *349 0.149872
*CONN
*P gpio_dm2[6] O
*I *921:gpio_dm2[6] O *D CF_CARAVEL_SOC
*CAP
1 gpio_dm2[6] 0.00477458
2 *921:gpio_dm2[6] 0.00382929
3 *349:11 0.0187649
4 *349:9 0.0178196
5 gpio_dm2[6] gpio_holdover[6] 0
6 *349:11 *484:11 0.000644853
7 *349:11 *787:37 0.00172031
8 gpio_analog_sel[6] gpio_dm2[6] 0.000206193
9 *131:11 *349:11 0.0503039
10 *175:11 *349:11 0.00386166
11 *205:47 gpio_dm2[6] 0.00014399
12 *225:19 *349:11 0.0255879
13 *274:93 *349:11 0.00513864
14 *304:11 *349:11 0.00817799
15 *310:11 *349:11 0.00889822
16 *348:9 *349:9 0
*RES
1 *921:gpio_dm2[6] *349:9 8.37867 
2 *349:9 *349:11 747.255 
3 *349:11 gpio_dm2[6] 9.2343 
*END

*D_NET *350 0.298393
*CONN
*P gpio_dm2[7] O
*I *921:gpio_dm2[7] O *D CF_CARAVEL_SOC
*CAP
1 gpio_dm2[7] 0.00407489
2 *921:gpio_dm2[7] 0.00244099
3 *350:11 0.0405657
4 *350:9 0.0389318
5 gpio_dm2[7] gpio_holdover[7] 0.00628104
6 gpio_dm2[7] *746:13 0
7 *350:9 *351:9 0
8 *350:11 *351:11 0.133112
9 *350:11 *443:19 0
10 *350:11 *463:11 0.000200748
11 *350:11 *572:28 0
12 gpio_analog_sel[7] gpio_dm2[7] 0
13 *92:11 *350:11 0
14 *95:11 *350:11 0.000250377
15 *96:11 *350:11 0.00484944
16 *105:11 *350:11 0.000123161
17 *105:27 *350:11 0.041462
18 *108:11 *350:11 0.016132
19 *125:11 *350:11 0.00202314
20 *314:19 *350:11 0.00533202
21 *336:11 *350:11 0.00116888
22 *337:19 *350:11 0.00133503
23 *338:11 *350:11 0.000110459
*RES
1 *921:gpio_dm2[7] *350:9 5.25633 
2 *350:9 *350:11 237.938 
3 *350:11 gpio_dm2[7] 12.1033 
*END

*D_NET *351 0.372865
*CONN
*P gpio_dm2[8] O
*I *921:gpio_dm2[8] O *D CF_CARAVEL_SOC
*CAP
1 gpio_dm2[8] 0.00394134
2 *921:gpio_dm2[8] 0.00230904
3 *351:11 0.0304626
4 *351:9 0.0288303
5 gpio_dm2[8] gpio_holdover[8] 0.00746032
6 gpio_dm2[8] gpio_out[8] 6.77636e-05
7 *351:9 *352:9 0
8 *351:11 *352:11 0.148964
9 *351:11 *474:11 0.00313943
10 *351:11 *571:31 0.00405043
11 *351:11 *700:10 0.00355625
12 gpio_analog_sel[8] gpio_dm2[8] 0
13 *105:27 *351:11 0.00679586
14 *206:21 *351:11 0.000175419
15 *279:11 *351:11 0
16 *350:9 *351:9 0
17 *350:11 *351:11 0.133112
*RES
1 *921:gpio_dm2[8] *351:9 5.05367 
2 *351:9 *351:11 266.276 
3 *351:11 gpio_dm2[8] 14.3486 
*END

*D_NET *352 0.413091
*CONN
*P gpio_dm2[9] O
*I *921:gpio_dm2[9] O *D CF_CARAVEL_SOC
*CAP
1 gpio_dm2[9] 0.0053419
2 *921:gpio_dm2[9] 0.00200885
3 *352:11 0.0418113
4 *352:9 0.0384782
5 gpio_dm2[9] gpio_holdover[9] 0
6 *352:11 *479:11 0.00517478
7 *352:11 *480:11 0.00652967
8 *352:11 *534:15 0.00272603
9 *352:11 *699:10 0.00556473
10 *352:11 *744:15 0.00351848
11 gpio_analog_sel[9] gpio_dm2[9] 0.00126948
12 *91:11 *352:11 0.146683
13 *105:27 *352:11 0.00211981
14 *279:11 *352:11 0
15 *310:9 *352:9 0.000700756
16 *314:17 *352:11 0.00219949
17 *351:9 *352:9 0
18 *351:11 *352:11 0.148964
*RES
1 *921:gpio_dm2[9] *352:9 5.02327 
2 *352:9 *352:11 293.322 
3 *352:11 gpio_dm2[9] 12.7772 
*END

*D_NET *353 0.672213
*CONN
*P gpio_holdover[0] O
*I *921:gpio_holdover[0] O *D CF_CARAVEL_SOC
*CAP
1 gpio_holdover[0] 0.00112977
2 *921:gpio_holdover[0] 0.00263995
3 *353:35 0.00485076
4 *353:33 0.00372099
5 *353:31 0.0427459
6 *353:29 0.0438199
7 *353:19 0.00412093
8 *353:17 0.003089
9 *353:11 0.0264129
10 *353:9 0.0290107
11 gpio_holdover[0] gpio_out[0] 0
12 *353:9 *364:17 0
13 *353:9 *786:9 0
14 *353:11 *416:11 0.00597231
15 *353:11 *421:11 0.017123
16 *353:11 *438:17 0.00504644
17 *353:11 *451:21 0.00912934
18 *353:11 *815:11 0.0345303
19 *353:17 *386:21 4.57523e-06
20 *353:19 *385:11 0.0152637
21 *353:19 *386:21 0.00275779
22 *353:19 *458:11 0.0135603
23 *353:19 *555:17 0
24 *353:19 *857:21 0
25 *353:29 *388:21 0.000281339
26 *353:29 *435:21 0.000801508
27 *353:29 *465:21 0.000320656
28 *353:29 *553:23 0.00171594
29 *353:29 *851:15 9.33599e-06
30 *353:29 *853:17 2.79778e-05
31 *353:29 *861:25 5.22342e-06
32 *353:31 *388:23 0
33 *353:31 *542:11 0.00928266
34 *353:31 *544:13 0.000210687
35 *353:31 *760:31 0.0814033
36 *353:31 *830:15 0.108605
37 *353:31 *849:11 0.015937
38 *353:31 *856:11 4.41432e-05
39 *353:35 *364:43 0.000583682
40 *353:35 *397:177 0.0194906
41 *353:35 *529:13 0.00029087
42 *353:35 *749:31 0.000781334
43 *353:35 *815:53 0.0204418
44 gpio_analog_pol[35] *353:11 0.000291325
45 gpio_dm0[34] *353:11 0.00383857
46 gpio_dm2[0] gpio_holdover[0] 0.00177773
47 *207:23 *353:31 0.0579296
48 *292:27 *353:11 0
49 *336:47 *353:31 0.0832134
*RES
1 *921:gpio_holdover[0] *353:9 5.84407 
2 *353:9 *353:11 135.526 
3 *353:11 *353:17 1.06713 
4 *353:17 *353:19 171.465 
5 *353:19 *353:29 7.58977 
6 *353:29 *353:31 2275.38 
7 *353:31 *353:33 2 
8 *353:33 *353:35 245.288 
9 *353:35 gpio_holdover[0] 3.54443 
*END

*D_NET *354 0.568105
*CONN
*P gpio_holdover[10] O
*I *921:gpio_holdover[10] O *D CF_CARAVEL_SOC
*CAP
1 gpio_holdover[10] 0.00144249
2 *921:gpio_holdover[10] 0.00150478
3 *354:15 0.141253
4 *354:13 0.13981
5 *354:11 0.0273248
6 *354:9 0.0288295
7 gpio_holdover[10] *706:11 0
8 *354:9 *396:9 0
9 *354:11 *356:11 0.125137
10 *354:11 *359:11 0
11 *354:11 *393:11 0.00501638
12 *354:11 *449:29 0.000496885
13 *354:11 *751:11 0.000261416
14 *354:11 *791:23 0.0930415
15 gpio_analog_pol[34] *354:9 0
16 gpio_analog_sel[10] *354:15 0
17 gpio_dm2[10] gpio_holdover[10] 0.000396456
18 gpio_dm2[10] *354:15 0.00359087
19 *268:11 gpio_holdover[10] 0
20 *311:11 gpio_holdover[10] 0
*RES
1 *921:gpio_holdover[10] *354:9 3.54253 
2 *354:9 *354:11 1403.11 
3 *354:11 *354:13 0.5 
4 *354:13 *354:15 385.822 
5 *354:15 gpio_holdover[10] 6.57277 
*END

*D_NET *355 0.7362
*CONN
*P gpio_holdover[11] O
*I *921:gpio_holdover[11] O *D CF_CARAVEL_SOC
*CAP
1 gpio_holdover[11] 0.0012656
2 *921:gpio_holdover[11] 0.00135753
3 *355:15 0.0950053
4 *355:13 0.0937397
5 *355:11 0.0385921
6 *355:9 0.0399497
7 gpio_holdover[11] gpio_out[11] 0.000274019
8 *355:9 *356:9 0
9 *355:11 *359:11 0.139159
10 *355:11 *371:11 0.0353294
11 *355:11 *382:11 0.0018028
12 *355:11 *388:11 0.0134414
13 *355:11 *437:29 1.79483e-05
14 *355:11 *790:11 0.0316162
15 *355:11 *808:11 0
16 *355:15 gpio_out[11] 0
17 *355:15 *707:11 0.231089
18 gpio_analog_en[34] *355:9 0
19 gpio_analog_pol[33] *355:11 0.00210312
20 gpio_analog_pol[34] *355:9 0.00196988
21 gpio_analog_sel[11] *355:15 0
22 gpio_dm2[11] gpio_holdover[11] 0.000270152
23 gpio_dm2[11] *355:15 6.35795e-05
24 *115:35 *355:11 0.00892197
25 *162:25 *355:11 0.000231607
*RES
1 *921:gpio_holdover[11] *355:9 4.21133 
2 *355:9 *355:11 1568.35 
3 *355:11 *355:13 0.5 
4 *355:13 *355:15 386.375 
5 *355:15 gpio_holdover[11] 3.0609 
*END

*D_NET *356 0.764086
*CONN
*P gpio_holdover[12] O
*I *921:gpio_holdover[12] O *D CF_CARAVEL_SOC
*CAP
1 gpio_holdover[12] 0.0942578
2 *921:gpio_holdover[12] 0.00128503
3 *356:18 0
4 *356:13 0.0942578
5 *356:11 0.0317999
6 *356:9 0.0330849
7 gpio_holdover[12] gpio_out[12] 0.00171587
8 gpio_holdover[12] *708:11 0.230097
9 gpio_holdover[12] *796:15 0
10 *356:9 *357:17 0
11 *356:11 *359:11 0
12 *356:11 *751:11 0.137709
13 *356:11 *797:19 0.0105591
14 *356:11 *819:11 0.000464879
15 gpio_analog_en[34] *356:9 0.001035
16 gpio_analog_sel[12] gpio_holdover[12] 0
17 gpio_dm2[12] gpio_holdover[12] 0
18 *161:19 *356:11 0.00268198
19 *274:267 gpio_holdover[12] 0
20 *354:11 *356:11 0.125137
21 *355:9 *356:9 0
*RES
1 *921:gpio_holdover[12] *356:9 3.5704 
2 *356:9 *356:11 1734.1 
3 *356:11 *356:13 0.5 
4 *356:13 gpio_holdover[12] 388.336 
5 gpio_holdover[12] *356:18 0.0506667 
*END

*D_NET *357 0.600319
*CONN
*P gpio_holdover[13] O
*I *921:gpio_holdover[13] O *D CF_CARAVEL_SOC
*CAP
1 gpio_holdover[13] 0.00126697
2 *921:gpio_holdover[13] 0.00452242
3 *357:23 0.152259
4 *357:21 0.150992
5 *357:19 0.105678
6 *357:17 0.110201
7 gpio_holdover[13] gpio_out[13] 0
8 *357:17 *358:17 0.0010407
9 *357:17 *361:17 0.00580978
10 *357:17 *374:9 3.39172e-05
11 *357:17 *416:11 0.00776995
12 *357:17 *423:11 0.000537123
13 *357:17 *555:17 0.000781842
14 *357:17 *755:11 0.00172482
15 *357:19 *361:17 0.00207134
16 *357:19 *370:11 0
17 *357:19 *375:19 0
18 *357:19 *389:11 0.00556865
19 *357:19 *413:19 0.0396161
20 *357:19 *423:11 0.000126782
21 *357:19 *438:19 0.00756641
22 *357:19 *543:31 0
23 *357:19 *687:19 0
24 *357:19 *809:11 0
25 *357:23 gpio_out[13] 0
26 gpio_dm2[13] gpio_holdover[13] 0.000858335
27 gpio_dm2[13] *357:23 0.00189368
28 *356:9 *357:17 0
*RES
1 *921:gpio_holdover[13] *357:17 20.7255 
2 *357:17 *357:19 1977.38 
3 *357:19 *357:21 0.5 
4 *357:21 *357:23 387.278 
5 *357:23 gpio_holdover[13] 5.52237 
*END

*D_NET *358 0.832754
*CONN
*P gpio_holdover[14] O
*I *921:gpio_holdover[14] O *D CF_CARAVEL_SOC
*CAP
1 gpio_holdover[14] 9.27789e-05
2 *921:gpio_holdover[14] 0.00225772
3 *358:23 0.0951413
4 *358:21 0.0950485
5 *358:19 0.0831331
6 *358:17 0.0853908
7 *358:17 *359:9 0
8 *358:17 *389:11 0.000233006
9 *358:17 *423:11 0.00103583
10 *358:17 *438:19 0.000200748
11 *358:17 *468:9 0.000448407
12 *358:17 *831:25 0.00157626
13 *358:19 *363:11 0
14 *358:19 *376:11 0.0175573
15 *358:19 *416:11 0.009256
16 *358:19 *458:11 0
17 *358:19 *809:11 0.211188
18 *358:23 gpio_out[14] 0.000803084
19 *358:23 *710:11 0.22808
20 gpio_analog_sel[14] *358:23 0
21 gpio_dm2[14] *358:23 0.000271408
22 *105:31 *358:23 0
23 *357:17 *358:17 0.0010407
*RES
1 *921:gpio_holdover[14] *358:17 8.378 
2 *358:17 *358:19 2380.78 
3 *358:19 *358:21 0.5 
4 *358:21 *358:23 390.259 
5 *358:23 gpio_holdover[14] 0.266633 
*END

*D_NET *359 0.897281
*CONN
*P gpio_holdover[15] O
*I *921:gpio_holdover[15] O *D CF_CARAVEL_SOC
*CAP
1 gpio_holdover[15] 3.48786e-05
2 *921:gpio_holdover[15] 0.00181064
3 *359:23 0.0694374
4 *359:21 0.0718258
5 *359:15 0.0287737
6 *359:13 0.0263504
7 *359:11 0.106921
8 *359:9 0.108732
9 gpio_holdover[15] gpio_out[15] 0
10 *359:9 *360:9 0
11 *359:9 *831:25 0
12 *359:11 *371:11 0.0172552
13 *359:11 *375:17 0.00032753
14 *359:11 *382:11 0.000142915
15 *359:11 *791:23 0
16 *359:11 *808:11 0
17 *359:15 *363:19 0.0950087
18 *359:15 *448:9 0.019529
19 *359:15 *449:9 0.0173849
20 *359:15 *450:9 0.0115628
21 *359:15 *451:9 0.0256355
22 *359:15 *763:15 0.0343895
23 *359:21 gpio_holdover[19] 2.70838e-05
24 *359:21 *363:19 0.00104597
25 *359:21 *448:9 0.000139081
26 *359:21 *449:9 0.000188169
27 *359:21 *450:9 0.000512209
28 *359:21 *451:9 0.00111124
29 *359:23 *448:9 0.0236871
30 *359:23 *449:9 0.0241761
31 *359:23 *450:9 0.0181172
32 *359:23 *451:9 0.000921811
33 *359:23 *536:245 0.00231528
34 *359:23 *537:250 0.00705596
35 gpio_analog_pol[33] *359:11 0.00195704
36 gpio_dm2[15] gpio_holdover[15] 0
37 *96:15 *359:23 0.0417454
38 *354:11 *359:11 0
39 *355:11 *359:11 0.139159
40 *356:11 *359:11 0
41 *358:17 *359:9 0
*RES
1 *921:gpio_holdover[15] *359:9 4.15307 
2 *359:9 *359:11 2508.79 
3 *359:11 *359:13 0.5 
4 *359:13 *359:15 139.033 
5 *359:15 *359:21 6.57653 
6 *359:21 *359:23 215.392 
7 *359:23 gpio_holdover[15] 1.0625 
*END

*D_NET *360 0.889755
*CONN
*P gpio_holdover[16] O
*I *921:gpio_holdover[16] O *D CF_CARAVEL_SOC
*CAP
1 gpio_holdover[16] 0.000940662
2 *921:gpio_holdover[16] 0.00142485
3 *360:15 0.0483241
4 *360:13 0.0473834
5 *360:11 0.0436524
6 *360:9 0.0450773
7 gpio_holdover[16] gpio_out[16] 0
8 *360:9 *361:9 0
9 *360:11 *448:13 0.00493089
10 *360:11 *797:19 0.184854
11 *360:11 *798:19 0.21523
12 *360:15 *362:15 0.030506
13 *360:15 *404:23 0
14 *360:15 *447:13 0.189965
15 *360:15 *453:13 0.0729405
16 gpio_dm2[16] gpio_holdover[16] 0
17 *161:19 *360:11 0.0045249
18 *359:9 *360:9 0
*RES
1 *921:gpio_holdover[16] *360:9 3.3956 
2 *360:9 *360:11 2487.25 
3 *360:11 *360:13 2 
4 *360:13 *360:15 1748.22 
5 *360:15 gpio_holdover[16] 19.01 
*END

*D_NET *361 0.849288
*CONN
*P gpio_holdover[17] O
*I *921:gpio_holdover[17] O *D CF_CARAVEL_SOC
*CAP
1 gpio_holdover[17] 0.000555795
2 *921:gpio_holdover[17] 0.002395
3 *361:35 0.133193
4 *361:33 0.219971
5 *361:17 0.112677
6 *361:9 0.0277381
7 gpio_holdover[17] gpio_out[17] 0
8 *361:9 *362:9 0
9 *361:17 *389:11 0.00211463
10 *361:17 *394:15 0.00456674
11 *361:17 *395:23 0.00456674
12 *361:17 *413:19 0.00186513
13 *361:17 *416:11 0.0114014
14 *361:17 *423:11 0.00926403
15 *361:17 *438:19 0.00244717
16 *361:17 *440:29 0.00451015
17 *361:17 *555:17 0.00103959
18 *361:17 *730:19 0.00456674
19 *361:17 *755:11 0.00214495
20 *361:17 *759:15 0.004
21 *361:17 *761:15 0.00363378
22 *361:17 *766:11 0
23 *361:17 *873:61 0.00187076
24 *361:33 *394:15 0.0352139
25 *361:33 *395:23 0.0354194
26 *361:33 *438:23 0.0347252
27 *361:33 *440:29 0.000631825
28 *361:33 *725:11 0.000379214
29 *361:33 *730:19 0.0101283
30 *361:33 *759:15 0.0158899
31 *361:33 *761:15 0.0100634
32 *361:33 *873:61 0.00825947
33 gpio_dm2[17] gpio_holdover[17] 0
34 gpio_dm2[17] *361:35 0.0539754
35 *148:13 *361:17 0.000927423
36 *148:13 *361:33 0.0133483
37 *202:27 *361:17 0.00269572
38 *202:27 *361:33 0.00767028
39 *230:25 *361:33 0.00418182
40 *286:39 *361:17 0
41 *286:39 *361:33 0
42 *290:15 *361:17 0.000927423
43 *290:15 *361:33 0.0133483
44 *322:309 *361:17 0.00210312
45 *334:36 *361:33 0.0335193
46 *334:44 *361:17 0.00187376
47 *334:44 *361:33 0.00160455
48 *357:17 *361:17 0.00580978
49 *357:19 *361:17 0.00207134
50 *360:9 *361:9 0
*RES
1 *921:gpio_holdover[17] *361:9 5.231 
2 *361:9 *361:17 49.1793 
3 *361:17 *361:33 24.834 
4 *361:33 *361:35 374.632 
5 *361:35 gpio_holdover[17] 10.2996 
*END

*D_NET *362 0.760438
*CONN
*P gpio_holdover[18] O
*I *921:gpio_holdover[18] O *D CF_CARAVEL_SOC
*CAP
1 gpio_holdover[18] 0.000984407
2 *921:gpio_holdover[18] 0.00312711
3 *362:15 0.0628814
4 *362:13 0.061897
5 *362:11 0.0856076
6 *362:9 0.0887347
7 gpio_holdover[18] gpio_out[18] 0
8 *362:9 *363:9 0
9 *362:11 *368:11 0.220559
10 *362:11 *373:11 0.00266013
11 *362:11 *384:11 0.00132944
12 *362:11 *415:11 0
13 *362:11 *420:11 0.000353483
14 *362:11 *737:39 0.000366882
15 *362:11 *754:21 0.000430996
16 *362:11 *757:11 0
17 *362:11 *765:11 0
18 *362:11 *765:19 0.0406804
19 *362:15 *365:15 0.000697704
20 *362:15 *409:15 0.0728067
21 *362:15 *411:17 0.029975
22 *362:15 *447:13 0.0562018
23 *362:15 *453:13 0.000637676
24 *362:15 *539:435 0
25 gpio_dm2[18] gpio_holdover[18] 0
26 *360:15 *362:15 0.030506
27 *361:9 *362:9 0
*RES
1 *921:gpio_holdover[18] *362:9 6.68893 
2 *362:9 *362:11 2477.18 
3 *362:11 *362:13 0.5 
4 *362:13 *362:15 209.74 
5 *362:15 gpio_holdover[18] 17.8925 
*END

*D_NET *363 0.548229
*CONN
*P gpio_holdover[19] O
*I *921:gpio_holdover[19] O *D CF_CARAVEL_SOC
*CAP
1 gpio_holdover[19] 0.000113012
2 *921:gpio_holdover[19] 0.00269086
3 *363:19 0.0320146
4 *363:17 0.0319595
5 *363:11 0.0969852
6 *363:9 0.0996182
7 gpio_holdover[19] gpio_out[19] 0
8 *363:9 *365:9 0
9 *363:11 gpio_holdover[34] 0.000527714
10 *363:11 *374:11 0.0109217
11 *363:11 *385:11 0.0091166
12 *363:11 *415:11 0
13 *363:11 *436:19 0.000202664
14 *363:11 *453:25 0.00079311
15 *363:11 *458:11 0.157437
16 *363:11 *552:25 0
17 *363:17 *763:15 4.3249e-05
18 *363:19 *448:9 0.000335221
19 *363:19 *449:9 0.00036272
20 *363:19 *451:9 0.000164601
21 *363:19 *763:15 0.000677437
22 gpio_analog_sel[33] *363:11 0.0020749
23 *247:19 *363:11 0.00610835
24 *358:19 *363:11 0
25 *359:15 *363:19 0.0950087
26 *359:21 gpio_holdover[19] 2.70838e-05
27 *359:21 *363:19 0.00104597
28 *362:9 *363:9 0
*RES
1 *921:gpio_holdover[19] *363:9 5.81493 
2 *363:9 *363:11 2488.91 
3 *363:11 *363:17 0.691267 
4 *363:17 *363:19 144.365 
5 *363:19 gpio_holdover[19] 1.25377 
*END

*D_NET *364 0.776103
*CONN
*P gpio_holdover[1] O
*I *921:gpio_holdover[1] O *D CF_CARAVEL_SOC
*CAP
1 gpio_holdover[1] 0.00117864
2 *921:gpio_holdover[1] 0.00303281
3 *364:43 0.0100814
4 *364:41 0.00890272
5 *364:39 0.0418318
6 *364:37 0.0421584
7 *364:27 0.0257142
8 *364:25 0.0254923
9 *364:19 0.00335545
10 *364:17 0.00628363
11 gpio_holdover[1] gpio_out[1] 0
12 *364:17 *382:11 0.00391331
13 *364:17 *756:6 0.000262458
14 *364:17 *778:17 3.45325e-05
15 *364:17 *779:9 0
16 *364:17 *831:11 0.00158118
17 *364:19 *413:11 0.00280096
18 *364:19 *418:11 0.00264566
19 *364:19 *468:11 0.019541
20 *364:19 *787:11 0.0147086
21 *364:25 *778:17 1.47512e-05
22 *364:27 *408:13 0.00361575
23 *364:27 *418:11 0.0252528
24 *364:27 *423:11 0.00316582
25 *364:27 *468:11 0.0140713
26 *364:27 *543:23 0.0240193
27 *364:27 *543:31 0.000190181
28 *364:27 *793:11 0
29 *364:27 *859:23 0.00224006
30 *364:27 *862:23 0.00224006
31 *364:37 *469:15 7.71138e-05
32 *364:37 *558:25 0.000853073
33 *364:37 *824:21 1.6421e-05
34 *364:37 *859:23 0.00088756
35 *364:39 *390:23 0.0179308
36 *364:39 *472:11 0.000619428
37 *364:39 *482:15 0.225658
38 *364:39 *555:13 0.000248274
39 *364:39 *558:13 0.0129204
40 *364:39 *693:163 0.00026255
41 *364:39 *827:19 0.0249641
42 *364:39 *852:11 0.113004
43 *364:43 *815:53 0.035663
44 gpio_analog_sel[1] gpio_holdover[1] 0.000413151
45 gpio_dm2[1] gpio_holdover[1] 0.000976093
46 *238:15 *364:39 0
47 *249:15 *364:39 0
48 *255:15 *364:39 0.0255249
49 *264:11 *364:43 0.0227688
50 *293:25 *364:37 7.4816e-05
51 *322:149 *364:39 0.00154264
52 *322:259 *364:39 0.00278614
53 *353:9 *364:17 0
54 *353:35 *364:43 0.000583682
*RES
1 *921:gpio_holdover[1] *364:17 12.9 
2 *364:17 *364:19 217.875 
3 *364:19 *364:25 1.18367 
4 *364:25 *364:27 118.385 
5 *364:27 *364:37 13.8129 
6 *364:37 *364:39 2287.8 
7 *364:39 *364:41 2 
8 *364:41 *364:43 407.978 
9 *364:43 gpio_holdover[1] 6.36057 
*END

*D_NET *365 0.464845
*CONN
*P gpio_holdover[20] O
*I *921:gpio_holdover[20] O *D CF_CARAVEL_SOC
*CAP
1 gpio_holdover[20] 0.000954308
2 *921:gpio_holdover[20] 0.00363705
3 *365:15 0.0173193
4 *365:13 0.016365
5 *365:11 0.128372
6 *365:9 0.132009
7 gpio_holdover[20] gpio_out[20] 0
8 gpio_holdover[20] *717:15 0
9 *365:9 *366:9 0
10 *365:11 *387:11 0.00881585
11 *365:11 *395:19 0.00755289
12 *365:11 *404:21 0.000144028
13 *365:11 *688:15 0
14 *365:11 *733:10 0
15 *365:11 *736:37 0
16 *365:11 *753:11 0
17 *365:11 *762:11 0
18 *365:11 *770:11 0.0163803
19 *365:11 *832:19 0
20 *365:15 *404:23 0.00217354
21 *365:15 *409:15 0.0734023
22 *365:15 *453:13 0.000184366
23 *365:15 *539:435 0
24 *365:15 *762:15 0.0568381
25 gpio_dm2[20] gpio_holdover[20] 0
26 *321:71 gpio_holdover[20] 0
27 *362:15 *365:15 0.000697704
28 *363:9 *365:9 0
*RES
1 *921:gpio_holdover[20] *365:9 7.6212 
2 *365:9 *365:11 2468 
3 *365:11 *365:13 0.5 
4 *365:13 *365:15 113.483 
5 *365:15 gpio_holdover[20] 17.255 
*END

*D_NET *366 0.519397
*CONN
*P gpio_holdover[21] O
*I *921:gpio_holdover[21] O *D CF_CARAVEL_SOC
*CAP
1 gpio_holdover[21] 0.000877654
2 *921:gpio_holdover[21] 0.00449365
3 *366:15 0.0204728
4 *366:13 0.0195951
5 *366:11 0.0810824
6 *366:9 0.085576
7 gpio_holdover[21] gpio_out[21] 0
8 *366:9 *367:9 0
9 *366:9 *737:55 1.2782e-05
10 *366:9 *832:25 0.000395035
11 *366:11 gpio_out[27] 0
12 *366:11 *369:11 0
13 *366:11 *383:11 0.00170131
14 *366:11 *455:21 0.0105379
15 *366:11 *457:11 0
16 *366:11 *539:183 0.00488076
17 *366:11 *545:15 0
18 *366:11 *763:11 0.221716
19 *366:15 *404:23 0.0105118
20 *366:15 *410:15 0.0530699
21 *366:15 *539:435 0.00377627
22 *366:15 *762:15 0.000697704
23 gpio_dm2[21] gpio_holdover[21] 0
24 *365:9 *366:9 0
*RES
1 *921:gpio_holdover[21] *366:9 9.3692 
2 *366:9 *366:11 2464.43 
3 *366:11 *366:13 0.5 
4 *366:13 *366:15 82.6601 
5 *366:15 gpio_holdover[21] 15.725 
*END

*D_NET *367 0.474461
*CONN
*P gpio_holdover[22] O
*I *921:gpio_holdover[22] O *D CF_CARAVEL_SOC
*CAP
1 gpio_holdover[22] 0.000124431
2 *921:gpio_holdover[22] 0.00415258
3 *367:15 0.00856658
4 *367:11 0.0967786
5 *367:9 0.092489
6 *367:9 *368:9 0
7 *367:9 *832:25 0
8 *367:11 *372:11 0
9 *367:11 *411:11 0.212568
10 *367:11 *544:17 0.00839058
11 *367:11 *759:11 0.000799621
12 *367:11 *762:11 0
13 *367:11 *774:11 0
14 *367:11 *788:11 0.006234
15 *367:15 gpio_holdover[23] 0.000719056
16 *367:15 gpio_ib_mode_sel[23] 0.00994527
17 *367:15 *763:15 0.0336935
18 *366:9 *367:9 0
*RES
1 *921:gpio_holdover[22] *367:9 8.4952 
2 *367:9 *367:11 2472.58 
3 *367:11 *367:15 49.7733 
4 *367:15 gpio_holdover[22] 2.0825 
*END

*D_NET *368 0.51163
*CONN
*P gpio_holdover[23] O
*I *921:gpio_holdover[23] O *D CF_CARAVEL_SOC
*CAP
1 gpio_holdover[23] 0.00399003
2 *921:gpio_holdover[23] 0.00323201
3 *368:11 0.0742868
4 *368:9 0.0735288
5 gpio_holdover[23] gpio_ib_mode_sel[23] 0.00843755
6 gpio_holdover[23] gpio_out[23] 0
7 *368:9 *369:9 0
8 *368:11 *373:11 0.00285851
9 *368:11 *384:11 0.00683759
10 *368:11 *420:11 0.000213565
11 *368:11 *456:27 4.07124e-05
12 *368:11 *736:23 0.0116747
13 *368:11 *765:19 0.0792322
14 *368:11 *768:11 0.0260189
15 gpio_dm2[23] gpio_holdover[23] 0
16 *362:11 *368:11 0.220559
17 *367:9 *368:9 0
18 *367:15 gpio_holdover[23] 0.000719056
*RES
1 *921:gpio_holdover[23] *368:9 6.7472 
2 *368:9 *368:11 2466.47 
3 *368:11 gpio_holdover[23] 19.522 
*END

*D_NET *369 0.470638
*CONN
*P gpio_holdover[24] O
*I *921:gpio_holdover[24] O *D CF_CARAVEL_SOC
*CAP
1 gpio_holdover[24] 0.00314163
2 *921:gpio_holdover[24] 0.00482038
3 *369:23 0.0683723
4 *369:21 0.0653056
5 *369:19 0.017404
6 *369:17 0.0175062
7 *369:11 0.00447834
8 *369:9 0.0091215
9 *369:11 *390:11 0.00166481
10 *369:11 *417:11 0.00578522
11 *369:11 *455:21 1.46262e-05
12 *369:11 *539:183 1.16104e-05
13 *369:11 *545:15 0.0209304
14 *369:11 *693:31 0.00883521
15 *369:11 *817:11 0.00405249
16 *369:17 *754:21 0.000372013
17 *369:19 gpio_vtrip_sel[30] 0.00678101
18 *369:19 *398:19 0.0189944
19 *369:19 *412:11 0.0165051
20 *369:19 *417:19 0.0910114
21 *369:19 *769:11 0.000199829
22 *369:19 *813:19 0.0180752
23 *369:19 *816:25 0.00200897
24 *369:19 *816:27 0.0305264
25 *369:23 *398:19 0.00266019
26 *369:23 *412:11 0.034589
27 *369:23 *457:11 0.0124904
28 *369:23 *769:11 0.00209965
29 gpio_dm2[24] gpio_holdover[24] 0.000175365
30 *284:67 *369:19 0.000167282
31 *284:67 *369:23 0.00246904
32 *290:15 *369:17 6.838e-05
33 *366:11 *369:11 0
34 *368:9 *369:9 0
*RES
1 *921:gpio_holdover[24] *369:9 9.60227 
2 *369:9 *369:11 234.195 
3 *369:11 *369:17 1.59153 
4 *369:17 *369:19 162.665 
5 *369:19 *369:21 0.154533 
6 *369:21 *369:23 190.643 
7 *369:23 gpio_holdover[24] 6.88843 
*END

*D_NET *370 0.322473
*CONN
*P gpio_holdover[25] O
*I *921:gpio_holdover[25] O *D CF_CARAVEL_SOC
*CAP
1 gpio_holdover[25] 0.00481664
2 *921:gpio_holdover[25] 0.00255521
3 *370:11 0.0584681
4 *370:9 0.0562067
5 gpio_holdover[25] gpio_out[25] 0.0011941
6 *370:9 *371:9 0
7 *370:9 *375:17 0
8 *370:9 *756:6 0.000206859
9 *370:11 *416:11 0.0286246
10 *370:11 *438:19 2.04299e-05
11 *370:11 *555:17 0.00739973
12 *370:11 *755:11 0.00237281
13 *370:11 *809:11 0.151031
14 gpio_dm2[25] gpio_holdover[25] 0.00066068
15 *322:309 *370:11 0.00890514
16 *326:35 gpio_holdover[25] 1.13211e-05
17 *357:19 *370:11 0
*RES
1 *921:gpio_holdover[25] *370:9 5.54893 
2 *370:9 *370:11 1679.54 
3 *370:11 gpio_holdover[25] 12.1844 
*END

*D_NET *371 0.356309
*CONN
*P gpio_holdover[26] O
*I *921:gpio_holdover[26] O *D CF_CARAVEL_SOC
*CAP
1 gpio_holdover[26] 0.00473205
2 *921:gpio_holdover[26] 0.00198411
3 *371:11 0.0626729
4 *371:9 0.059925
5 gpio_holdover[26] *723:21 0.00493855
6 *371:9 *372:9 0
7 *371:9 *375:17 0.000158585
8 *371:11 *382:11 0.00432786
9 *371:11 *391:11 0
10 *371:11 *393:11 0
11 *371:11 *413:11 0.00227173
12 *371:11 *418:11 0.0960743
13 *371:11 *766:11 0.0277873
14 *371:11 *790:11 0.0285974
15 gpio_analog_pol[33] *371:11 0.00960552
16 *327:67 gpio_holdover[26] 0.000648796
17 *355:11 *371:11 0.0353294
18 *359:11 *371:11 0.0172552
19 *370:9 *371:9 0
*RES
1 *921:gpio_holdover[26] *371:9 4.5014 
2 *371:9 *371:11 255.509 
3 *371:11 gpio_holdover[26] 13.1762 
*END

*D_NET *372 0.187688
*CONN
*P gpio_holdover[27] O
*I *921:gpio_holdover[27] O *D CF_CARAVEL_SOC
*CAP
1 gpio_holdover[27] 0.00269232
2 *921:gpio_holdover[27] 0.00447821
3 *372:11 0.071975
4 *372:9 0.0737609
5 gpio_holdover[27] gpio_out[27] 0.00354442
6 gpio_holdover[27] *548:23 0.000138699
7 gpio_holdover[27] *811:11 0.000137575
8 *372:9 *373:9 0
9 *372:11 *763:11 0
10 *372:11 *774:11 0.0220529
11 *372:11 *775:11 0.0075732
12 *240:15 gpio_holdover[27] 0.00133456
13 *328:65 gpio_holdover[27] 0
14 *367:11 *372:11 0
15 *371:9 *372:9 0
*RES
1 *921:gpio_holdover[27] *372:9 8.8448 
2 *372:9 *372:11 1347.53 
3 *372:11 gpio_holdover[27] 10.8572 
*END

*D_NET *373 0.24924
*CONN
*P gpio_holdover[28] O
*I *921:gpio_holdover[28] O *D CF_CARAVEL_SOC
*CAP
1 gpio_holdover[28] 0.00356975
2 *921:gpio_holdover[28] 0.00372785
3 *373:11 0.0295952
4 *373:9 0.0297533
5 *373:9 *374:9 0
6 *373:11 gpio_ib_mode_sel[30] 0.00177264
7 *373:11 *384:11 0.00102783
8 *373:11 *414:11 0
9 *373:11 *420:11 0.0770803
10 *373:11 *456:27 0.00086064
11 *373:11 *736:23 0.00234945
12 *373:11 *765:19 0.055723
13 *373:11 *768:11 0.00106687
14 *373:11 *768:19 0.031954
15 gpio_dm2[28] gpio_holdover[28] 0.00071343
16 *329:70 gpio_holdover[28] 0.00452707
17 *362:11 *373:11 0.00266013
18 *368:11 *373:11 0.00285851
19 *372:9 *373:9 0
*RES
1 *921:gpio_holdover[28] *373:9 6.89287 
2 *373:9 *373:11 199.781 
3 *373:11 gpio_holdover[28] 9.9943 
*END

*D_NET *374 0.220573
*CONN
*P gpio_holdover[29] O
*I *921:gpio_holdover[29] O *D CF_CARAVEL_SOC
*CAP
1 gpio_holdover[29] 0.00456079
2 *921:gpio_holdover[29] 0.00289187
3 *374:11 0.0414677
4 *374:9 0.0397988
5 gpio_holdover[29] *726:21 0
6 *374:9 *542:45 5.71654e-05
7 *374:11 gpio_holdover[34] 0.00240959
8 *374:11 *376:11 0
9 *374:11 *385:11 0.000122765
10 *374:11 *414:11 0.0187155
11 *374:11 *416:11 0
12 *374:11 *421:11 0.0644551
13 *374:11 *436:19 0.00334357
14 *374:11 *453:25 0.000340804
15 *374:11 *458:11 0.0109217
16 *374:11 *552:25 0.00398165
17 *374:11 *735:23 0.00270491
18 gpio_analog_sel[33] *374:11 0.0117455
19 *198:31 gpio_holdover[29] 0.00179813
20 *330:33 gpio_holdover[29] 0.000302312
21 *357:17 *374:9 3.39172e-05
22 *363:11 *374:11 0.0109217
23 *373:9 *374:9 0
*RES
1 *921:gpio_holdover[29] *374:9 6.07713 
2 *374:9 *374:11 171.443 
3 *374:11 gpio_holdover[29] 10.9266 
*END

*D_NET *375 0.86661
*CONN
*P gpio_holdover[2] O
*I *921:gpio_holdover[2] O *D CF_CARAVEL_SOC
*CAP
1 gpio_holdover[2] 0.00113305
2 *921:gpio_holdover[2] 0.00592764
3 *375:59 0.016101
4 *375:57 0.0183016
5 *375:43 0.00557283
6 *375:41 0.00523136
7 *375:35 0.0055647
8 *375:33 0.00257249
9 *375:31 0.0348095
10 *375:29 0.0348095
11 *375:27 0.00225584
12 *375:25 0.00340395
13 *375:19 0.00376921
14 *375:17 0.00854875
15 gpio_holdover[2] gpio_out[2] 0.00173876
16 *375:17 *382:11 0.0118677
17 *375:17 *386:9 0
18 *375:17 *393:11 0.00134585
19 *375:17 *831:11 0.000855406
20 *375:19 *389:11 0
21 *375:19 *449:21 0
22 *375:19 *543:31 0.00643687
23 *375:19 *766:11 0.000264131
24 *375:25 *388:9 0.0022025
25 *375:25 *737:39 0.000874613
26 *375:27 *456:19 0.0102094
27 *375:27 *472:27 0.000132722
28 *375:27 *544:25 0.0102531
29 *375:27 *831:27 0.000823294
30 *375:27 *836:11 0.00201817
31 *375:31 *782:15 0.000575951
32 *375:31 *787:15 0.25854
33 *375:35 *782:19 0
34 *375:43 *568:15 0.00146972
35 *375:57 *391:43 0.000674665
36 *375:57 *481:11 0.00331156
37 gpio_analog_en[4] *375:59 0.000103819
38 gpio_analog_pol[3] *375:59 0.000121315
39 gpio_analog_pol[5] *375:57 8.85475e-05
40 gpio_dm0[3] *375:59 6.88455e-05
41 gpio_dm2[2] gpio_holdover[2] 0
42 *129:11 *375:43 0.000112528
43 *132:11 *375:43 0.00197751
44 *173:13 *375:57 0.00017637
45 *176:11 *375:43 0.00226841
46 *181:11 *375:57 0.000433778
47 *184:11 *375:35 0.000626846
48 *198:11 *375:35 0.0106854
49 *206:47 *375:31 0.259534
50 *206:51 *375:27 0.000451628
51 *219:11 *375:35 0
52 *224:19 *375:57 0
53 *228:25 *375:31 0.0120876
54 *229:11 *375:35 0.0120887
55 *247:15 *375:31 5.38434e-05
56 *281:11 *375:35 1.49348e-05
57 *281:11 *375:59 0
58 *286:39 *375:31 0.0514709
59 *305:11 *375:59 0.0380006
60 *312:19 *375:43 0.0115712
61 *327:31 *375:43 0.00259169
62 *337:17 *375:57 0
63 *357:19 *375:19 0
64 *359:11 *375:17 0.00032753
65 *370:9 *375:17 0
66 *371:9 *375:17 0.000158585
*RES
1 *921:gpio_holdover[2] *375:17 26.6839 
2 *375:17 *375:19 72.525 
3 *375:19 *375:25 4.8836 
4 *375:25 *375:27 131.685 
5 *375:27 *375:29 0.5 
6 *375:29 *375:31 383.316 
7 *375:31 *375:33 0.5 
8 *375:33 *375:35 139.845 
9 *375:35 *375:41 5.81587 
10 *375:41 *375:43 128.625 
11 *375:43 *375:57 43.2127 
12 *375:57 *375:59 422.385 
13 *375:59 gpio_holdover[2] 3.53303 
*END

*D_NET *376 0.180547
*CONN
*P gpio_holdover[30] O
*I *921:gpio_holdover[30] O *D CF_CARAVEL_SOC
*CAP
1 gpio_holdover[30] 0.00467248
2 *921:gpio_holdover[30] 0.00270298
3 *376:11 0.0354116
4 *376:9 0.0334421
5 gpio_holdover[30] *728:21 0.00470332
6 *376:9 *377:9 0
7 *376:9 *542:45 0
8 *376:9 *756:6 0.000262458
9 *376:11 gpio_holdover[34] 0.000240898
10 *376:11 *416:11 0.0799947
11 gpio_analog_sel[33] *376:11 0.00155888
12 *332:25 gpio_holdover[30] 0
13 *358:19 *376:11 0.0175573
14 *374:11 *376:11 0
*RES
1 *921:gpio_holdover[30] *376:9 5.839 
2 *376:9 *376:11 142.589 
3 *376:11 gpio_holdover[30] 11.874 
*END

*D_NET *377 0.124063
*CONN
*P gpio_holdover[31] O
*I *921:gpio_holdover[31] O *D CF_CARAVEL_SOC
*CAP
1 gpio_holdover[31] 0.00410461
2 *921:gpio_holdover[31] 0.00410235
3 *377:11 0.0574166
4 *377:9 0.0574143
5 gpio_holdover[31] *729:21 0
6 gpio_holdover[31] *770:17 2.38374e-05
7 *377:9 *378:9 0
8 *377:9 *395:17 0
9 gpio_dm2[31] gpio_holdover[31] 0.000986646
10 *201:15 gpio_holdover[31] 0
11 *245:15 gpio_holdover[31] 1.50767e-05
12 *376:9 *377:9 0
*RES
1 *921:gpio_holdover[31] *377:9 8.29127 
2 *377:9 *377:11 114.854 
3 *377:11 gpio_holdover[31] 8.93537 
*END

*D_NET *378 0.0496868
*CONN
*P gpio_holdover[32] O
*I *921:gpio_holdover[32] O *D CF_CARAVEL_SOC
*CAP
1 gpio_holdover[32] 0.000730738
2 *921:gpio_holdover[32] 0.00791945
3 *378:11 0.00818335
4 *378:9 0.0153721
5 gpio_holdover[32] *730:19 0.000257419
6 *378:9 gpio_holdover[33] 0
7 *378:11 *466:11 0
8 *378:11 *547:25 0.0170102
9 *378:11 *731:18 0
10 *205:63 *378:9 0.000213591
11 *325:167 *378:11 0
12 *334:44 gpio_holdover[32] 0
13 *377:9 *378:9 0
*RES
1 *921:gpio_holdover[32] *378:9 15.0211 
2 *378:9 *378:11 196.965 
3 *378:11 gpio_holdover[32] 2.02317 
*END

*D_NET *379 0.0248084
*CONN
*P gpio_holdover[33] O
*I *921:gpio_holdover[33] O *D CF_CARAVEL_SOC
*CAP
1 gpio_holdover[33] 0.00932757
2 *921:gpio_holdover[33] 0.00932614
3 *379:18 1.42862e-06
4 gpio_holdover[33] gpio_holdover[34] 0
5 gpio_holdover[33] gpio_out[33] 0.000466233
6 gpio_holdover[33] *398:19 0.00058111
7 gpio_holdover[33] *412:11 0.000658324
8 gpio_holdover[33] *417:19 0.00071103
9 gpio_holdover[33] *422:11 0.00176329
10 gpio_holdover[33] *737:39 0.000244951
11 gpio_holdover[33] *769:11 0.000242563
12 gpio_holdover[33] *813:11 0.000588724
13 gpio_holdover[33] *814:11 0.000658306
14 *379:18 gpio_out[33] 2.60489e-05
15 gpio_dm2[33] gpio_holdover[33] 0.000212679
16 *378:9 gpio_holdover[33] 0
*RES
1 *921:gpio_holdover[33] gpio_holdover[33] 22.0849 
2 gpio_holdover[33] *379:18 0.0616216 
*END

*D_NET *380 0.0501556
*CONN
*P gpio_holdover[34] O
*I *921:gpio_holdover[34] O *D CF_CARAVEL_SOC
*CAP
1 gpio_holdover[34] 0.0149554
2 *921:gpio_holdover[34] 0.0149554
3 gpio_holdover[34] gpio_out[34] 0
4 gpio_holdover[34] *381:9 0
5 gpio_holdover[34] *385:11 0.00163743
6 gpio_holdover[34] *394:9 0
7 gpio_holdover[34] *416:11 0
8 gpio_holdover[34] *421:11 0.00597289
9 gpio_holdover[34] *436:19 0.0012045
10 gpio_holdover[34] *451:21 0.0012045
11 gpio_holdover[34] *453:25 0.000200748
12 gpio_holdover[34] *458:11 0.000491091
13 gpio_holdover[34] *735:23 0.00219743
14 gpio_holdover[34] *737:63 0.00213604
15 gpio_dm0[34] gpio_holdover[34] 0.000711154
16 gpio_dm2[34] gpio_holdover[34] 0.00128478
17 gpio_holdover[33] gpio_holdover[34] 0
18 *336:82 gpio_holdover[34] 2.60489e-05
19 *363:11 gpio_holdover[34] 0.000527714
20 *374:11 gpio_holdover[34] 0.00240959
21 *376:11 gpio_holdover[34] 0.000240898
*RES
1 *921:gpio_holdover[34] gpio_holdover[34] 39.8126 
*END

*D_NET *381 0.0591108
*CONN
*P gpio_holdover[35] O
*I *921:gpio_holdover[35] O *D CF_CARAVEL_SOC
*CAP
1 gpio_holdover[35] 0.000941125
2 *921:gpio_holdover[35] 0.00718552
3 *381:15 0.0110716
4 *381:13 0.0101561
5 *381:11 0.00202713
6 *381:9 0.00918696
7 gpio_holdover[35] gpio_out[35] 0.000651999
8 *381:9 *382:9 0.000415705
9 *381:9 *873:55 0
10 *381:11 *447:17 0
11 *381:11 *548:23 0.00472923
12 *381:11 *693:41 0.000129207
13 *381:15 *447:17 0
14 *381:15 *548:23 0.01202
15 gpio_dm2[34] *381:15 0.000315449
16 gpio_dm2[35] gpio_holdover[35] 0
17 gpio_holdover[34] *381:9 0
18 *284:57 *381:9 0.000280718
*RES
1 *921:gpio_holdover[35] *381:9 14.1471 
2 *381:9 *381:11 54.615 
3 *381:11 *381:13 0.45 
4 *381:13 *381:15 248.535 
5 *381:15 gpio_holdover[35] 2.58747 
*END

*D_NET *382 0.12856
*CONN
*P gpio_holdover[36] O
*I *921:gpio_holdover[36] O *D CF_CARAVEL_SOC
*CAP
1 gpio_holdover[36] 0.00408015
2 *921:gpio_holdover[36] 0.0018042
3 *382:11 0.0175244
4 *382:9 0.0152485
5 gpio_holdover[36] gpio_out[36] 0.000954717
6 gpio_holdover[36] *818:9 0.00337514
7 *382:9 gpio_vtrip_sel[33] 0
8 *382:9 *756:6 0.000262458
9 *382:11 *388:11 0.0016377
10 *382:11 *393:11 0
11 *382:11 *413:11 0.00545112
12 *382:11 *418:11 0.0114623
13 *382:11 *425:11 0.0137857
14 *382:11 *771:11 0.00140262
15 *382:11 *778:17 0.0201293
16 *382:11 *790:11 0.00218715
17 *382:11 *824:11 0.000190181
18 *382:11 *831:11 0.00135924
19 gpio_dm2[36] gpio_holdover[36] 0.00523477
20 *355:11 *382:11 0.0018028
21 *359:11 *382:11 0.000142915
22 *364:17 *382:11 0.00391331
23 *371:11 *382:11 0.00432786
24 *375:17 *382:11 0.0118677
25 *381:9 *382:9 0.000415705
*RES
1 *921:gpio_holdover[36] *382:9 4.55713 
2 *382:9 *382:11 78.7639 
3 *382:11 gpio_holdover[36] 12.8481 
*END

*D_NET *383 0.161104
*CONN
*P gpio_holdover[37] O
*I *921:gpio_holdover[37] O *D CF_CARAVEL_SOC
*CAP
1 gpio_holdover[37] 0.00311157
2 *921:gpio_holdover[37] 0.00437091
3 *383:11 0.0365717
4 *383:9 0.0378311
5 gpio_holdover[37] gpio_out[37] 0
6 *383:9 gpio_ib_mode_sel[33] 0.000635942
7 *383:9 gpio_vtrip_sel[33] 0.000182509
8 *383:9 *384:9 0
9 *383:11 gpio_ib_mode_sel[36] 0.0081604
10 *383:11 *390:11 0.00236683
11 *383:11 *417:11 0.00339082
12 *383:11 *437:11 0.000117183
13 *383:11 *455:21 0.00700744
14 *383:11 *470:11 0.00373343
15 *383:11 *545:15 0.00135459
16 *383:11 *693:79 0.00184243
17 *383:11 *737:57 0.00134686
18 *383:11 *817:11 0.000282121
19 *383:11 *818:11 0.0447801
20 gpio_analog_sel[37] gpio_holdover[37] 0.00098905
21 gpio_dm2[37] gpio_holdover[37] 0.0013014
22 *339:42 gpio_holdover[37] 2.60489e-05
23 *366:11 *383:11 0.00170131
*RES
1 *921:gpio_holdover[37] *383:9 9.4566 
2 *383:9 *383:11 107.36 
3 *383:11 gpio_holdover[37] 7.65983 
*END

*D_NET *384 0.386778
*CONN
*P gpio_holdover[38] O
*I *921:gpio_holdover[38] O *D CF_CARAVEL_SOC
*CAP
1 gpio_holdover[38] 3.95416e-05
2 *921:gpio_holdover[38] 0.00317267
3 *384:15 0.021351
4 *384:13 0.0213114
5 *384:11 0.0224671
6 *384:9 0.0256398
7 gpio_holdover[38] gpio_out[38] 1.99912e-05
8 *384:9 *385:9 0
9 *384:11 gpio_vtrip_sel[35] 0.00103502
10 *384:11 *420:11 0.0046564
11 *384:11 *456:27 0.103687
12 *384:11 *757:11 0
13 *384:11 *760:11 0.0669299
14 *384:11 *765:11 0
15 *384:11 *832:17 0.00209971
16 *384:15 *736:43 0.0589203
17 *384:15 *855:11 0.0269386
18 gpio_analog_en[38] *384:15 0.00235567
19 *251:27 *384:11 0.000747366
20 *284:49 *384:11 2.43469e-05
21 *293:27 *384:11 0.00441049
22 *295:27 *384:11 0.0117763
23 *362:11 *384:11 0.00132944
24 *368:11 *384:11 0.00683759
25 *373:11 *384:11 0.00102783
26 *383:9 *384:9 0
*RES
1 *921:gpio_holdover[38] *384:9 6.80547 
2 *384:9 *384:11 1181.78 
3 *384:11 *384:13 0.5 
4 *384:13 *384:15 89.1835 
5 *384:15 gpio_holdover[38] 1.2125 
*END

*D_NET *385 0.51009
*CONN
*P gpio_holdover[39] O
*I *921:gpio_holdover[39] O *D CF_CARAVEL_SOC
*CAP
1 gpio_holdover[39] 0.000304616
2 *921:gpio_holdover[39] 0.00269435
3 *385:15 0.0223754
4 *385:13 0.0220708
5 *385:11 0.0194764
6 *385:9 0.0221707
7 *385:9 *387:9 0
8 *385:11 *921:porb_l 0.000211518
9 *385:11 *414:11 0.000279836
10 *385:11 *421:11 0.00484047
11 *385:11 *436:19 2.04875e-05
12 *385:11 *451:21 0.0985852
13 *385:11 *453:25 0.00504621
14 *385:11 *458:11 0.0468553
15 *385:11 *815:11 0.00308374
16 *385:11 *848:23 1.82571e-05
17 *385:11 *857:21 0
18 *385:11 *863:23 0.00133453
19 *385:15 *387:21 0.000378128
20 *385:15 *428:23 0.000215248
21 *385:15 *549:13 0.00124459
22 *385:15 *692:35 0.00170015
23 *385:15 *693:193 0.0391798
24 *385:15 *824:23 0.058026
25 *385:15 *829:35 0.0105867
26 *385:15 *848:11 0.00387516
27 *385:15 *853:11 0.0116905
28 *385:15 *857:11 0.000140954
29 *385:15 *860:11 0.0235182
30 *385:15 *863:11 0.0017226
31 *385:15 *863:21 0.00185783
32 *385:15 *865:11 0.0214691
33 *385:15 *867:11 0.00114225
34 *385:15 *873:13 0.00319612
35 *385:15 *873:29 0.00545178
36 gpio_dm0[34] *385:11 0.00173401
37 gpio_dm2[39] gpio_holdover[39] 0.000302422
38 gpio_holdover[34] *385:11 0.00163743
39 *252:15 *385:15 0.0471502
40 *353:19 *385:11 0.0152637
41 *363:11 *385:11 0.0091166
42 *374:11 *385:11 0.000122765
43 *384:9 *385:9 0
*RES
1 *921:gpio_holdover[39] *385:9 5.8732 
2 *385:9 *385:11 1183.81 
3 *385:11 *385:13 0.5 
4 *385:13 *385:15 156.834 
5 *385:15 gpio_holdover[39] 5.5475 
*END

*D_NET *386 0.863157
*CONN
*P gpio_holdover[3] O
*I *921:gpio_holdover[3] O *D CF_CARAVEL_SOC
*CAP
1 gpio_holdover[3] 0.00201287
2 *921:gpio_holdover[3] 0.0016501
3 *386:211 0.0226407
4 *386:209 0.0206278
5 *386:207 0.0108072
6 *386:205 0.0122535
7 *386:201 0.00477403
8 *386:191 0.00570794
9 *386:189 0.00451581
10 *386:175 0.00472786
11 *386:173 0.00567009
12 *386:161 0.00523709
13 *386:157 0.0040454
14 *386:153 0.00489055
15 *386:139 0.00717862
16 *386:137 0.00550352
17 *386:123 0.00616634
18 *386:107 0.00682843
19 *386:105 0.00199143
20 *386:103 0.00544705
21 *386:91 0.0120553
22 *386:89 0.0105714
23 *386:69 0.0100112
24 *386:45 0.0157061
25 *386:21 0.0163199
26 *386:11 0.0298953
27 *386:9 0.0248836
28 gpio_holdover[3] gpio_out[3] 0
29 *386:9 *756:6 0.000262458
30 *386:11 *425:11 0.000106274
31 *386:11 *429:11 0.000935259
32 *386:11 *435:11 0.00837857
33 *386:11 *449:29 0.00396403
34 *386:11 *471:11 0.00607543
35 *386:11 *797:17 0.000543286
36 *386:11 *798:17 0.00867679
37 *386:11 *819:11 0.0275803
38 *386:11 *825:11 0.00211357
39 *386:11 *826:11 0.0350893
40 *386:11 *829:11 0.00211357
41 *386:11 *831:11 0.0413839
42 *386:11 *834:11 0
43 *386:11 *852:27 0.00198164
44 *386:21 *419:13 0.000180493
45 *386:21 *815:11 0.0131979
46 *386:45 *921:mask_rev[8] 0.00864931
47 *386:45 *397:33 0.000172971
48 *386:45 *454:51 0
49 *386:45 *471:25 0
50 *386:45 *472:11 0.00204038
51 *386:45 *539:151 8.80675e-05
52 *386:45 *550:21 0
53 *386:45 *556:41 0.0188294
54 *386:45 *815:25 0.000175218
55 *386:45 *826:29 0.0044292
56 *386:69 *921:gpio_in[12] 0
57 *386:69 *921:gpio_in[16] 0
58 *386:69 *397:53 0.0109777
59 *386:69 *469:15 0.00164272
60 *386:69 *539:151 0.0134331
61 *386:69 *693:163 0
62 *386:69 *737:147 0.00054934
63 *386:69 *739:80 3.99151e-05
64 *386:69 *815:47 0.015356
65 *386:69 *826:29 0.00585574
66 *386:69 *839:209 2.67582e-05
67 *386:69 *846:13 0.000362686
68 *386:69 *858:11 0.000393224
69 *386:89 gpio_out[39] 0.00576245
70 *386:89 *921:gpio_in[18] 0.00031516
71 *386:89 *397:77 0.00132196
72 *386:89 *539:97 0.00137017
73 *386:89 *693:163 0.000505537
74 *386:89 *693:187 0
75 *386:89 *739:112 0.000323829
76 *386:89 *739:116 0
77 *386:89 *815:47 0.000272388
78 *386:89 *826:29 0.000636328
79 *386:89 *840:19 0.00179713
80 *386:103 gpio_out[39] 0.00245662
81 *386:103 *419:37 9.2599e-05
82 *386:103 *419:45 3.98864e-05
83 *386:103 *541:37 0.00513677
84 *386:103 *541:41 6.0872e-05
85 *386:107 *419:47 0.0154953
86 *386:123 *419:63 0.0152535
87 *386:123 *540:24 0.00106479
88 *386:137 *419:77 0.000121978
89 *386:137 *540:24 0.00126206
90 *386:137 *562:25 4.81484e-06
91 *386:137 *562:33 0.0110066
92 *386:139 *419:85 2.54522e-05
93 *386:139 *419:93 0.00193602
94 *386:139 *539:35 1.33293e-05
95 *386:139 *551:41 0.00163121
96 *386:139 *696:147 0.00974443
97 *386:153 *533:36 0
98 *386:153 *539:31 0.000197254
99 *386:153 *696:145 0.000152609
100 *386:157 *419:117 0.000270404
101 *386:157 *530:41 0.000468782
102 *386:157 *535:33 0.000965328
103 *386:157 *539:11 0
104 *386:157 *551:77 0.000827714
105 *386:157 *562:57 0.000506774
106 *386:157 *569:18 0
107 *386:157 *696:125 0
108 *386:157 *696:145 0
109 *386:161 *535:33 0.00114454
110 *386:161 *539:11 0
111 *386:161 *696:125 0.00140028
112 *386:173 *408:53 4.437e-05
113 *386:175 *419:133 0.0013552
114 *386:175 *530:43 7.67415e-06
115 *386:175 *740:133 0.00232906
116 *386:175 *740:141 0.0014373
117 *386:175 *826:79 0.00176684
118 *386:189 *533:68 3.91983e-05
119 *386:189 *535:65 0.000153676
120 *386:189 *741:160 0.00237034
121 *386:189 *826:93 0.000184164
122 *386:189 *826:117 8.53113e-06
123 *386:191 *408:63 0.00173367
124 *386:191 *419:157 0.00106942
125 *386:191 *740:117 0.00179316
126 *386:191 *740:121 6.76899e-05
127 *386:191 *740:123 0
128 *386:201 *535:93 0.000135363
129 *386:201 *536:51 0
130 *386:201 *537:32 0
131 *386:205 *408:95 0
132 *386:205 *536:51 0
133 *386:205 *740:93 0
134 *386:207 *474:15 1.19756e-05
135 *386:207 *480:15 0.000575155
136 *386:207 *554:13 0.00105905
137 *386:207 *559:19 0.00368268
138 *386:211 *826:131 0.0060298
139 gpio_dm2[3] gpio_holdover[3] 0.000372474
140 *118:53 *386:201 0.00724995
141 *118:69 *386:189 0.00770321
142 *118:133 *386:137 0.011081
143 *118:145 *386:123 7.3035e-05
144 *118:147 *386:107 0.0154196
145 *118:159 *386:103 0.0301966
146 *118:163 *386:91 0.020645
147 *118:177 *386:89 3.82728e-05
148 *118:179 *386:89 0.000290789
149 *164:35 *386:207 0.0132493
150 *168:11 *386:211 0
151 *168:15 *386:207 0.000955335
152 *238:15 *386:207 0.000375953
153 *253:15 *386:207 0.00686147
154 *261:11 *386:211 0.0522273
155 *269:11 *386:211 0.0342305
156 *292:15 *386:69 0.000360425
157 *292:27 *386:21 0
158 *294:15 *386:207 0.0104865
159 *295:27 *386:21 0
160 *322:79 *386:205 0.00187309
161 *322:93 *386:201 0
162 *322:131 *386:157 0.000307807
163 *322:131 *386:161 0
164 *322:255 *386:45 0.000235065
165 *325:57 *386:173 0.00683187
166 *325:85 *386:103 0.0058918
167 *325:87 *386:103 0.00692687
168 *325:101 *386:89 0.00239731
169 *325:117 *386:69 0.000307039
170 *325:133 *386:69 0.000436526
171 *325:145 *386:69 0.0133965
172 *325:157 *386:45 0.000208347
173 *336:29 *386:189 0.000198769
174 *338:33 *386:173 0
175 *338:69 *386:103 0.000941168
176 *339:23 *386:45 0.00146338
177 *353:17 *386:21 4.57523e-06
178 *353:19 *386:21 0.00275779
179 *375:17 *386:9 0
*RES
1 *921:gpio_holdover[3] *386:9 3.97447 
2 *386:9 *386:11 138.196 
3 *386:11 *386:21 28.1659 
4 *386:21 *386:45 41.1248 
5 *386:45 *386:69 49.2932 
6 *386:69 *386:89 31.2285 
7 *386:89 *386:91 186.06 
8 *386:91 *386:103 49.3157 
9 *386:103 *386:105 2 
10 *386:105 *386:107 141.9 
11 *386:107 *386:123 48.4253 
12 *386:123 *386:137 22.6629 
13 *386:137 *386:139 113.955 
14 *386:139 *386:153 26.8627 
15 *386:153 *386:157 47.6325 
16 *386:157 *386:161 46.0925 
17 *386:161 *386:173 29.9326 
18 *386:173 *386:175 68.07 
19 *386:175 *386:189 20.8867 
20 *386:189 *386:191 59.1 
21 *386:191 *386:201 22.3113 
22 *386:201 *386:205 30.0275 
23 *386:205 *386:207 367.53 
24 *386:207 *386:209 2 
25 *386:209 *386:211 742.537 
26 *386:211 gpio_holdover[3] 4.58563 
*END

*D_NET *387 0.453961
*CONN
*P gpio_holdover[40] O
*I *921:gpio_holdover[40] O *D CF_CARAVEL_SOC
*CAP
1 gpio_holdover[40] 0.000170528
2 *921:gpio_holdover[40] 0.00295195
3 *387:23 0.0163235
4 *387:21 0.0201492
5 *387:11 0.0370944
6 *387:9 0.0360501
7 gpio_holdover[40] gpio_out[40] 0
8 *387:9 *472:25 0.00446612
9 *387:9 *737:39 9.54817e-06
10 *387:11 *395:19 0.0042312
11 *387:11 *440:19 0.00706258
12 *387:11 *469:11 0
13 *387:11 *539:159 0.0351173
14 *387:11 *539:165 0.000517726
15 *387:11 *539:167 0
16 *387:11 *554:23 4.1178e-05
17 *387:11 *736:39 0
18 *387:11 *737:89 0.0104779
19 *387:11 *770:11 0.0113484
20 *387:21 *428:23 0.016273
21 *387:21 *549:13 0.00200739
22 *387:21 *549:23 1.05516e-05
23 *387:21 *736:43 0.00458723
24 *387:21 *824:23 0.000555153
25 *387:21 *848:21 0.0111886
26 *387:21 *857:11 0.00358842
27 *387:21 *863:11 0.00172241
28 *387:21 *863:21 2.11032e-05
29 *387:23 *428:23 0.000142448
30 *387:23 *692:35 0.0152116
31 *387:23 *736:43 0.00133643
32 *387:23 *857:11 0.0185591
33 gpio_dm2[40] gpio_holdover[40] 8.62579e-05
34 *118:211 *387:11 0
35 *251:15 *387:23 0.0411813
36 *251:25 *387:21 6.42299e-05
37 *284:23 *387:23 0.0739767
38 *284:49 *387:21 0.000253709
39 *335:33 *387:23 0.0354962
40 *338:83 *387:11 0.0324933
41 *365:11 *387:11 0.00881585
42 *385:9 *387:9 0
43 *385:15 *387:21 0.000378128
*RES
1 *921:gpio_holdover[40] *387:9 7.67947 
2 *387:9 *387:11 1190.44 
3 *387:11 *387:21 32.9502 
4 *387:21 *387:23 970.59 
5 *387:23 gpio_holdover[40] 5.015 
*END

*D_NET *388 0.51923
*CONN
*P gpio_holdover[41] O
*I *921:gpio_holdover[41] O *D CF_CARAVEL_SOC
*CAP
1 gpio_holdover[41] 0.000696403
2 *921:gpio_holdover[41] 0.00145022
3 *388:23 0.0399203
4 *388:21 0.0396463
5 *388:11 0.0222533
6 *388:9 0.023281
7 *388:9 *389:9 0
8 *388:9 *737:39 1.84453e-05
9 *388:9 *756:6 0.000206859
10 *388:11 *413:11 0.00367088
11 *388:11 *418:11 0.00191029
12 *388:11 *425:11 0.00434779
13 *388:11 *460:21 3.86814e-05
14 *388:11 *543:21 6.02846e-05
15 *388:11 *543:23 0.00774308
16 *388:11 *737:73 0.00299682
17 *388:11 *749:25 0.00225605
18 *388:11 *771:11 0.0653899
19 *388:11 *771:25 1.20478e-05
20 *388:11 *790:11 0.0352856
21 *388:11 *808:11 0
22 *388:11 *824:11 0.0617388
23 *388:11 *861:25 0.00102843
24 *388:11 *861:27 0.000776953
25 *388:11 *864:15 0
26 *388:21 *435:21 0.000793919
27 *388:21 *465:21 8.09537e-06
28 *388:21 *851:15 0.000167735
29 *388:21 *861:25 0.00017374
30 *388:21 *864:11 0.0010006
31 *388:23 *843:11 0.0306911
32 *388:23 *850:11 0.126931
33 *388:23 *851:11 0.0095215
34 *388:23 *856:11 0.0167092
35 *388:23 *861:11 1.19028e-05
36 gpio_dm2[41] gpio_holdover[41] 0.000930302
37 *353:29 *388:21 0.000281339
38 *353:31 *388:23 0
39 *355:11 *388:11 0.0134414
40 *375:25 *388:9 0.0022025
41 *382:11 *388:11 0.0016377
*RES
1 *921:gpio_holdover[41] *388:9 4.44187 
2 *388:9 *388:11 1182.29 
3 *388:11 *388:21 7.09483 
4 *388:21 *388:23 1317.31 
5 *388:23 gpio_holdover[41] 14.93 
*END

*D_NET *389 0.598622
*CONN
*P gpio_holdover[42] O
*I *921:gpio_holdover[42] O *D CF_CARAVEL_SOC
*CAP
1 gpio_holdover[42] 0.00156852
2 *921:gpio_holdover[42] 0.00249691
3 *389:23 0.0309494
4 *389:21 0.029915
5 *389:11 0.0179508
6 *389:9 0.0199136
7 gpio_holdover[42] *560:25 0
8 *389:9 *756:6 0.000206859
9 *389:11 gpio_slow_sel[35] 0.000744246
10 *389:11 *423:11 0.00705807
11 *389:11 *438:19 0.0645158
12 *389:11 *449:21 0.00131657
13 *389:11 *453:41 0.0971616
14 *389:11 *793:11 0.0106924
15 *389:11 *827:11 0.00983184
16 *389:11 *857:23 0.0239567
17 *389:21 *390:21 0.00148974
18 *389:21 *760:21 0.00124137
19 *389:21 *865:15 0
20 *389:23 *390:23 0.000169281
21 *389:23 *760:23 0.165028
22 *389:23 *845:19 0.000101392
23 *389:23 *847:8 0.000369897
24 gpio_analog_pol[33] *389:9 0
25 gpio_analog_sel[42] gpio_holdover[42] 0
26 gpio_dm2[42] gpio_holdover[42] 0.000429359
27 *249:15 *389:23 0.068181
28 *295:25 *389:21 1.14185e-05
29 *339:23 *389:23 0.0354061
30 *357:19 *389:11 0.00556865
31 *358:17 *389:11 0.000233006
32 *361:17 *389:11 0.00211463
33 *375:19 *389:11 0
34 *388:9 *389:9 0
*RES
1 *921:gpio_holdover[42] *389:9 5.31587 
2 *389:9 *389:11 1175.66 
3 *389:11 *389:21 8.5083 
4 *389:21 *389:23 1528.8 
5 *389:23 gpio_holdover[42] 25.01 
*END

*D_NET *390 0.653461
*CONN
*P gpio_holdover[43] O
*I *921:gpio_holdover[43] O *D CF_CARAVEL_SOC
*CAP
1 gpio_holdover[43] 0.00153688
2 *921:gpio_holdover[43] 0.00343046
3 *390:23 0.0324709
4 *390:21 0.0327579
5 *390:11 0.0194943
6 *390:9 0.0211009
7 gpio_holdover[43] gpio_out[43] 0
8 *390:11 gpio_ib_mode_sel[36] 0.000173924
9 *390:11 gpio_ib_mode_sel[37] 0.000496609
10 *390:11 *417:11 0.0644533
11 *390:11 *455:21 0.106215
12 *390:11 *818:11 0.00999527
13 *390:21 *429:17 1.61489e-05
14 *390:21 *470:15 0.00052782
15 *390:21 *554:23 0.00125675
16 *390:21 *760:21 0.000588527
17 *390:21 *825:21 0.000298242
18 *390:21 *829:29 6.02846e-05
19 *390:23 *472:11 0.00684661
20 *390:23 *760:23 0.0970665
21 *390:23 *847:8 0.0230994
22 *390:23 *852:11 0.142064
23 gpio_analog_pol[33] *390:9 0.000549648
24 gpio_dm2[43] gpio_holdover[43] 0
25 *164:43 *390:23 0.00978531
26 *206:57 *390:9 0.00558112
27 *249:15 *390:23 0
28 *249:25 *390:21 0.000112104
29 *255:15 *390:23 0.00030434
30 *294:25 *390:23 0.00327721
31 *295:25 *390:21 0.00126735
32 *322:259 *390:23 0.00163478
33 *336:67 *390:11 0.0225847
34 *339:23 *390:23 0.00507634
35 *343:15 *390:23 0.015717
36 *364:39 *390:23 0.0179308
37 *369:11 *390:11 0.00166481
38 *383:11 *390:11 0.00236683
39 *389:21 *390:21 0.00148974
40 *389:23 *390:23 0.000169281
*RES
1 *921:gpio_holdover[43] *390:9 9.48573 
2 *390:9 *390:11 1182.29 
3 *390:11 *390:21 14.1533 
4 *390:21 *390:23 1735.8 
5 *390:23 gpio_holdover[43] 22.985 
*END

*D_NET *391 0.467223
*CONN
*P gpio_holdover[4] O
*I *921:gpio_holdover[4] O *D CF_CARAVEL_SOC
*CAP
1 gpio_holdover[4] 0.00194487
2 *921:gpio_holdover[4] 0.00133251
3 *391:51 0.00495576
4 *391:49 0.00457267
5 *391:43 0.00616715
6 *391:41 0.00576222
7 *391:33 0.00673528
8 *391:15 0.0707367
9 *391:13 0.0651583
10 *391:11 0.0157569
11 *391:9 0.0170894
12 gpio_holdover[4] gpio_out[4] 0
13 *391:9 *392:9 0
14 *391:11 *393:11 0.000229963
15 *391:11 *448:13 0.00538556
16 *391:11 *453:35 0.00013192
17 *391:11 *798:19 0.00253586
18 *391:11 *834:11 0
19 *391:15 *536:149 0.000593988
20 *391:15 *831:31 0.081395
21 *391:33 *694:10 0.00196126
22 *391:33 *738:15 0.00175396
23 *391:33 *832:57 3.69971e-05
24 *391:43 *481:11 0
25 *391:51 *571:39 0.00356909
26 gpio_analog_pol[5] *391:43 0.000306412
27 gpio_dm2[4] gpio_holdover[4] 0
28 *90:11 *391:33 0.0110668
29 *104:25 *391:43 0.00191398
30 *104:25 *391:49 0
31 *141:29 *391:15 0.00705155
32 *159:13 *391:33 0.00533467
33 *161:19 *391:11 0.0281821
34 *169:9 *391:33 0
35 *170:9 *391:33 9.78223e-05
36 *222:19 *391:41 0.0026891
37 *224:19 *391:43 0.0125367
38 *228:25 *391:15 0.000575185
39 *230:25 *391:15 0.00797013
40 *230:25 *391:33 0.000429708
41 *241:11 *391:41 0.0026891
42 *242:25 *391:15 0.000142189
43 *244:15 *391:15 0.0806264
44 *247:15 *391:15 0.00101038
45 *247:15 *391:33 0.000119804
46 *277:15 *391:15 0.00136337
47 *283:11 *391:51 0.00356733
48 *286:39 *391:15 7.51597e-05
49 *288:67 *391:33 0.000992636
50 *327:39 *391:43 2.99518e-06
51 *371:11 *391:11 0
52 *375:57 *391:43 0.000674665
*RES
1 *921:gpio_holdover[4] *391:9 3.28033 
2 *391:9 *391:11 54.302 
3 *391:11 *391:13 0.5 
4 *391:13 *391:15 377.606 
5 *391:15 *391:33 27.359 
6 *391:33 *391:41 33.3018 
7 *391:41 *391:43 139.335 
8 *391:43 *391:49 3.71827 
9 *391:49 *391:51 104.655 
10 *391:51 gpio_holdover[4] 4.09797 
*END

*D_NET *392 0.742589
*CONN
*P gpio_holdover[5] O
*I *921:gpio_holdover[5] O *D CF_CARAVEL_SOC
*CAP
1 gpio_holdover[5] 0.000734205
2 *921:gpio_holdover[5] 0.00391848
3 *392:59 0.00407772
4 *392:57 0.00439699
5 *392:47 0.00645934
6 *392:45 0.00586859
7 *392:35 0.00441182
8 *392:33 0.00394909
9 *392:31 0.0143348
10 *392:29 0.0145044
11 *392:23 0.01899
12 *392:21 0.0188205
13 *392:19 0.00397699
14 *392:17 0.00572999
15 *392:11 0.00567574
16 *392:9 0.00784123
17 gpio_holdover[5] gpio_out[5] 0.00120574
18 *392:9 gpio_ib_mode_sel[34] 0.000424518
19 *392:9 gpio_oeb[34] 0.0011595
20 *392:9 *393:9 0
21 *392:9 *831:25 0
22 *392:11 *763:11 0
23 *392:11 *775:11 0.00916831
24 *392:19 *402:11 0.00618203
25 *392:19 *541:111 0.00627526
26 *392:19 *690:23 0.0166226
27 *392:19 *772:11 0.000318208
28 *392:23 *705:33 0.0335994
29 *392:31 *683:11 0.0247169
30 *392:35 *831:41 0.000257697
31 *392:57 *436:27 0.000522389
32 gpio_dm2[5] gpio_holdover[5] 0
33 *116:41 *392:45 5.11076e-05
34 *116:53 *392:35 0
35 *116:55 *392:31 0.111475
36 *117:33 *392:45 0
37 *117:35 *392:35 0.0052341
38 *117:39 *392:23 0.140163
39 *140:41 *392:47 8.9035e-05
40 *157:37 *392:45 0.000215907
41 *160:15 *392:31 0.111662
42 *193:61 *392:23 0.000298591
43 *196:25 *392:35 0.000134703
44 *198:25 *392:35 0
45 *205:27 *392:35 0.000261013
46 *205:53 *392:23 0.140163
47 *206:43 *392:57 0.000216466
48 *217:11 *392:59 0.00774452
49 *283:11 *392:57 0.000443005
50 *328:51 *392:45 2.00977e-05
51 *328:53 *392:45 0.000134196
52 *329:58 *392:45 0.000141632
53 *330:13 *392:45 0
54 *391:9 *392:9 0
*RES
1 *921:gpio_holdover[5] *392:9 8.96133 
2 *392:9 *392:11 106.185 
3 *392:11 *392:17 4.12613 
4 *392:17 *392:19 199.005 
5 *392:19 *392:21 0.5 
6 *392:21 *392:23 206.477 
7 *392:23 *392:29 5.0275 
8 *392:29 *392:31 1027.17 
9 *392:31 *392:33 2 
10 *392:33 *392:35 102.232 
11 *392:35 *392:45 10.0314 
12 *392:45 *392:47 76.005 
13 *392:47 *392:57 28.875 
14 *392:57 *392:59 89.4825 
15 *392:59 gpio_holdover[5] 2.56277 
*END

*D_NET *393 0.6785
*CONN
*P gpio_holdover[6] O
*I *921:gpio_holdover[6] O *D CF_CARAVEL_SOC
*CAP
1 gpio_holdover[6] 0.00242047
2 *921:gpio_holdover[6] 0.00148594
3 *393:23 0.0353218
4 *393:21 0.0363568
5 *393:11 0.0178696
6 *393:9 0.0159001
7 gpio_holdover[6] gpio_out[6] 0.000413695
8 gpio_holdover[6] gpio_vtrip_sel[6] 0.00175894
9 gpio_holdover[6] *782:19 0
10 *393:9 *831:25 0.000213986
11 *393:11 *791:23 0.00269015
12 *393:11 *808:11 0.00278944
13 *393:11 *819:11 0.0146404
14 *393:11 *831:11 6.58626e-05
15 *393:21 *687:17 0.000359299
16 *393:23 *437:31 0.000266641
17 *393:23 *688:11 0.0481872
18 *393:23 *693:19 0.202004
19 *393:23 *716:11 0.22697
20 *393:23 *744:11 0.00435051
21 gpio_analog_pol[33] *393:11 0
22 gpio_dm2[6] gpio_holdover[6] 0
23 *115:15 *393:23 0.000237448
24 *116:63 *393:21 0.01583
25 *117:39 *393:21 0.016919
26 *160:15 *393:23 0.0138118
27 *161:19 *393:11 0.00746349
28 *219:11 gpio_holdover[6] 0.00358095
29 *354:11 *393:11 0.00501638
30 *371:11 *393:11 0
31 *375:17 *393:11 0.00134585
32 *382:11 *393:11 0
33 *391:11 *393:11 0.000229963
34 *392:9 *393:9 0
*RES
1 *921:gpio_holdover[6] *393:9 3.62993 
2 *393:9 *393:11 50.5983 
3 *393:11 *393:21 31.1518 
4 *393:21 *393:23 2130.48 
5 *393:23 gpio_holdover[6] 45.8183 
*END

*D_NET *394 0.80181
*CONN
*P gpio_holdover[7] O
*I *921:gpio_holdover[7] O *D CF_CARAVEL_SOC
*CAP
1 gpio_holdover[7] 0.00719521
2 *921:gpio_holdover[7] 0.00352131
3 *394:19 0.0290044
4 *394:17 0.0218091
5 *394:15 0.0675714
6 *394:13 0.0675714
7 *394:11 0.00579025
8 *394:9 0.00931156
9 gpio_holdover[7] *571:39 7.58539e-05
10 gpio_holdover[7] *746:13 0
11 *394:9 gpio_out[34] 0.00273041
12 *394:9 *395:17 0
13 *394:9 *737:63 0
14 *394:11 *759:11 0.027917
15 *394:11 *774:11 0.0279192
16 *394:15 *395:23 0.25452
17 *394:15 *438:23 4.70134e-05
18 *394:15 *730:19 0.0871876
19 *394:15 *755:15 0.112726
20 *394:15 *759:15 0.000135132
21 *394:15 *761:15 3.97095e-06
22 *394:19 *438:27 0.0306767
23 *394:19 *754:27 0
24 gpio_dm2[7] gpio_holdover[7] 0.00628104
25 gpio_holdover[34] *394:9 0
26 *148:13 *394:15 0
27 *264:11 gpio_holdover[7] 0
28 *334:36 *394:15 3.48975e-05
29 *361:17 *394:15 0.00456674
30 *361:33 *394:15 0.0352139
*RES
1 *921:gpio_holdover[7] *394:9 8.72827 
2 *394:9 *394:11 323.445 
3 *394:11 *394:13 0.5 
4 *394:13 *394:15 375.159 
5 *394:15 *394:17 0.5 
6 *394:17 *394:19 588.135 
7 *394:19 gpio_holdover[7] 21.9748 
*END

*D_NET *395 0.835216
*CONN
*P gpio_holdover[8] O
*I *921:gpio_holdover[8] O *D CF_CARAVEL_SOC
*CAP
1 gpio_holdover[8] 0.00440585
2 *921:gpio_holdover[8] 0.012988
3 *395:27 0.0197204
4 *395:25 0.0153146
5 *395:23 0.0325302
6 *395:21 0.0325302
7 *395:19 0.00427552
8 *395:17 0.0172635
9 gpio_holdover[8] gpio_out[8] 0.000266839
10 gpio_holdover[8] *747:11 0.0104508
11 *395:17 *396:9 0
12 *395:17 *737:63 0.00123985
13 *395:19 *770:11 0.0176311
14 *395:23 *438:23 0.252856
15 *395:23 *759:15 0.000606248
16 *395:27 *438:27 0.0312316
17 *395:27 *440:35 0.0681548
18 gpio_dm2[8] gpio_holdover[8] 0.00746032
19 *361:17 *395:23 0.00456674
20 *361:33 *395:23 0.0354194
21 *365:11 *395:19 0.00755289
22 *377:9 *395:17 0
23 *387:11 *395:19 0.0042312
24 *394:9 *395:17 0
25 *394:15 *395:23 0.25452
*RES
1 *921:gpio_holdover[8] *395:17 29.2147 
2 *395:17 *395:19 204.615 
3 *395:19 *395:21 0.5 
4 *395:21 *395:23 373.935 
5 *395:23 *395:25 0.5 
6 *395:25 *395:27 758.985 
7 *395:27 gpio_holdover[8] 19.4791 
*END

*D_NET *396 0.655317
*CONN
*P gpio_holdover[9] O
*I *921:gpio_holdover[9] O *D CF_CARAVEL_SOC
*CAP
1 gpio_holdover[9] 0.0976811
2 *921:gpio_holdover[9] 0.0046167
3 *396:13 0.0976811
4 *396:11 0.0408287
5 *396:9 0.0454454
6 gpio_holdover[9] *748:11 0.236309
7 gpio_holdover[9] *836:15 0
8 *396:9 gpio_inp_dis[34] 0.00364461
9 *396:11 *409:11 0.107519
10 *396:11 *465:11 0
11 *396:11 *472:15 0.0134484
12 *396:11 *754:11 0.000237196
13 *396:11 *773:11 0
14 *396:11 *802:11 0.0063625
15 gpio_dm2[9] gpio_holdover[9] 0
16 *322:301 *396:11 0.00154301
17 *322:375 gpio_holdover[9] 0
18 *354:9 *396:9 0
19 *395:17 *396:9 0
*RES
1 *921:gpio_holdover[9] *396:9 11.1172 
2 *396:9 *396:11 1242.97 
3 *396:11 *396:13 0.5 
4 *396:13 gpio_holdover[9] 395.969 
*END

*D_NET *397 0.652022
*CONN
*P gpio_ib_mode_sel[0] O
*I *921:gpio_ib_mode_sel[0] O *D CF_CARAVEL_SOC
*CAP
1 gpio_ib_mode_sel[0] 0.00157589
2 *921:gpio_ib_mode_sel[0] 0.00674444
3 *397:177 0.00561491
4 *397:175 0.00403902
5 *397:173 0.00951928
6 *397:171 0.00996455
7 *397:151 0.00281763
8 *397:149 0.00330563
9 *397:135 0.00321121
10 *397:133 0.00344409
11 *397:117 0.0018764
12 *397:109 0.00315702
13 *397:97 0.00315019
14 *397:93 0.00146037
15 *397:79 0.0189588
16 *397:77 0.0244952
17 *397:53 0.0137682
18 *397:33 0.0117439
19 *397:13 0.0110135
20 gpio_ib_mode_sel[0] gpio_oeb[0] 0
21 gpio_ib_mode_sel[0] gpio_vtrip_sel[0] 0
22 *397:13 *921:mask_rev[31] 0
23 *397:13 *408:9 0
24 *397:13 *430:11 0.0256686
25 *397:13 *433:6 0.000262458
26 *397:13 *542:23 0.0032372
27 *397:13 *785:11 0.0013719
28 *397:13 *804:11 0.0150739
29 *397:13 *853:21 0.000376527
30 *397:13 *853:23 0.00357278
31 *397:33 *419:21 0.0165526
32 *397:33 *419:23 0.00023108
33 *397:33 *539:151 0.00157698
34 *397:33 *556:37 0.00211949
35 *397:33 *556:41 6.36083e-05
36 *397:33 *693:117 0.000123038
37 *397:33 *737:127 0.00036132
38 *397:33 *739:58 0.000359017
39 *397:33 *826:29 0.0045986
40 *397:33 *840:19 0.00111162
41 *397:53 *921:gpio_in[11] 1.74629e-05
42 *397:53 *921:gpio_in[12] 0.00197727
43 *397:53 *921:gpio_in[16] 0
44 *397:53 *539:117 0.000337995
45 *397:53 *539:151 0.0122259
46 *397:53 *556:37 3.56151e-05
47 *397:53 *737:147 0.00174116
48 *397:53 *739:80 0.000368752
49 *397:53 *739:92 0.000372439
50 *397:53 *826:29 0.00603723
51 *397:77 gpio_out[39] 0.000411263
52 *397:77 *921:gpio_in[15] 8.57101e-05
53 *397:77 *921:gpio_in[16] 0.00291924
54 *397:77 *921:gpio_in[18] 0.00174991
55 *397:77 *419:23 0.000239923
56 *397:77 *444:71 0.000297002
57 *397:77 *472:55 0
58 *397:77 *539:75 0.00141649
59 *397:77 *541:57 0.00426842
60 *397:77 *693:187 0.0030893
61 *397:77 *739:120 0
62 *397:77 *826:29 0.00132233
63 *397:77 *840:19 0.00149816
64 *397:79 *921:gpio_in[41] 0.00176013
65 *397:79 *444:71 0.017188
66 *397:79 *472:55 0.00982738
67 *397:79 *529:9 0.00823054
68 *397:79 *539:55 1.34594e-05
69 *397:79 *556:11 0.0998274
70 *397:79 *570:14 0.00598043
71 *397:79 *826:45 0.00149961
72 *397:79 *840:19 0.00073817
73 *397:93 *532:14 0.000384635
74 *397:93 *540:24 0.000378385
75 *397:93 *551:49 8.67074e-05
76 *397:93 *826:61 0.000784803
77 *397:97 *419:101 0.00489585
78 *397:97 *530:29 0.00512479
79 *397:97 *533:36 0.000320972
80 *397:97 *826:63 0.000164895
81 *397:109 *533:52 0
82 *397:109 *535:33 2.77016e-05
83 *397:109 *540:24 0.000649332
84 *397:109 *562:65 2.60003e-05
85 *397:109 *696:117 4.33071e-05
86 *397:109 *696:125 6.06593e-05
87 *397:109 *696:145 8.3907e-05
88 *397:109 *740:165 0.0011209
89 *397:109 *740:169 0
90 *397:109 *826:77 0.0085688
91 *397:117 *408:53 8.53113e-06
92 *397:117 *419:119 0.00481411
93 *397:117 *530:43 0.00492761
94 *397:117 *535:33 0.000874648
95 *397:117 *826:79 4.0843e-05
96 *397:133 *535:65 0.00369871
97 *397:133 *551:79 0.000992226
98 *397:133 *551:93 0.00729959
99 *397:133 *562:89 0.00731863
100 *397:133 *740:141 7.96104e-06
101 *397:135 *535:93 0.00160939
102 *397:135 *536:35 0
103 *397:135 *537:24 1.61831e-05
104 *397:135 *569:18 0
105 *397:135 *740:121 8.73389e-06
106 *397:135 *740:123 0.00798743
107 *397:135 *826:117 0.0001049
108 *397:149 *419:157 0.00619867
109 *397:149 *535:93 0.00152375
110 *397:149 *551:109 0.00620145
111 *397:149 *562:107 2.27756e-05
112 *397:149 *740:117 0.00115601
113 *397:151 *408:79 0.00681875
114 *397:151 *530:77 9.51995e-05
115 *397:171 *408:95 0.00019208
116 *397:171 *419:175 3.02513e-05
117 *397:171 *530:77 0.00150217
118 *397:171 *535:95 0.000108569
119 *397:171 *537:48 0.00146554
120 *397:171 *562:117 7.18452e-06
121 *397:173 *408:97 0.0393319
122 *397:173 *419:175 0.00549597
123 *397:173 *419:191 0.00208792
124 *397:173 *530:107 3.48975e-05
125 *397:173 *551:121 0.00492039
126 *397:177 *529:13 0.0175825
127 *397:177 *815:53 0.000554868
128 gpio_analog_sel[43] *397:173 0.00323224
129 *118:93 *397:109 0.00028079
130 *118:113 *397:93 0.000367447
131 *118:177 *397:77 0.00366066
132 *118:179 *397:77 0.000473182
133 *118:209 *397:33 0.0151908
134 *120:11 *397:177 0
135 *293:15 *397:79 0
136 *322:61 *397:173 0.0054686
137 *322:113 *397:135 0.00138125
138 *322:165 *397:79 0.00114226
139 *322:167 *397:79 0.0260108
140 *322:211 *397:77 0.000416363
141 *322:235 *397:53 0.00204748
142 *325:57 *397:117 1.63407e-05
143 *336:41 *397:109 0.000610792
144 *353:35 *397:177 0.0194906
145 *386:45 *397:33 0.000172971
146 *386:69 *397:53 0.0109777
147 *386:89 *397:77 0.00132196
*RES
1 *921:gpio_ib_mode_sel[0] *397:13 49.3727 
2 *397:13 *397:33 41.5625 
3 *397:33 *397:53 48.712 
4 *397:53 *397:77 43.8618 
5 *397:77 *397:79 900.9 
6 *397:79 *397:93 14.7187 
7 *397:93 *397:97 49.025 
8 *397:97 *397:109 17.7934 
9 *397:109 *397:117 49.735 
10 *397:117 *397:133 31.3608 
11 *397:133 *397:135 72.555 
12 *397:135 *397:149 16.5743 
13 *397:149 *397:151 64.62 
14 *397:151 *397:171 25.7675 
15 *397:171 *397:173 60.1109 
16 *397:173 *397:175 0.5 
17 *397:175 *397:177 227.055 
18 *397:177 gpio_ib_mode_sel[0] 3.60017 
*END

*D_NET *398 0.871821
*CONN
*P gpio_ib_mode_sel[10] O
*I *921:gpio_ib_mode_sel[10] O *D CF_CARAVEL_SOC
*CAP
1 gpio_ib_mode_sel[10] 1.65283e-05
2 *921:gpio_ib_mode_sel[10] 0.0105269
3 *398:23 0.0985282
4 *398:21 0.0985117
5 *398:19 0.0369701
6 *398:17 0.0474971
7 *398:17 gpio_ib_mode_sel[37] 4.12356e-05
8 *398:17 *422:11 0.00284802
9 *398:17 *437:11 0.00639574
10 *398:17 *440:17 0
11 *398:17 *546:25 0.00152445
12 *398:17 *873:49 0.00152445
13 *398:19 gpio_vtrip_sel[30] 0.00138729
14 *398:19 *412:11 0.173538
15 *398:19 *422:11 0.00166436
16 *398:19 *546:25 0
17 *398:19 *693:91 0.0136893
18 *398:19 *813:11 0.116374
19 *398:19 *816:25 0.0024226
20 *398:19 *823:15 0.0029324
21 *398:19 *873:49 0
22 *398:23 gpio_oeb[27] 0.009673
23 *398:23 *662:11 0.218259
24 *398:23 *794:15 0
25 gpio_holdover[33] *398:19 0.00058111
26 *205:67 *398:19 0.00526013
27 *369:19 *398:19 0.0189944
28 *369:23 *398:19 0.00266019
*RES
1 *921:gpio_ib_mode_sel[10] *398:17 38.6817 
2 *398:17 *398:19 1930.45 
3 *398:19 *398:21 0.5 
4 *398:21 *398:23 395.095 
5 *398:23 gpio_ib_mode_sel[10] 0.0475 
*END

*D_NET *399 0.904205
*CONN
*P gpio_ib_mode_sel[11] O
*I *921:gpio_ib_mode_sel[11] O *D CF_CARAVEL_SOC
*CAP
1 gpio_ib_mode_sel[11] 0.00226654
2 *921:gpio_ib_mode_sel[11] 0.000784824
3 *399:23 0.0858676
4 *399:21 0.0836011
5 *399:19 0.0453708
6 *399:17 0.0456125
7 *399:11 0.0113201
8 *399:9 0.0118633
9 gpio_ib_mode_sel[11] *663:11 0
10 gpio_ib_mode_sel[11] *795:23 0.00170898
11 *399:9 *400:9 0
12 *399:11 *434:11 0.00289203
13 *399:11 *454:41 0.0427959
14 *399:11 *542:31 0.00062336
15 *399:11 *794:11 0.00914744
16 *399:11 *804:11 0.00666106
17 *399:11 *834:11 0
18 *399:11 *835:11 9.23688e-05
19 *399:17 *753:9 3.25711e-05
20 *399:19 *400:19 0.161424
21 *399:19 *405:11 0.074868
22 *399:19 *750:11 0.0388413
23 *399:19 *752:11 0.00838859
24 *399:23 gpio_oeb[26] 0.0099737
25 *399:23 *663:11 0
26 *399:23 *795:23 0.259446
27 *274:239 *399:23 0.000622396
*RES
1 *921:gpio_ib_mode_sel[11] *399:9 2.17073 
2 *399:9 *399:11 76.9551 
3 *399:11 *399:17 1.41673 
4 *399:17 *399:19 1796.83 
5 *399:19 *399:21 0.5 
6 *399:21 *399:23 381.306 
7 *399:23 gpio_ib_mode_sel[11] 5.6525 
*END

*D_NET *400 0.955257
*CONN
*P gpio_ib_mode_sel[12] O
*I *921:gpio_ib_mode_sel[12] O *D CF_CARAVEL_SOC
*CAP
1 gpio_ib_mode_sel[12] 7.95563e-05
2 *921:gpio_ib_mode_sel[12] 0.000608075
3 *400:23 0.0957516
4 *400:21 0.0956721
5 *400:19 0.0315049
6 *400:17 0.0315458
7 *400:11 0.0222232
8 *400:9 0.0227904
9 *400:9 *401:9 0
10 *400:11 *401:11 0.00292426
11 *400:11 *784:9 0
12 *400:11 *786:11 0.0408388
13 *400:11 *828:11 0.00233493
14 *400:11 *830:11 0.00667941
15 *400:17 *750:9 0
16 *400:17 *792:9 8.0595e-05
17 *400:19 *401:11 0.178067
18 *400:19 *405:11 0.000799562
19 *400:19 *750:11 0.0326324
20 *400:19 *752:11 0.0079399
21 *400:23 gpio_oeb[12] 0.000800464
22 *400:23 gpio_out[25] 0.00756907
23 *400:23 *664:11 0.212991
24 *400:23 *796:15 0
25 *322:391 *400:23 0
26 *399:9 *400:9 0
27 *399:19 *400:19 0.161424
*RES
1 *921:gpio_ib_mode_sel[12] *400:9 1.82113 
2 *400:9 *400:11 73.5097 
3 *400:11 *400:17 1.1254 
4 *400:17 *400:19 1981.96 
5 *400:19 *400:21 0.5 
6 *400:21 *400:23 386.413 
7 *400:23 gpio_ib_mode_sel[12] 0.228633 
*END

*D_NET *401 1.02302
*CONN
*P gpio_ib_mode_sel[13] O
*I *921:gpio_ib_mode_sel[13] O *D CF_CARAVEL_SOC
*CAP
1 gpio_ib_mode_sel[13] 0.00242909
2 *921:gpio_ib_mode_sel[13] 0.000536961
3 *401:15 0.0876998
4 *401:13 0.0852707
5 *401:11 0.0458911
6 *401:9 0.0464281
7 gpio_ib_mode_sel[13] *665:11 0.000551824
8 gpio_ib_mode_sel[13] *797:23 0.000547958
9 *401:9 *402:9 0
10 *401:11 *405:11 0.00212688
11 *401:11 *450:13 0.24649
12 *401:11 *750:11 0.000120926
13 *401:11 *752:11 0.0308744
14 *401:11 *830:11 0.0335229
15 *401:15 *665:11 0
16 *401:15 *797:23 0.259537
17 *400:9 *401:9 0
18 *400:11 *401:11 0.00292426
19 *400:19 *401:11 0.178067
*RES
1 *921:gpio_ib_mode_sel[13] *401:9 1.67547 
2 *401:9 *401:11 2743.91 
3 *401:11 *401:13 0.5 
4 *401:13 *401:15 381.189 
5 *401:15 gpio_ib_mode_sel[13] 5.89063 
*END

*D_NET *402 0.853162
*CONN
*P gpio_ib_mode_sel[14] O
*I *921:gpio_ib_mode_sel[14] O *D CF_CARAVEL_SOC
*CAP
1 gpio_ib_mode_sel[14] 0.00141833
2 *921:gpio_ib_mode_sel[14] 0.00552171
3 *402:15 0.0899957
4 *402:13 0.0885774
5 *402:11 0.157839
6 *402:9 0.163361
7 gpio_ib_mode_sel[14] gpio_oeb[14] 0.0004147
8 gpio_ib_mode_sel[14] *798:23 0.00253302
9 *402:11 gpio_oeb[30] 0.000122088
10 *402:11 gpio_vtrip_sel[36] 0.0025985
11 *402:11 *464:11 0
12 *402:11 *465:11 0
13 *402:11 *541:111 0.069708
14 *402:11 *549:25 0
15 *402:11 *737:41 0
16 *402:11 *772:11 0
17 *402:15 *538:377 0
18 *402:15 *798:23 0.261544
19 *105:31 *402:15 0
20 *140:361 *402:15 0.000146414
21 *238:27 *402:11 0
22 *281:31 *402:15 0.00320061
23 *392:19 *402:11 0.00618203
24 *401:9 *402:9 0
*RES
1 *921:gpio_ib_mode_sel[14] *402:9 11.9329 
2 *402:9 *402:11 3075.41 
3 *402:11 *402:13 0.5 
4 *402:13 *402:15 392.814 
5 *402:15 gpio_ib_mode_sel[14] 6.4285 
*END

*D_NET *403 0.885597
*CONN
*P gpio_ib_mode_sel[15] O
*I *921:gpio_ib_mode_sel[15] O *D CF_CARAVEL_SOC
*CAP
1 gpio_ib_mode_sel[15] 8.17048e-05
2 *921:gpio_ib_mode_sel[15] 0.000675324
3 *403:19 0.12346
4 *403:17 0.123378
5 *403:15 0.0454828
6 *403:13 0.0454828
7 *403:11 0.0143918
8 *403:9 0.0150671
9 gpio_ib_mode_sel[15] gpio_oeb[15] 0
10 gpio_ib_mode_sel[15] gpio_vtrip_sel[15] 0
11 *403:9 *404:9 0
12 *403:11 *405:11 0.0835294
13 *403:11 *406:11 0.0817085
14 *403:11 *406:17 0
15 *403:11 *434:11 0.000600872
16 *403:11 *454:41 0.000125307
17 *403:11 *750:11 0.0059189
18 *403:11 *786:11 0.00439103
19 *403:11 *828:11 0.000529448
20 *403:15 *686:11 0.0715118
21 *403:15 *802:15 0.00232185
22 *403:15 *803:15 0.0946292
23 *403:19 *537:134 0.000620156
24 *403:19 *667:15 0
25 *403:19 *799:19 0
26 *140:129 *403:19 0
27 *230:25 *403:15 0.0212709
28 *274:167 *403:19 0.00056652
29 *275:15 *403:15 0.144317
30 *277:23 *403:15 0.00553597
*RES
1 *921:gpio_ib_mode_sel[15] *403:9 1.90853 
2 *403:9 *403:11 944.625 
3 *403:11 *403:13 0.5 
4 *403:13 *403:15 356.28 
5 *403:15 *403:17 0.5 
6 *403:17 *403:19 2236.46 
7 *403:19 gpio_ib_mode_sel[15] 1.35 
*END

*D_NET *404 0.608013
*CONN
*P gpio_ib_mode_sel[16] O
*I *921:gpio_ib_mode_sel[16] O *D CF_CARAVEL_SOC
*CAP
1 gpio_ib_mode_sel[16] 0.000815895
2 *921:gpio_ib_mode_sel[16] 0.00602434
3 *404:23 0.100314
4 *404:21 0.102171
5 *404:11 0.171102
6 *404:9 0.174454
7 gpio_ib_mode_sel[16] gpio_oeb[16] 0
8 gpio_ib_mode_sel[16] gpio_vtrip_sel[16] 0
9 *404:11 gpio_oeb[25] 0
10 *404:11 *460:11 0
11 *404:11 *539:175 0
12 *404:11 *691:15 0.0126997
13 *404:11 *693:65 0
14 *404:11 *789:19 0.0122585
15 *404:11 *812:11 0
16 *404:21 *409:15 0.000284528
17 *404:21 *411:17 0.000209987
18 *404:23 *447:13 0
19 *404:23 *453:13 0
20 *404:23 *762:15 0.000130266
21 *205:57 *404:11 0.0147196
22 *238:27 *404:11 0
23 *289:35 *404:11 0
24 *360:15 *404:23 0
25 *365:11 *404:21 0.000144028
26 *365:15 *404:23 0.00217354
27 *366:15 *404:23 0.0105118
28 *403:9 *404:9 0
*RES
1 *921:gpio_ib_mode_sel[16] *404:9 12.8069 
2 *404:9 *404:11 3158.53 
3 *404:11 *404:21 13.1628 
4 *404:21 *404:23 1761.68 
5 *404:23 gpio_ib_mode_sel[16] 16.715 
*END

*D_NET *405 0.668671
*CONN
*P gpio_ib_mode_sel[17] O
*I *921:gpio_ib_mode_sel[17] O *D CF_CARAVEL_SOC
*CAP
1 gpio_ib_mode_sel[17] 0.105907
2 *921:gpio_ib_mode_sel[17] 0.000664085
3 *405:17 0.105907
4 *405:15 0.0933471
5 *405:13 0.0933471
6 *405:11 0.0254556
7 *405:9 0.0261197
8 gpio_ib_mode_sel[17] gpio_oeb[17] 0
9 gpio_ib_mode_sel[17] gpio_vtrip_sel[17] 0
10 *405:11 *406:17 0
11 *405:11 *454:41 0.000638352
12 *405:11 *750:11 0.0155642
13 *405:11 *786:11 0.00913914
14 *405:11 *828:11 0.0307248
15 *405:11 *830:11 0.000532719
16 *405:15 *806:15 0
17 *324:15 *405:15 0
18 *399:19 *405:11 0.074868
19 *400:19 *405:11 0.000799562
20 *401:11 *405:11 0.00212688
21 *403:11 *405:11 0.0835294
*RES
1 *921:gpio_ib_mode_sel[17] *405:9 1.85027 
2 *405:9 *405:11 1260.31 
3 *405:11 *405:13 0.5 
4 *405:13 *405:15 259.15 
5 *405:15 *405:17 0.5 
6 *405:17 gpio_ib_mode_sel[17] 1911.53 
*END

*D_NET *406 0.728389
*CONN
*P gpio_ib_mode_sel[18] O
*I *921:gpio_ib_mode_sel[18] O *D CF_CARAVEL_SOC
*CAP
1 gpio_ib_mode_sel[18] 0.123931
2 *921:gpio_ib_mode_sel[18] 0.000806854
3 *406:21 0.123931
4 *406:19 0.0302875
5 *406:17 0.0313347
6 *406:11 0.0145431
7 *406:9 0.0143028
8 gpio_ib_mode_sel[18] gpio_oeb[18] 0
9 gpio_ib_mode_sel[18] gpio_vtrip_sel[18] 0
10 *406:9 *407:9 0
11 *406:9 *433:6 0.000206859
12 *406:11 *407:11 0.0812199
13 *406:11 *434:11 0.000257991
14 *406:11 *454:41 0.00867129
15 *406:11 *750:11 0.000406756
16 *406:11 *786:11 0.00081062
17 *406:17 *764:21 9.45798e-05
18 *406:17 *796:11 0
19 *406:19 *802:15 0.138499
20 *406:19 *805:15 0.0725338
21 *116:69 *406:11 0.00484386
22 *290:15 *406:19 0
23 *403:11 *406:11 0.0817085
24 *403:11 *406:17 0
25 *405:11 *406:17 0
*RES
1 *921:gpio_ib_mode_sel[18] *406:9 2.05293 
2 *406:9 *406:11 913.515 
3 *406:11 *406:17 18.575 
4 *406:17 *406:19 203.097 
5 *406:19 *406:21 0.5 
6 *406:21 gpio_ib_mode_sel[18] 2235.89 
*END

*D_NET *407 0.574347
*CONN
*P gpio_ib_mode_sel[19] O
*I *921:gpio_ib_mode_sel[19] O *D CF_CARAVEL_SOC
*CAP
1 gpio_ib_mode_sel[19] 0.124852
2 *921:gpio_ib_mode_sel[19] 0.000841884
3 *407:29 0.124852
4 *407:27 0.0350712
5 *407:25 0.0391272
6 *407:11 0.0186951
7 *407:9 0.0154809
8 gpio_ib_mode_sel[19] gpio_oeb[19] 0
9 gpio_ib_mode_sel[19] gpio_vtrip_sel[19] 0
10 *407:9 *409:9 0
11 *407:9 *433:6 0.000206859
12 *407:11 *434:11 0.0107566
13 *407:11 *454:41 0.0035711
14 *407:11 *542:31 0.0176096
15 *407:11 *750:11 0.000378527
16 *407:11 *764:11 0.0367495
17 *407:11 *764:21 0.000929026
18 *407:11 *786:11 0.00196964
19 *407:25 *689:11 0.0240365
20 *407:25 *691:11 0.0120306
21 *407:25 *705:33 0.00460743
22 *407:25 *745:11 0.00505258
23 *101:15 *407:27 0
24 *104:31 *407:27 0
25 *114:23 *407:27 0.0135403
26 *116:69 *407:11 0.00243021
27 *193:61 *407:25 0.000338091
28 *406:9 *407:9 0
29 *406:11 *407:11 0.0812199
*RES
1 *921:gpio_ib_mode_sel[19] *407:9 2.1112 
2 *407:9 *407:11 907.905 
3 *407:11 *407:25 42.0278 
4 *407:25 *407:27 604.89 
5 *407:27 *407:29 2 
6 *407:29 gpio_ib_mode_sel[19] 2250.3 
*END

*D_NET *408 0.80824
*CONN
*P gpio_ib_mode_sel[1] O
*I *921:gpio_ib_mode_sel[1] O *D CF_CARAVEL_SOC
*CAP
1 gpio_ib_mode_sel[1] 0.00253307
2 *921:gpio_ib_mode_sel[1] 0.0022699
3 *408:101 0.0103998
4 *408:99 0.00786671
5 *408:97 0.00668115
6 *408:95 0.00731218
7 *408:79 0.0014492
8 *408:77 0.00213634
9 *408:63 0.00231485
10 *408:61 0.00192232
11 *408:53 0.00798315
12 *408:23 0.037146
13 *408:21 0.0310495
14 *408:13 0.0100854
15 *408:9 0.0113943
16 gpio_ib_mode_sel[1] gpio_oeb[1] 0
17 gpio_ib_mode_sel[1] gpio_vtrip_sel[1] 0
18 *408:9 *433:6 0.000262458
19 *408:13 *453:41 0.00552618
20 *408:13 *793:11 0.0268923
21 *408:21 *430:21 6.11191e-05
22 *408:21 *467:15 0.00241046
23 *408:21 *557:29 0.00175864
24 *408:21 *793:25 0.000625254
25 *408:21 *842:21 0.00012798
26 *408:23 *441:15 0.0325187
27 *408:23 *442:15 0.00363355
28 *408:23 *463:15 0.0382435
29 *408:23 *467:15 0.000476546
30 *408:23 *471:25 8.59716e-05
31 *408:23 *471:27 0.101024
32 *408:23 *739:68 0.000337995
33 *408:23 *840:19 0.17353
34 *408:23 *858:21 0.00213002
35 *408:53 *419:119 0.00161876
36 *408:53 *530:43 0.00165874
37 *408:53 *535:33 0.000208503
38 *408:53 *740:141 1.7635e-05
39 *408:53 *740:155 0
40 *408:53 *826:79 2.05056e-05
41 *408:61 *419:133 0.00734855
42 *408:61 *530:55 0.00129984
43 *408:61 *535:65 0.00179786
44 *408:61 *551:93 0.00726579
45 *408:61 *562:89 1.74488e-05
46 *408:61 *740:141 0.000733875
47 *408:63 *419:157 1.19928e-05
48 *408:63 *530:55 0.00784013
49 *408:63 *535:65 0.00025331
50 *408:63 *562:91 1.91597e-05
51 *408:63 *741:160 0.000960839
52 *408:63 *826:95 0.00615732
53 *408:77 *419:157 0.00653667
54 *408:77 *533:92 0.0020284
55 *408:77 *535:93 0.00102031
56 *408:77 *537:48 2.603e-05
57 *408:77 *551:109 1.35034e-05
58 *408:79 *530:77 0.00682042
59 *408:95 *533:94 0.000220075
60 *408:95 *535:95 0.000114227
61 *408:95 *536:51 0.000222806
62 *408:95 *562:117 3.68278e-05
63 *408:95 *696:93 0.000275553
64 *408:95 *826:119 0.000637506
65 *408:97 *529:9 0
66 *408:97 *562:119 0.0359315
67 *408:101 *760:35 0.0305484
68 *408:101 *804:27 0.0341081
69 gpio_analog_sel[43] *408:97 0.00324528
70 *118:93 *408:53 0.000207661
71 *123:15 *408:23 0.0528155
72 *168:11 *408:101 0
73 *248:35 *408:13 0.00270099
74 *306:11 *408:101 0.000176228
75 *325:57 *408:53 0
76 *336:41 *408:53 7.78168e-05
77 *341:18 *408:23 0.00931225
78 *364:27 *408:13 0.00361575
79 *386:173 *408:53 4.437e-05
80 *386:191 *408:63 0.00173367
81 *386:205 *408:95 0
82 *397:13 *408:9 0
83 *397:117 *408:53 8.53113e-06
84 *397:151 *408:79 0.00681875
85 *397:171 *408:95 0.00019208
86 *397:173 *408:97 0.0393319
*RES
1 *921:gpio_ib_mode_sel[1] *408:9 5.37287 
2 *408:9 *408:13 48.6004 
3 *408:13 *408:21 6.48947 
4 *408:21 *408:23 263.782 
5 *408:23 *408:53 41.4762 
6 *408:53 *408:61 13.9433 
7 *408:61 *408:63 71.52 
8 *408:63 *408:77 15.627 
9 *408:77 *408:79 61.515 
10 *408:79 *408:95 26.1575 
11 *408:95 *408:97 58.3047 
12 *408:97 *408:99 0.5 
13 *408:99 *408:101 397.905 
14 *408:101 gpio_ib_mode_sel[1] 5.26457 
*END

*D_NET *409 0.680404
*CONN
*P gpio_ib_mode_sel[20] O
*I *921:gpio_ib_mode_sel[20] O *D CF_CARAVEL_SOC
*CAP
1 gpio_ib_mode_sel[20] 0.000994023
2 *921:gpio_ib_mode_sel[20] 0.00523644
3 *409:15 0.0147986
4 *409:13 0.0138046
5 *409:11 0.125176
6 *409:9 0.130412
7 gpio_ib_mode_sel[20] gpio_oeb[20] 0
8 gpio_ib_mode_sel[20] gpio_vtrip_sel[20] 0
9 gpio_ib_mode_sel[20] *673:15 0
10 gpio_ib_mode_sel[20] *805:19 0
11 *409:9 *410:9 0
12 *409:11 *472:15 0.0233899
13 *409:11 *546:25 0
14 *409:11 *693:71 0.0121822
15 *409:11 *832:27 0
16 *409:15 *410:15 0.000688952
17 *409:15 *411:17 0.000583251
18 *409:15 *447:13 0.000479324
19 *409:15 *453:13 0.0140694
20 *409:15 *762:15 0.00017033
21 *284:59 *409:11 0.0844074
22 *362:15 *409:15 0.0728067
23 *365:15 *409:15 0.0734023
24 *396:11 *409:11 0.107519
25 *404:21 *409:15 0.000284528
26 *407:9 *409:9 0
*RES
1 *921:gpio_ib_mode_sel[20] *409:9 11.0589 
2 *409:9 *409:11 3140.69 
3 *409:11 *409:13 0.5 
4 *409:13 *409:15 114.998 
5 *409:15 gpio_ib_mode_sel[20] 17.765 
*END

*D_NET *410 0.523109
*CONN
*P gpio_ib_mode_sel[21] O
*I *921:gpio_ib_mode_sel[21] O *D CF_CARAVEL_SOC
*CAP
1 gpio_ib_mode_sel[21] 0.000912222
2 *921:gpio_ib_mode_sel[21] 0.00659349
3 *410:15 0.0116817
4 *410:13 0.0107694
5 *410:11 0.163931
6 *410:9 0.170524
7 gpio_ib_mode_sel[21] gpio_oeb[21] 0
8 gpio_ib_mode_sel[21] gpio_vtrip_sel[21] 0
9 gpio_ib_mode_sel[21] *674:15 0
10 gpio_ib_mode_sel[21] *806:19 0
11 *410:9 *411:9 0
12 *410:11 gpio_oeb[25] 0
13 *410:11 *460:11 0
14 *410:11 *554:25 0
15 *410:11 *767:17 0
16 *410:11 *811:11 0
17 *410:11 *873:57 0.0161668
18 *410:15 *762:15 0.0523001
19 gpio_analog_sel[27] *410:11 3.20913e-05
20 *284:51 *410:11 0
21 *335:57 *410:11 0.0364402
22 *366:15 *410:15 0.0530699
23 *409:9 *410:9 0
24 *409:15 *410:15 0.000688952
*RES
1 *921:gpio_ib_mode_sel[21] *410:9 13.6809 
2 *410:9 *410:11 3137.11 
3 *410:11 *410:13 0.5 
4 *410:13 *410:15 85.0491 
5 *410:15 gpio_ib_mode_sel[21] 16.235 
*END

*D_NET *411 0.558268
*CONN
*P gpio_ib_mode_sel[22] O
*I *921:gpio_ib_mode_sel[22] O *D CF_CARAVEL_SOC
*CAP
1 gpio_ib_mode_sel[22] 0.00108385
2 *921:gpio_ib_mode_sel[22] 0.00377832
3 *411:17 0.0129976
4 *411:11 0.130212
5 *411:9 0.122077
6 gpio_ib_mode_sel[22] gpio_oeb[22] 0
7 gpio_ib_mode_sel[22] gpio_vtrip_sel[22] 0
8 *411:9 *412:9 0
9 *411:11 *544:17 0.0175931
10 *411:11 *736:39 0
11 *411:11 *762:11 0
12 *322:285 *411:11 0.0271903
13 *362:15 *411:17 0.029975
14 *367:11 *411:11 0.212568
15 *404:21 *411:17 0.000209987
16 *409:15 *411:17 0.000583251
17 *410:9 *411:9 0
*RES
1 *921:gpio_ib_mode_sel[22] *411:9 8.43693 
2 *411:9 *411:11 3129.47 
3 *411:11 *411:17 48.2923 
4 *411:17 gpio_ib_mode_sel[22] 17.9025 
*END

*D_NET *412 0.541622
*CONN
*P gpio_ib_mode_sel[23] O
*I *921:gpio_ib_mode_sel[23] O *D CF_CARAVEL_SOC
*CAP
1 gpio_ib_mode_sel[23] 0.00239612
2 *921:gpio_ib_mode_sel[23] 0.0046632
3 *412:11 0.134416
4 *412:9 0.136683
5 gpio_ib_mode_sel[23] *763:15 0.000325195
6 *412:9 *737:79 0
7 *412:11 gpio_vtrip_sel[30] 0.00155907
8 *412:11 *422:11 0.00487081
9 *412:11 *437:11 0.000655445
10 *412:11 *437:19 0
11 *412:11 *457:11 0
12 *412:11 *546:25 0
13 *412:11 *693:91 0.00502036
14 *412:11 *737:55 0.000695764
15 *412:11 *816:25 0.00253391
16 gpio_holdover[23] gpio_ib_mode_sel[23] 0.00843755
17 gpio_holdover[33] *412:11 0.000658324
18 *205:67 *412:11 0.00413062
19 *367:15 gpio_ib_mode_sel[23] 0.00994527
20 *369:19 *412:11 0.0165051
21 *369:23 *412:11 0.034589
22 *398:19 *412:11 0.173538
23 *411:9 *412:9 0
*RES
1 *921:gpio_ib_mode_sel[23] *412:9 10.1849 
2 *412:9 *412:11 3140.18 
3 *412:11 gpio_ib_mode_sel[23] 20.8136 
*END

*D_NET *413 0.492833
*CONN
*P gpio_ib_mode_sel[24] O
*I *921:gpio_ib_mode_sel[24] O *D CF_CARAVEL_SOC
*CAP
1 gpio_ib_mode_sel[24] 0.00539438
2 *921:gpio_ib_mode_sel[24] 0.00198212
3 *413:26 6.61132e-06
4 *413:19 0.0959931
5 *413:17 0.0907861
6 *413:11 0.0136983
7 *413:9 0.0154997
8 gpio_ib_mode_sel[24] gpio_oeb[24] 0
9 gpio_ib_mode_sel[24] gpio_vtrip_sel[24] 5.30225e-05
10 gpio_ib_mode_sel[24] *721:13 0
11 *413:9 *414:9 0
12 *413:9 *433:6 0.000262458
13 *413:9 *737:79 0
14 *413:11 *468:11 0.000644863
15 *413:11 *543:23 0.00353963
16 *413:11 *558:25 0.0143081
17 *413:11 *778:17 0.00133765
18 *413:11 *787:11 0.0469363
19 *413:11 *790:11 0.0454691
20 *413:11 *824:11 0.0261791
21 *413:17 *734:11 0.000405984
22 *413:17 *833:21 0.00014037
23 *413:19 *416:11 0.0144289
24 *413:19 *766:11 0.0600911
25 *413:26 gpio_oeb[24] 0
26 *357:19 *413:19 0.0396161
27 *361:17 *413:19 0.00186513
28 *364:19 *413:11 0.00280096
29 *371:11 *413:11 0.00227173
30 *382:11 *413:11 0.00545112
31 *388:11 *413:11 0.00367088
*RES
1 *921:gpio_ib_mode_sel[24] *413:9 4.64453 
2 *413:9 *413:11 869.145 
3 *413:11 *413:17 1.6498 
4 *413:17 *413:19 357.577 
5 *413:19 gpio_ib_mode_sel[24] 11.881 
6 gpio_ib_mode_sel[24] *413:26 0.0690909 
*END

*D_NET *414 0.440207
*CONN
*P gpio_ib_mode_sel[25] O
*I *921:gpio_ib_mode_sel[25] O *D CF_CARAVEL_SOC
*CAP
1 gpio_ib_mode_sel[25] 0.00476336
2 *921:gpio_ib_mode_sel[25] 0.00273105
3 *414:11 0.0837376
4 *414:9 0.0817053
5 gpio_ib_mode_sel[25] gpio_oeb[25] 0.000480318
6 gpio_ib_mode_sel[25] gpio_vtrip_sel[25] 0.000149075
7 *414:9 *415:9 0
8 *414:11 gpio_vtrip_sel[35] 0.000417139
9 *414:11 *415:11 0.0459718
10 *414:11 *416:11 0
11 *414:11 *420:11 0
12 *414:11 *421:11 0.127114
13 *414:11 *436:17 0.00173963
14 *414:11 *757:11 0.00640299
15 *414:11 *765:11 0.00596981
16 *414:11 *765:19 0.0580817
17 *414:11 *832:17 0.00194732
18 gpio_dm1[35] *414:11 0
19 *295:27 *414:11 0
20 *373:11 *414:11 0
21 *374:11 *414:11 0.0187155
22 *385:11 *414:11 0.000279836
23 *413:9 *414:9 0
*RES
1 *921:gpio_ib_mode_sel[25] *414:9 6.3102 
2 *414:9 *414:11 395.993 
3 *414:11 gpio_ib_mode_sel[25] 10.8024 
*END

*D_NET *415 0.402933
*CONN
*P gpio_ib_mode_sel[26] O
*I *921:gpio_ib_mode_sel[26] O *D CF_CARAVEL_SOC
*CAP
1 gpio_ib_mode_sel[26] 0.00523751
2 *921:gpio_ib_mode_sel[26] 0.0026874
3 *415:11 0.0832482
4 *415:9 0.0806981
5 gpio_ib_mode_sel[26] gpio_oeb[26] 5.65365e-05
6 gpio_ib_mode_sel[26] gpio_vtrip_sel[26] 5.18966e-05
7 gpio_ib_mode_sel[26] *459:13 0.000528755
8 *415:11 *552:25 0.139801
9 *415:11 *757:11 0.0446526
10 *293:27 *415:11 0
11 *362:11 *415:11 0
12 *363:11 *415:11 0
13 *414:9 *415:9 0
14 *414:11 *415:11 0.0459718
*RES
1 *921:gpio_ib_mode_sel[26] *415:9 6.2228 
2 *415:9 *415:11 2173.22 
3 *415:11 gpio_ib_mode_sel[26] 17.7353 
*END

*D_NET *416 0.427093
*CONN
*P gpio_ib_mode_sel[27] O
*I *921:gpio_ib_mode_sel[27] O *D CF_CARAVEL_SOC
*CAP
1 gpio_ib_mode_sel[27] 0.00510612
2 *921:gpio_ib_mode_sel[27] 0.0025162
3 *416:11 0.0789508
4 *416:9 0.0763609
5 gpio_ib_mode_sel[27] gpio_oeb[27] 0.000638336
6 gpio_ib_mode_sel[27] gpio_vtrip_sel[27] 0.000322594
7 *416:9 *417:9 0
8 *416:9 *433:6 0.000262458
9 *416:11 *423:11 0.000177107
10 *416:11 *438:17 0.00254191
11 *416:11 *555:17 0.00192175
12 *416:11 *556:43 0.012039
13 *416:11 *809:11 0.0287994
14 gpio_dm0[34] *416:11 0.00363796
15 gpio_holdover[34] *416:11 0
16 *292:27 *416:11 0.0563706
17 *353:11 *416:11 0.00597231
18 *357:17 *416:11 0.00776995
19 *358:19 *416:11 0.009256
20 *361:17 *416:11 0.0114014
21 *370:11 *416:11 0.0286246
22 *374:11 *416:11 0
23 *376:11 *416:11 0.0799947
24 *413:19 *416:11 0.0144289
25 *414:11 *416:11 0
*RES
1 *921:gpio_ib_mode_sel[27] *416:9 5.72247 
2 *416:9 *416:11 339.231 
3 *416:11 gpio_ib_mode_sel[27] 11.7094 
*END

*D_NET *417 0.379335
*CONN
*P gpio_ib_mode_sel[28] O
*I *921:gpio_ib_mode_sel[28] O *D CF_CARAVEL_SOC
*CAP
1 gpio_ib_mode_sel[28] 0.0027296
2 *921:gpio_ib_mode_sel[28] 0.00445356
3 *417:19 0.0233919
4 *417:17 0.020871
5 *417:11 0.0105358
6 *417:9 0.0147807
7 gpio_ib_mode_sel[28] gpio_oeb[28] 0
8 gpio_ib_mode_sel[28] gpio_vtrip_sel[28] 0.00189257
9 gpio_ib_mode_sel[28] *681:21 0
10 *417:11 gpio_ib_mode_sel[36] 0.000288919
11 *417:11 gpio_ib_mode_sel[37] 0.000563818
12 *417:11 *545:15 0.00448145
13 *417:11 *818:11 0.00830487
14 *417:17 gpio_ib_mode_sel[33] 0.000333834
15 *417:19 *422:11 2.15563e-05
16 *417:19 *769:11 0.0630525
17 *417:19 *816:25 0.0073562
18 gpio_holdover[33] *417:19 0.00071103
19 *336:67 *417:11 0.0509249
20 *369:11 *417:11 0.00578522
21 *369:19 *417:19 0.0910114
22 *383:11 *417:11 0.00339082
23 *390:11 *417:11 0.0644533
24 *416:9 *417:9 0
*RES
1 *921:gpio_ib_mode_sel[28] *417:9 9.544 
2 *417:9 *417:11 717.675 
3 *417:11 *417:17 1.53327 
4 *417:17 *417:19 190.393 
5 *417:19 gpio_ib_mode_sel[28] 6.82003 
*END

*D_NET *418 0.407106
*CONN
*P gpio_ib_mode_sel[29] O
*I *921:gpio_ib_mode_sel[29] O *D CF_CARAVEL_SOC
*CAP
1 gpio_ib_mode_sel[29] 0.00619911
2 *921:gpio_ib_mode_sel[29] 0.00207325
3 *418:11 0.0409386
4 *418:9 0.0368127
5 gpio_ib_mode_sel[29] gpio_oeb[29] 0.000232252
6 gpio_ib_mode_sel[29] gpio_vtrip_sel[29] 0
7 gpio_ib_mode_sel[29] *682:11 0
8 *418:9 *420:9 0
9 *418:9 *433:6 0.000262458
10 *418:11 *423:11 0
11 *418:11 *425:11 0.000169764
12 *418:11 *468:11 0.00258863
13 *418:11 *543:23 0.0221541
14 *418:11 *543:31 0.00342619
15 *418:11 *558:25 0.00345512
16 *418:11 *732:10 0.00297962
17 *418:11 *737:65 0.000516703
18 *418:11 *766:11 0.117664
19 *418:11 *778:17 0.0201398
20 *418:11 *787:11 0.0101485
21 *364:19 *418:11 0.00264566
22 *364:27 *418:11 0.0252528
23 *371:11 *418:11 0.0960743
24 *382:11 *418:11 0.0114623
25 *388:11 *418:11 0.00191029
*RES
1 *921:gpio_ib_mode_sel[29] *418:9 4.7902 
2 *418:9 *418:11 282.555 
3 *418:11 gpio_ib_mode_sel[29] 12.9507 
*END

*D_NET *419 0.745272
*CONN
*P gpio_ib_mode_sel[2] O
*I *921:gpio_ib_mode_sel[2] O *D CF_CARAVEL_SOC
*CAP
1 gpio_ib_mode_sel[2] 0.00409545
2 *921:gpio_ib_mode_sel[2] 0.00240404
3 *419:197 0.0127104
4 *419:195 0.00861497
5 *419:193 0.00276699
6 *419:191 0.00350914
7 *419:177 0.00193682
8 *419:175 0.00229411
9 *419:159 0.00214572
10 *419:157 0.00259253
11 *419:137 0.00222147
12 *419:133 0.001728
13 *419:119 0.00186989
14 *419:117 0.0042215
15 *419:101 0.00412053
16 *419:93 0.00225423
17 *419:85 0.00220801
18 *419:77 0.00200845
19 *419:63 0.00320022
20 *419:47 0.00685784
21 *419:45 0.014851
22 *419:37 0.00997566
23 *419:31 0.0058665
24 *419:29 0.00605292
25 *419:23 0.00954187
26 *419:21 0.0129723
27 *419:13 0.0132883
28 *419:9 0.0119547
29 gpio_ib_mode_sel[2] gpio_vtrip_sel[2] 0.000618589
30 *419:9 *430:9 0.000283909
31 *419:13 *921:porb_l 0.00335815
32 *419:13 *467:11 0.005727
33 *419:13 *552:25 0.00640058
34 *419:13 *737:81 0.00269371
35 *419:13 *815:11 0.0267149
36 *419:13 *848:23 0.00224006
37 *419:13 *863:23 0.00284745
38 *419:21 *541:105 6.65155e-05
39 *419:21 *556:37 0.000198039
40 *419:21 *556:41 0.00269645
41 *419:21 *826:29 0.00456357
42 *419:23 *921:gpio_in[16] 0.00265331
43 *419:23 *444:71 0.0142269
44 *419:23 *472:55 0.00196039
45 *419:23 *539:117 5.92589e-05
46 *419:23 *556:11 0.0291008
47 *419:23 *556:37 0.00130927
48 *419:23 *693:117 0.00274794
49 *419:23 *739:80 0.0018327
50 *419:23 *826:29 0.000544176
51 *419:23 *840:19 0.00137737
52 *419:29 *921:gpio_in[21] 0
53 *419:29 *739:120 0
54 *419:31 *539:73 0.00103427
55 *419:37 *541:41 8.54671e-05
56 *419:45 gpio_out[39] 0.000470385
57 *419:63 *540:24 0.00106021
58 *419:63 *551:25 0.0011099
59 *419:77 *540:24 0.00126206
60 *419:77 *551:25 2.40201e-05
61 *419:77 *551:33 0.0110208
62 *419:77 *562:25 4.14953e-05
63 *419:77 *562:33 0.0110778
64 *419:85 *530:25 2.53191e-06
65 *419:85 *539:35 0.000354725
66 *419:85 *551:41 0.00427296
67 *419:85 *562:41 0.00236429
68 *419:93 *530:25 0.0101093
69 *419:93 *533:36 1.2782e-05
70 *419:93 *540:24 0.00100565
71 *419:93 *562:49 0.0101969
72 *419:93 *696:145 3.37406e-06
73 *419:93 *696:147 0.00177453
74 *419:101 *533:36 0.000535571
75 *419:101 *826:63 0.00489585
76 *419:117 *529:9 0
77 *419:117 *530:41 0.00858453
78 *419:117 *533:52 0.000156614
79 *419:117 *535:33 4.02874e-05
80 *419:117 *537:12 0
81 *419:117 *539:11 0.001369
82 *419:117 *540:24 0.0015814
83 *419:117 *551:77 0.000357624
84 *419:117 *562:65 3.82072e-05
85 *419:117 *696:145 1.43805e-05
86 *419:117 *740:169 0
87 *419:119 *530:43 1.46828e-05
88 *419:119 *535:33 0.000768169
89 *419:119 *826:79 0.00645862
90 *419:133 *533:68 4.61701e-06
91 *419:133 *535:65 0.00162727
92 *419:133 *551:93 2.02872e-05
93 *419:133 *562:89 6.12355e-05
94 *419:133 *740:133 0.000513817
95 *419:133 *741:160 2.00119e-05
96 *419:133 *826:93 0.0072698
97 *419:137 *530:55 1.19928e-05
98 *419:137 *535:65 0.000936702
99 *419:137 *551:95 0.00446588
100 *419:137 *562:91 0.00264963
101 *419:157 *533:92 2.04694e-05
102 *419:157 *535:65 0.000351697
103 *419:157 *535:93 0.00145906
104 *419:157 *551:95 0.00202767
105 *419:157 *551:109 0.000210744
106 *419:157 *562:91 0.00338451
107 *419:157 *562:107 1.88904e-05
108 *419:159 *530:77 0.00857304
109 *419:159 *551:111 1.91597e-05
110 *419:159 *562:109 0.00853641
111 *419:175 *530:91 0.00543403
112 *419:175 *535:111 6.08535e-05
113 *419:175 *551:119 5.23362e-05
114 *419:175 *551:121 1.41896e-05
115 *419:175 *562:117 8.38931e-05
116 *419:177 *535:113 0.0101149
117 *419:177 *537:58 0.0101149
118 *419:177 *551:121 0.00241544
119 *419:191 *530:107 0.00363695
120 *419:191 *535:113 0.000842084
121 *419:193 *530:109 0.0162085
122 *419:193 *535:117 0.0174572
123 *419:193 *551:121 0.00256888
124 *419:197 *532:36 0.0163745
125 *419:197 *568:15 0.050467
126 gpio_analog_sel[43] *419:175 0.000223547
127 gpio_analog_sel[43] *419:191 0.000410467
128 *118:133 *419:63 0.000368031
129 *118:145 *419:63 0.0125776
130 *118:159 *419:45 0.030459
131 *118:179 *419:23 0.0036391
132 *118:185 *419:23 0.00436535
133 *118:187 *419:23 0.0050667
134 *118:209 *419:21 0.000607644
135 *177:11 *419:197 0.00556829
136 *232:13 *419:197 0.000238188
137 *259:11 *419:197 0.00160206
138 *266:11 *419:197 0.0222339
139 *295:27 *419:13 0
140 *322:129 *419:117 0.000272411
141 *322:131 *419:117 0.00148427
142 *322:191 *419:31 0.0152125
143 *322:235 *419:23 0.000337995
144 *325:87 *419:31 0
145 *325:157 *419:21 0.0150309
146 *335:55 *419:21 0.000200818
147 *338:69 *419:45 0.000858756
148 *386:21 *419:13 0.000180493
149 *386:103 *419:37 9.2599e-05
150 *386:103 *419:45 3.98864e-05
151 *386:107 *419:47 0.0154953
152 *386:123 *419:63 0.0152535
153 *386:137 *419:77 0.000121978
154 *386:139 *419:85 2.54522e-05
155 *386:139 *419:93 0.00193602
156 *386:157 *419:117 0.000270404
157 *386:175 *419:133 0.0013552
158 *386:191 *419:157 0.00106942
159 *397:33 *419:21 0.0165526
160 *397:33 *419:23 0.00023108
161 *397:77 *419:23 0.000239923
162 *397:97 *419:101 0.00489585
163 *397:117 *419:119 0.00481411
164 *397:149 *419:157 0.00619867
165 *397:171 *419:175 3.02513e-05
166 *397:173 *419:175 0.00549597
167 *397:173 *419:191 0.00208792
168 *408:53 *419:119 0.00161876
169 *408:61 *419:133 0.00734855
170 *408:63 *419:157 1.19928e-05
171 *408:77 *419:157 0.00653667
*RES
1 *921:gpio_ib_mode_sel[2] *419:9 6.07713 
2 *419:9 *419:13 48.6865 
3 *419:13 *419:21 35.3062 
4 *419:21 *419:23 398.235 
5 *419:23 *419:29 8.95 
6 *419:29 *419:31 159.15 
7 *419:31 *419:37 5.2825 
8 *419:37 *419:45 47.971 
9 *419:45 *419:47 140.175 
10 *419:47 *419:63 48.7437 
11 *419:63 *419:77 23.1729 
12 *419:77 *419:85 42.0775 
13 *419:85 *419:93 17.8616 
14 *419:93 *419:101 49.645 
15 *419:101 *419:117 24.1567 
16 *419:117 *419:119 58.41 
17 *419:119 *419:133 17.0473 
18 *419:133 *419:137 40.6575 
19 *419:137 *419:157 46.4584 
20 *419:157 *419:159 77.385 
21 *419:159 *419:175 16.8403 
22 *419:175 *419:177 91.185 
23 *419:177 *419:191 12.2187 
24 *419:191 *419:193 159.15 
25 *419:193 *419:195 2 
26 *419:195 *419:197 560.977 
27 *419:197 gpio_ib_mode_sel[2] 8.5275 
*END

*D_NET *420 0.380704
*CONN
*P gpio_ib_mode_sel[30] O
*I *921:gpio_ib_mode_sel[30] O *D CF_CARAVEL_SOC
*CAP
1 gpio_ib_mode_sel[30] 0.00630222
2 *921:gpio_ib_mode_sel[30] 0.0031073
3 *420:11 0.0859975
4 *420:9 0.0828026
5 gpio_ib_mode_sel[30] gpio_oeb[30] 0.000615084
6 gpio_ib_mode_sel[30] gpio_vtrip_sel[30] 0.000578285
7 gpio_ib_mode_sel[30] *768:19 6.58626e-05
8 gpio_ib_mode_sel[30] *813:17 7.65498e-05
9 *420:9 *421:9 0
10 *420:11 gpio_vtrip_sel[35] 0.0116244
11 *420:11 *456:27 0.00329829
12 *420:11 *469:11 0.00920028
13 *420:11 *688:15 0.00574193
14 *420:11 *733:10 0.00689338
15 *420:11 *753:11 0.00715317
16 *420:11 *768:11 0.0352567
17 *420:11 *803:11 0.00993843
18 *420:11 *832:17 0.00849636
19 gpio_dm1[35] *420:11 0.00326461
20 *250:35 *420:11 0.00394456
21 *251:27 *420:11 0.00167999
22 *293:27 *420:11 0.00139189
23 *295:27 *420:11 0.00919833
24 *362:11 *420:11 0.000353483
25 *368:11 *420:11 0.000213565
26 *373:11 gpio_ib_mode_sel[30] 0.00177264
27 *373:11 *420:11 0.0770803
28 *384:11 *420:11 0.0046564
29 *414:11 *420:11 0
30 *418:9 *420:9 0
*RES
1 *921:gpio_ib_mode_sel[30] *420:9 7.0094 
2 *420:9 *420:11 249.549 
3 *420:11 gpio_ib_mode_sel[30] 15.517 
*END

*D_NET *421 0.352888
*CONN
*P gpio_ib_mode_sel[31] O
*I *921:gpio_ib_mode_sel[31] O *D CF_CARAVEL_SOC
*CAP
1 gpio_ib_mode_sel[31] 0.0044762
2 *921:gpio_ib_mode_sel[31] 0.00271875
3 *421:11 0.0348287
4 *421:9 0.0330713
5 gpio_ib_mode_sel[31] gpio_oeb[31] 0
6 gpio_ib_mode_sel[31] gpio_vtrip_sel[31] 0.00208315
7 gpio_ib_mode_sel[31] *729:21 0
8 *421:9 *422:9 0
9 *421:9 *436:17 1.21124e-05
10 *421:11 *436:17 0.000262189
11 *421:11 *436:19 0.00657873
12 *421:11 *467:11 0.0152879
13 *421:11 *552:25 0.0217347
14 *421:11 *735:23 0.00707242
15 *421:11 *815:11 0.00421383
16 gpio_dm0[34] *421:11 0.0005227
17 gpio_holdover[34] *421:11 0.00597289
18 *333:27 gpio_ib_mode_sel[31] 0.000519818
19 *353:11 *421:11 0.017123
20 *374:11 *421:11 0.0644551
21 *385:11 *421:11 0.00484047
22 *414:11 *421:11 0.127114
23 *420:9 *421:9 0
*RES
1 *921:gpio_ib_mode_sel[31] *421:9 6.19367 
2 *421:9 *421:11 226.913 
3 *421:11 gpio_ib_mode_sel[31] 10.6707 
*END

*D_NET *422 0.23559
*CONN
*P gpio_ib_mode_sel[32] O
*I *921:gpio_ib_mode_sel[32] O *D CF_CARAVEL_SOC
*CAP
1 gpio_ib_mode_sel[32] 0.00388137
2 *921:gpio_ib_mode_sel[32] 0.00493715
3 *422:11 0.0514157
4 *422:9 0.0524715
5 gpio_ib_mode_sel[32] gpio_vtrip_sel[32] 0
6 gpio_ib_mode_sel[32] *546:25 0.000673276
7 gpio_ib_mode_sel[32] *686:11 0.00113078
8 gpio_ib_mode_sel[32] *691:11 4.12303e-05
9 gpio_ib_mode_sel[32] *761:11 0.000670968
10 gpio_ib_mode_sel[32] *802:15 0.000127753
11 gpio_ib_mode_sel[32] *816:25 0.000340703
12 gpio_ib_mode_sel[32] *832:37 4.12303e-05
13 *422:9 *436:17 1.04823e-05
14 *422:11 *437:11 0
15 *422:11 *546:25 0.0142926
16 *422:11 *693:91 0.000986305
17 *422:11 *761:11 0.0076921
18 *422:11 *769:11 0
19 *422:11 *813:11 0.00252712
20 *422:11 *814:11 0.00281761
21 *422:11 *816:11 0.0100898
22 *422:11 *816:25 0.00979993
23 *422:11 *823:15 0.0185203
24 *422:11 *832:27 0.0036831
25 *422:11 *873:49 0.0118057
26 gpio_holdover[33] *422:11 0.00176329
27 *205:67 *422:11 0.0264214
28 *244:15 gpio_ib_mode_sel[32] 0
29 *286:39 gpio_ib_mode_sel[32] 4.3455e-05
30 *398:17 *422:11 0.00284802
31 *398:19 *422:11 0.00166436
32 *412:11 *422:11 0.00487081
33 *417:19 *422:11 2.15563e-05
34 *421:9 *422:9 0
*RES
1 *921:gpio_ib_mode_sel[32] *422:9 10.5054 
2 *422:9 *422:11 142.244 
3 *422:11 gpio_ib_mode_sel[32] 17.9304 
*END

*D_NET *423 0.167322
*CONN
*P gpio_ib_mode_sel[33] O
*I *921:gpio_ib_mode_sel[33] O *D CF_CARAVEL_SOC
*CAP
1 gpio_ib_mode_sel[33] 0.0044238
2 *921:gpio_ib_mode_sel[33] 0.0023412
3 *423:11 0.0328363
4 *423:9 0.0307537
5 gpio_ib_mode_sel[33] gpio_oeb[33] 0.000623394
6 gpio_ib_mode_sel[33] gpio_vtrip_sel[33] 0.00588567
7 *423:9 *424:9 0
8 *423:9 *433:6 0.000262458
9 *423:11 gpio_slow_sel[35] 0.00398244
10 *423:11 *438:19 0.00991237
11 *423:11 *449:21 0.00165689
12 *423:11 *453:41 0.00824147
13 *423:11 *766:11 0.00353012
14 *423:11 *793:11 0.0050517
15 *248:35 *423:11 0.00934992
16 *292:27 *423:11 0.0261358
17 *357:17 *423:11 0.000537123
18 *357:19 *423:11 0.000126782
19 *358:17 *423:11 0.00103583
20 *361:17 *423:11 0.00926403
21 *364:27 *423:11 0.00316582
22 *383:9 gpio_ib_mode_sel[33] 0.000635942
23 *389:11 *423:11 0.00705807
24 *416:11 *423:11 0.000177107
25 *417:17 gpio_ib_mode_sel[33] 0.000333834
26 *418:11 *423:11 0
*RES
1 *921:gpio_ib_mode_sel[33] *423:9 5.37287 
2 *423:9 *423:11 116.49 
3 *423:11 gpio_ib_mode_sel[33] 12.0184 
*END

*D_NET *424 0.101775
*CONN
*P gpio_ib_mode_sel[34] O
*I *921:gpio_ib_mode_sel[34] O *D CF_CARAVEL_SOC
*CAP
1 gpio_ib_mode_sel[34] 0.00302418
2 *921:gpio_ib_mode_sel[34] 0.00385358
3 *424:18 2.05984e-06
4 *424:11 0.044382
5 *424:9 0.0452135
6 gpio_ib_mode_sel[34] gpio_oeb[34] 0.0022294
7 gpio_ib_mode_sel[34] gpio_vtrip_sel[34] 0.00258261
8 *424:9 *440:17 4.83075e-05
9 *424:18 gpio_oeb[34] 1.53305e-05
10 *392:9 gpio_ib_mode_sel[34] 0.000424518
11 *423:9 *424:9 0
*RES
1 *921:gpio_ib_mode_sel[34] *424:9 8.3774 
2 *424:9 *424:11 88.7553 
3 *424:11 gpio_ib_mode_sel[34] 8.50153 
4 gpio_ib_mode_sel[34] *424:18 0.0556098 
*END

*D_NET *425 0.0955007
*CONN
*P gpio_ib_mode_sel[35] O
*I *921:gpio_ib_mode_sel[35] O *D CF_CARAVEL_SOC
*CAP
1 gpio_ib_mode_sel[35] 0.00594951
2 *921:gpio_ib_mode_sel[35] 0.00182961
3 *425:11 0.0154613
4 *425:9 0.0113414
5 gpio_ib_mode_sel[35] gpio_oeb[35] 0.0017193
6 gpio_ib_mode_sel[35] gpio_vtrip_sel[35] 0.000434228
7 gpio_ib_mode_sel[35] *447:17 0
8 gpio_ib_mode_sel[35] *548:23 0.000314334
9 gpio_ib_mode_sel[35] *737:71 0.000322506
10 gpio_ib_mode_sel[35] *757:9 0.000494594
11 *425:9 gpio_ib_mode_sel[36] 0
12 *425:9 *433:6 0.000206859
13 *425:11 *543:23 0.0113844
14 *425:11 *737:73 0.00733681
15 *425:11 *749:11 0.00375098
16 *425:11 *771:11 0.0029374
17 *425:11 *826:11 0.00238328
18 *425:11 *831:11 0.0112246
19 gpio_dm1[35] gpio_ib_mode_sel[35] 0
20 *382:11 *425:11 0.0137857
21 *386:11 *425:11 0.000106274
22 *388:11 *425:11 0.00434779
23 *418:11 *425:11 0.000169764
*RES
1 *921:gpio_ib_mode_sel[35] *425:9 4.35447 
2 *425:9 *425:11 59.8145 
3 *425:11 gpio_ib_mode_sel[35] 17.6282 
*END

*D_NET *426 0.0593229
*CONN
*P gpio_ib_mode_sel[36] O
*I *921:gpio_ib_mode_sel[36] O *D CF_CARAVEL_SOC
*CAP
1 gpio_ib_mode_sel[36] 0.0127547
2 *921:gpio_ib_mode_sel[36] 0.0127547
3 gpio_ib_mode_sel[36] gpio_ib_mode_sel[37] 0.0014136
4 gpio_ib_mode_sel[36] gpio_oeb[36] 0.0025765
5 gpio_ib_mode_sel[36] gpio_vtrip_sel[36] 0
6 gpio_ib_mode_sel[36] *437:11 0.0105991
7 gpio_ib_mode_sel[36] *457:11 0.00314872
8 gpio_ib_mode_sel[36] *545:15 0.00314872
9 gpio_ib_mode_sel[36] *814:9 0.000251181
10 gpio_ib_mode_sel[36] *816:9 0
11 *336:67 gpio_ib_mode_sel[36] 0.00405247
12 *383:11 gpio_ib_mode_sel[36] 0.0081604
13 *390:11 gpio_ib_mode_sel[36] 0.000173924
14 *417:11 gpio_ib_mode_sel[36] 0.000288919
15 *425:9 gpio_ib_mode_sel[36] 0
*RES
1 *921:gpio_ib_mode_sel[36] gpio_ib_mode_sel[36] 49.2176 
*END

*D_NET *427 0.0220881
*CONN
*P gpio_ib_mode_sel[37] O
*I *921:gpio_ib_mode_sel[37] O *D CF_CARAVEL_SOC
*CAP
1 gpio_ib_mode_sel[37] 0.00901498
2 *921:gpio_ib_mode_sel[37] 0.00901292
3 *427:18 2.05984e-06
4 gpio_ib_mode_sel[37] gpio_oeb[37] 0.00103096
5 gpio_ib_mode_sel[37] *428:9 0
6 gpio_ib_mode_sel[37] *455:21 0.000496609
7 gpio_ib_mode_sel[37] *823:15 0
8 *427:18 gpio_oeb[37] 1.53305e-05
9 gpio_ib_mode_sel[36] gpio_ib_mode_sel[37] 0.0014136
10 *390:11 gpio_ib_mode_sel[37] 0.000496609
11 *398:17 gpio_ib_mode_sel[37] 4.12356e-05
12 *417:11 gpio_ib_mode_sel[37] 0.000563818
*RES
1 *921:gpio_ib_mode_sel[37] gpio_ib_mode_sel[37] 20.9652 
2 gpio_ib_mode_sel[37] *427:18 0.0465306 
*END

*D_NET *428 0.243848
*CONN
*P gpio_ib_mode_sel[38] O
*I *921:gpio_ib_mode_sel[38] O *D CF_CARAVEL_SOC
*CAP
1 gpio_ib_mode_sel[38] 0.0001876
2 *921:gpio_ib_mode_sel[38] 0.0010369
3 *428:23 0.0109814
4 *428:21 0.0118808
5 *428:11 0.0145326
6 *428:9 0.0144825
7 gpio_ib_mode_sel[38] gpio_oeb[38] 0
8 *428:9 *433:6 0.000206859
9 *428:11 *432:11 0.0428172
10 *428:11 *434:11 0
11 *428:11 *557:29 0.000118481
12 *428:11 *804:11 0.00650866
13 *428:11 *851:15 0
14 *428:11 *851:19 0.00791214
15 *428:21 *460:23 0.00033724
16 *428:21 *546:23 0.000142556
17 *428:21 *548:11 0.000336076
18 *428:21 *552:23 1.00941e-05
19 *428:21 *785:25 0
20 *428:21 *837:15 0.000876716
21 *428:21 *853:17 0
22 *428:21 *863:21 0
23 *428:21 *865:15 0.00209388
24 *428:23 *736:43 0.00395823
25 *428:23 *824:23 0.0570304
26 *428:23 *848:11 0.00601357
27 *428:23 *857:11 0.00237842
28 *428:23 *863:11 0.00209004
29 gpio_analog_en[38] *428:23 0.000208922
30 gpio_ib_mode_sel[37] *428:9 0
31 *207:31 *428:23 0.00433296
32 *251:15 *428:23 0.00225851
33 *284:23 *428:23 0.00015452
34 *284:35 *428:23 0.029729
35 *284:39 *428:23 0.00448976
36 *295:25 *428:11 0.000111374
37 *385:15 *428:23 0.000215248
38 *387:21 *428:23 0.016273
39 *387:23 *428:23 0.000142448
*RES
1 *921:gpio_ib_mode_sel[38] *428:9 2.57733 
2 *428:9 *428:11 478.103 
3 *428:11 *428:21 34.2075 
4 *428:21 *428:23 87.1467 
5 *428:23 gpio_ib_mode_sel[38] 3.305 
*END

*D_NET *429 0.347432
*CONN
*P gpio_ib_mode_sel[39] O
*I *921:gpio_ib_mode_sel[39] O *D CF_CARAVEL_SOC
*CAP
1 gpio_ib_mode_sel[39] 0.00174279
2 *921:gpio_ib_mode_sel[39] 0.00135985
3 *429:19 0.0191712
4 *429:17 0.0179956
5 *429:11 0.0093518
6 *429:9 0.0101444
7 gpio_ib_mode_sel[39] gpio_oeb[39] 0
8 gpio_ib_mode_sel[39] gpio_vtrip_sel[39] 0
9 *429:9 *431:9 0
10 *429:11 *435:11 0.00352914
11 *429:11 *448:13 0.0326091
12 *429:11 *825:11 3.97125e-05
13 *429:11 *829:11 0.0419985
14 *429:11 *829:29 9.71141e-05
15 *429:11 *865:15 0
16 *429:17 *825:11 0.00165138
17 *429:17 *825:21 0.000160116
18 *429:17 *829:29 0.00159347
19 *429:17 *854:25 0.000130856
20 *429:17 *854:27 1.20478e-05
21 *429:19 *461:23 0.000661167
22 *429:19 *559:29 0.00123446
23 *429:19 *780:13 0.0510564
24 *429:19 *845:19 0.102432
25 *429:19 *852:25 0.000125859
26 *164:35 *429:19 0.00062529
27 *238:15 *429:19 0.000566136
28 *338:71 *429:19 0.0013618
29 *339:23 *429:19 0.000214474
30 *340:39 *429:19 0.0466161
31 *386:11 *429:11 0.000935259
32 *390:21 *429:17 1.61489e-05
*RES
1 *921:gpio_ib_mode_sel[39] *429:9 3.42347 
2 *429:9 *429:11 468.795 
3 *429:11 *429:17 22.475 
4 *429:17 *429:19 156.193 
5 *429:19 gpio_ib_mode_sel[39] 24.4175 
*END

*D_NET *430 0.691805
*CONN
*P gpio_ib_mode_sel[3] O
*I *921:gpio_ib_mode_sel[3] O *D CF_CARAVEL_SOC
*CAP
1 gpio_ib_mode_sel[3] 0.000847167
2 *921:gpio_ib_mode_sel[3] 0.00107476
3 *430:35 0.00350211
4 *430:33 0.00265494
5 *430:31 0.00312474
6 *430:27 0.0149127
7 *430:25 0.011788
8 *430:23 0.044524
9 *430:21 0.0449806
10 *430:11 0.0126991
11 *430:9 0.0133173
12 gpio_ib_mode_sel[3] gpio_oeb[3] 0
13 gpio_ib_mode_sel[3] gpio_vtrip_sel[3] 0.000610083
14 *430:9 *433:6 0.000262458
15 *430:9 *435:9 0
16 *430:11 *435:11 0
17 *430:11 *542:23 0.000143229
18 *430:11 *785:11 0.00364116
19 *430:11 *804:11 0.000792275
20 *430:11 *837:15 0.0023394
21 *430:11 *845:27 0.00352913
22 *430:11 *847:38 0.00438334
23 *430:11 *865:15 0.00229185
24 *430:21 *467:15 0.00030335
25 *430:21 *471:25 0.000842262
26 *430:21 *842:21 1.48335e-05
27 *430:21 *858:21 0.000274785
28 *430:23 *921:gpio_in[0] 0.000187377
29 *430:23 *921:gpio_in[11] 0.00256607
30 *430:23 *451:25 0.000280977
31 *430:23 *452:15 0
32 *430:23 *550:11 0.0815362
33 *430:23 *737:127 0.000110612
34 *430:23 *793:27 0.241638
35 *430:23 *815:25 0.000569094
36 *430:23 *815:49 0.0106536
37 *430:23 *839:53 0.00258728
38 *430:23 *839:69 0.000900266
39 *430:23 *839:101 0.00208635
40 *430:23 *839:133 0.00195728
41 *430:23 *839:157 0.00188826
42 *430:23 *839:181 0.00279776
43 *430:23 *839:197 0.00220171
44 *430:23 *839:209 0.00284089
45 *430:23 *839:217 0.000267844
46 *430:23 *840:11 0.0123373
47 *430:23 *846:13 5.60217e-05
48 *430:23 *846:37 0.00311278
49 *430:23 *858:11 0
50 *430:27 *445:19 0.000305885
51 *430:27 *562:123 0.0602524
52 *430:35 *782:55 0.00352464
53 *144:11 *430:27 0.00178108
54 *207:19 *430:27 0.009305
55 *223:11 *430:27 0.0044087
56 *226:11 *430:27 0.000631272
57 *247:11 *430:27 0.0228695
58 *258:19 *430:23 0.0109614
59 *262:11 *430:35 0.000856515
60 *292:15 *430:23 0
61 *293:25 *430:21 0.000179383
62 *308:11 *430:27 0.000222998
63 *344:15 *430:23 0.00706318
64 *397:13 *430:11 0.0256686
65 *408:21 *430:21 6.11191e-05
66 *419:9 *430:9 0.000283909
*RES
1 *921:gpio_ib_mode_sel[3] *430:9 3.0422 
2 *430:9 *430:11 49.5647 
3 *430:11 *430:21 6.67977 
4 *430:21 *430:23 2229.5 
5 *430:23 *430:25 2 
6 *430:25 *430:27 678.915 
7 *430:27 *430:31 48.335 
8 *430:31 *430:33 2 
9 *430:33 *430:35 66.0225 
10 *430:35 gpio_ib_mode_sel[3] 2.63243 
*END

*D_NET *431 0.447751
*CONN
*P gpio_ib_mode_sel[40] O
*I *921:gpio_ib_mode_sel[40] O *D CF_CARAVEL_SOC
*CAP
1 gpio_ib_mode_sel[40] 0.00219822
2 *921:gpio_ib_mode_sel[40] 0.00104001
3 *431:15 0.0261836
4 *431:13 0.0239854
5 *431:11 0.00728991
6 *431:9 0.00832992
7 gpio_ib_mode_sel[40] gpio_vtrip_sel[40] 0
8 *431:9 *432:9 0
9 *431:11 *432:11 0.0437707
10 *431:11 *542:23 0.0325403
11 *431:11 *804:11 0.00959337
12 *431:11 *853:21 0.00282377
13 *431:11 *853:23 0.00488813
14 *431:15 *432:15 0.00128633
15 *431:15 *452:15 0.00442379
16 *431:15 *466:15 0.091074
17 *431:15 *468:29 0.0965441
18 *431:15 *469:15 0.00451509
19 *431:15 *479:15 0.00479721
20 *431:15 *484:15 0.0227602
21 *431:15 *548:11 0.0208673
22 *431:15 *815:49 0.00210506
23 *431:15 *839:133 0.00173289
24 *431:15 *839:157 0.00109071
25 *121:15 *431:15 0.0262306
26 *292:15 *431:15 0.00166209
27 *295:15 *431:15 0.0021159
28 *297:20 gpio_ib_mode_sel[40] 0
29 *299:23 *431:15 0.00390193
30 *429:9 *431:9 0
*RES
1 *921:gpio_ib_mode_sel[40] *431:9 2.60773 
2 *431:9 *431:11 488.685 
3 *431:11 *431:13 0.5 
4 *431:13 *431:15 190.046 
5 *431:15 gpio_ib_mode_sel[40] 30.9275 
*END

*D_NET *432 0.491513
*CONN
*P gpio_ib_mode_sel[41] O
*I *921:gpio_ib_mode_sel[41] O *D CF_CARAVEL_SOC
*CAP
1 gpio_ib_mode_sel[41] 0.00207763
2 *921:gpio_ib_mode_sel[41] 0.00100916
3 *432:15 0.0267673
4 *432:13 0.0246896
5 *432:11 0.00753651
6 *432:9 0.00854566
7 gpio_ib_mode_sel[41] gpio_vtrip_sel[41] 0
8 *432:11 *434:11 0
9 *432:11 *542:23 0.000268721
10 *432:11 *804:11 0.0066185
11 *432:11 *853:21 4.07443e-05
12 *432:15 *434:15 0.0521512
13 *432:15 *459:25 0.0169814
14 *432:15 *468:29 0.0965161
15 *432:15 *470:15 0.000436672
16 *432:15 *842:11 0.0155706
17 *121:15 *432:15 0.0492451
18 *295:25 *432:11 3.28414e-05
19 *296:23 *432:15 0.0951513
20 *428:11 *432:11 0.0428172
21 *431:9 *432:9 0
22 *431:11 *432:11 0.0437707
23 *431:15 *432:15 0.00128633
*RES
1 *921:gpio_ib_mode_sel[41] *432:9 2.54947 
2 *432:9 *432:11 494.805 
3 *432:11 *432:13 0.5 
4 *432:13 *432:15 224.831 
5 *432:15 gpio_ib_mode_sel[41] 29.2025 
*END

*D_NET *433 0.461832
*CONN
*P gpio_ib_mode_sel[42] O
*I *921:gpio_ib_mode_sel[42] O *D CF_CARAVEL_SOC
*CAP
1 gpio_ib_mode_sel[42] 0.000965121
2 *921:gpio_ib_mode_sel[42] 0
3 *433:10 0.0362132
4 *433:8 0.035248
5 *433:6 0.0224996
6 *433:4 0.0224996
7 gpio_ib_mode_sel[42] gpio_inp_dis[42] 6.13406e-05
8 gpio_ib_mode_sel[42] gpio_vtrip_sel[42] 0
9 gpio_ib_mode_sel[42] *560:27 0.000202805
10 gpio_ib_mode_sel[42] *786:23 0.00262422
11 gpio_ib_mode_sel[42] *804:23 0
12 gpio_ib_mode_sel[42] *829:43 0.00236398
13 *433:6 *921:mask_rev[0] 0.000206859
14 *433:6 *921:mask_rev[26] 0.000262458
15 *433:6 *921:mask_rev[27] 0.000262458
16 *433:6 *921:mask_rev[28] 0.000262458
17 *433:6 *921:mask_rev[29] 0.000262458
18 *433:6 *921:mask_rev[30] 0.000262458
19 *433:6 *921:mask_rev[31] 0.000262458
20 *433:6 *921:mask_rev[7] 0.000231155
21 *433:6 *921:mask_rev[8] 0.0147072
22 *433:6 *921:resetb_l 0.000262458
23 *433:6 *435:9 0.000262458
24 *433:6 *783:11 0.00890332
25 *433:6 *784:9 0.0283701
26 *433:6 *843:15 0.00273663
27 *433:6 *844:17 0.00375107
28 *433:10 *478:9 0.046641
29 *433:10 *560:27 0.0591858
30 *433:10 *561:18 0.0120849
31 *433:10 *781:23 0.0286465
32 *433:10 *783:15 0.000852468
33 *433:10 *784:21 0.000160538
34 *433:10 *829:35 0.0600002
35 *433:10 *829:43 0.0220462
36 *433:10 *844:13 0.00117212
37 *433:10 *859:19 0.0444822
38 gpio_dm2[42] gpio_ib_mode_sel[42] 0.000212024
39 *397:13 *433:6 0.000262458
40 *406:9 *433:6 0.000206859
41 *407:9 *433:6 0.000206859
42 *408:9 *433:6 0.000262458
43 *413:9 *433:6 0.000262458
44 *416:9 *433:6 0.000262458
45 *418:9 *433:6 0.000262458
46 *423:9 *433:6 0.000262458
47 *425:9 *433:6 0.000206859
48 *428:9 *433:6 0.000206859
49 *430:9 *433:6 0.000262458
*RES
1 *921:gpio_ib_mode_sel[42] *433:4 0.5 
2 *433:4 *433:6 88.3677 
3 *433:6 *433:8 0.5 
4 *433:8 *433:10 253.527 
5 *433:10 gpio_ib_mode_sel[42] 36.4425 
*END

*D_NET *434 0.426267
*CONN
*P gpio_ib_mode_sel[43] O
*I *921:gpio_ib_mode_sel[43] O *D CF_CARAVEL_SOC
*CAP
1 gpio_ib_mode_sel[43] 0.00189084
2 *921:gpio_ib_mode_sel[43] 0.000727752
3 *434:23 0.0462227
4 *434:21 0.0444643
5 *434:15 0.00894223
6 *434:13 0.00880976
7 *434:11 0.0166091
8 *434:9 0.0173369
9 gpio_ib_mode_sel[43] gpio_vtrip_sel[43] 0
10 gpio_ib_mode_sel[43] *692:33 0
11 *434:9 *793:9 0
12 *434:11 *454:41 0.00472302
13 *434:11 *542:23 0
14 *434:11 *828:11 0
15 *434:11 *849:15 0.020177
16 *434:11 *850:23 0.000268721
17 *434:11 *851:19 0
18 *434:11 *858:23 0.00151059
19 *434:11 *868:15 0.015167
20 *434:15 *450:33 0.00999646
21 *434:15 *456:31 0.0117895
22 *434:15 *470:15 0.0521512
23 *434:23 *474:15 0.0567483
24 *434:23 *543:11 0.0151372
25 *434:23 *771:27 0
26 *434:23 *847:16 0.0121666
27 *165:23 *434:23 0.00940524
28 *169:15 *434:23 0.00536396
29 *325:101 *434:21 0
30 *399:11 *434:11 0.00289203
31 *403:11 *434:11 0.000600872
32 *406:11 *434:11 0.000257991
33 *407:11 *434:11 0.0107566
34 *428:11 *434:11 0
35 *432:11 *434:11 0
36 *432:15 *434:15 0.0521512
*RES
1 *921:gpio_ib_mode_sel[43] *434:9 1.9972 
2 *434:9 *434:11 506.025 
3 *434:11 *434:13 0.5 
4 *434:13 *434:15 79.2224 
5 *434:15 *434:21 4.5175 
6 *434:21 *434:23 1270.74 
7 *434:23 gpio_ib_mode_sel[43] 27.83 
*END

*D_NET *435 0.714274
*CONN
*P gpio_ib_mode_sel[4] O
*I *921:gpio_ib_mode_sel[4] O *D CF_CARAVEL_SOC
*CAP
1 gpio_ib_mode_sel[4] 0.000705591
2 *921:gpio_ib_mode_sel[4] 0.0014919
3 *435:35 0.00395652
4 *435:33 0.0050925
5 *435:27 0.0202046
6 *435:25 0.0183631
7 *435:23 0.076159
8 *435:21 0.0764043
9 *435:11 0.0153426
10 *435:9 0.0165893
11 gpio_ib_mode_sel[4] gpio_oeb[4] 0
12 gpio_ib_mode_sel[4] gpio_vtrip_sel[4] 0.00116497
13 *435:11 *448:13 0.000265994
14 *435:11 *448:31 0.0106747
15 *435:11 *449:29 0.00391455
16 *435:11 *543:23 0
17 *435:11 *804:11 0
18 *435:11 *825:11 0.00537817
19 *435:11 *826:11 0.0013443
20 *435:11 *829:11 0.00622647
21 *435:11 *854:27 0.00238795
22 *435:21 *465:21 1.41941e-05
23 *435:21 *851:15 5.43519e-05
24 *435:21 *853:17 0
25 *435:23 *553:13 0.205
26 *435:23 *570:22 0.0116325
27 *435:23 *749:27 0
28 *435:23 *760:31 0.000336843
29 *435:23 *841:11 0.0371416
30 *435:27 *481:11 0.0757922
31 *435:27 *771:31 0.0482828
32 *435:35 *782:55 0.0074204
33 *133:11 *435:27 0.0122798
34 *169:11 *435:27 0
35 *207:39 *435:23 0.0214731
36 *208:29 *435:23 0.0154144
37 *224:19 *435:27 0
38 *353:29 *435:21 0.000801508
39 *386:11 *435:11 0.00837857
40 *388:21 *435:21 0.000793919
41 *429:11 *435:11 0.00352914
42 *430:9 *435:9 0
43 *430:11 *435:11 0
44 *433:6 *435:9 0.000262458
*RES
1 *921:gpio_ib_mode_sel[4] *435:9 3.7414 
2 *435:9 *435:11 53.9575 
3 *435:11 *435:21 5.48497 
4 *435:21 *435:23 2253.99 
5 *435:23 *435:25 2 
6 *435:25 *435:27 846.45 
7 *435:27 *435:33 31.015 
8 *435:33 *435:35 85.9125 
9 *435:35 gpio_ib_mode_sel[4] 2.45003 
*END

*D_NET *436 0.767708
*CONN
*P gpio_ib_mode_sel[5] O
*I *921:gpio_ib_mode_sel[5] O *D CF_CARAVEL_SOC
*CAP
1 gpio_ib_mode_sel[5] 0.00166696
2 *921:gpio_ib_mode_sel[5] 0.00777259
3 *436:27 0.00546746
4 *436:25 0.0038005
5 *436:23 0.0824008
6 *436:21 0.0824008
7 *436:19 0.0120006
8 *436:17 0.0197732
9 gpio_ib_mode_sel[5] gpio_oeb[5] 0.000353657
10 gpio_ib_mode_sel[5] gpio_vtrip_sel[5] 0.000526281
11 *436:17 *437:9 0
12 *436:17 *467:11 0.00174336
13 *436:17 *552:25 0.00280849
14 *436:17 *737:81 0.00138218
15 *436:17 *815:11 0.0127238
16 *436:19 *451:21 0.0588012
17 *436:19 *453:25 0.00644119
18 *436:19 *467:11 0.00322791
19 *436:19 *735:23 0.0692524
20 *436:19 *815:11 0.0013419
21 *436:23 *539:187 0
22 *436:23 *694:6 0.00295901
23 *436:23 *727:11 0.00107573
24 *436:23 *734:11 0.0405641
25 *436:23 *738:11 0.00193477
26 *436:23 *740:11 0.0498878
27 *436:23 *743:11 0.228816
28 *436:23 *808:25 0.00353423
29 *436:27 *571:39 0.0165593
30 *436:27 *782:39 0.00517039
31 gpio_holdover[34] *436:19 0.0012045
32 *115:33 *436:23 8.35068e-05
33 *157:37 *436:23 0.00013827
34 *161:15 *436:23 0.00538202
35 *162:15 *436:23 0.00318157
36 *198:15 *436:23 0.000253983
37 *204:31 *436:23 0
38 *206:43 *436:27 0.00892782
39 *242:15 *436:23 0
40 *247:19 *436:19 0.00904492
41 *283:11 *436:27 0
42 *295:27 *436:17 0
43 *315:25 *436:23 0.00241213
44 *322:315 *436:23 0
45 *326:15 *436:23 0
46 *363:11 *436:19 0.000202664
47 *374:11 *436:19 0.00334357
48 *385:11 *436:19 2.04875e-05
49 *392:57 *436:27 0.000522389
50 *414:11 *436:17 0.00173963
51 *421:9 *436:17 1.21124e-05
52 *421:11 *436:17 0.000262189
53 *421:11 *436:19 0.00657873
54 *422:9 *436:17 1.04823e-05
*RES
1 *921:gpio_ib_mode_sel[5] *436:17 30.0659 
2 *436:17 *436:19 833.318 
3 *436:19 *436:21 2 
4 *436:21 *436:23 2292.63 
5 *436:23 *436:25 2 
6 *436:25 *436:27 191.738 
7 *436:27 gpio_ib_mode_sel[5] 4.36903 
*END

*D_NET *437 0.702396
*CONN
*P gpio_ib_mode_sel[6] O
*I *921:gpio_ib_mode_sel[6] O *D CF_CARAVEL_SOC
*CAP
1 gpio_ib_mode_sel[6] 0.00270635
2 *921:gpio_ib_mode_sel[6] 0.00443233
3 *437:31 0.08401
4 *437:29 0.08295
5 *437:19 0.0157653
6 *437:17 0.0142177
7 *437:11 0.0215693
8 *437:9 0.0259029
9 gpio_ib_mode_sel[6] gpio_oeb[6] 0.00275408
10 gpio_ib_mode_sel[6] gpio_vtrip_sel[6] 0.000582781
11 *437:11 *457:11 0.00288522
12 *437:11 *545:15 0.00207675
13 *437:11 *769:11 0.000360338
14 *437:11 *817:11 0.0116808
15 *437:11 *823:15 0.00249702
16 *437:19 *457:11 0.0362536
17 *437:19 *737:55 0
18 *437:19 *769:11 0.00697363
19 *437:29 *736:21 0.000857944
20 *437:29 *790:11 1.92979e-05
21 *437:31 *544:29 0
22 *437:31 *688:11 0.00439499
23 *437:31 *744:11 0.107901
24 gpio_ib_mode_sel[36] *437:11 0.0105991
25 *115:15 *437:31 0.242975
26 *140:71 *437:31 0.000641572
27 *162:25 *437:29 0.000588393
28 *163:33 *437:29 0.00348557
29 *195:15 *437:31 0
30 *205:51 gpio_ib_mode_sel[6] 0.0023895
31 *205:67 *437:11 0.000543535
32 *273:11 gpio_ib_mode_sel[6] 0
33 *291:15 *437:31 0.000851609
34 *336:67 *437:11 0.00207675
35 *355:11 *437:29 1.79483e-05
36 *383:11 *437:11 0.000117183
37 *393:23 *437:31 0.000266641
38 *398:17 *437:11 0.00639574
39 *412:11 *437:11 0.000655445
40 *412:11 *437:19 0
41 *422:11 *437:11 0
42 *436:17 *437:9 0
*RES
1 *921:gpio_ib_mode_sel[6] *437:9 9.92273 
2 *437:9 *437:11 95.3876 
3 *437:11 *437:17 1.18367 
4 *437:17 *437:19 404.025 
5 *437:19 *437:29 8.8641 
6 *437:29 *437:31 2277.1 
7 *437:31 gpio_ib_mode_sel[6] 34.9269 
*END

*D_NET *438 0.912792
*CONN
*P gpio_ib_mode_sel[7] O
*I *921:gpio_ib_mode_sel[7] O *D CF_CARAVEL_SOC
*CAP
1 gpio_ib_mode_sel[7] 0.00674361
2 *921:gpio_ib_mode_sel[7] 0.00565513
3 *438:27 0.018103
4 *438:25 0.0113594
5 *438:23 0.0326639
6 *438:21 0.0326639
7 *438:19 0.0131915
8 *438:17 0.0188466
9 gpio_ib_mode_sel[7] *702:13 0.000781785
10 gpio_ib_mode_sel[7] *834:15 0.00878747
11 *438:17 *439:9 0
12 *438:19 *555:17 0.00528793
13 *438:19 *755:11 0.0452001
14 *438:19 *793:11 0.00103547
15 *438:19 *827:11 0.0233493
16 *438:23 *759:15 0.0155323
17 *292:27 *438:17 0.00566555
18 *334:36 *438:23 0.226137
19 *353:11 *438:17 0.00504644
20 *357:19 *438:19 0.00756641
21 *358:17 *438:19 0.000200748
22 *361:17 *438:19 0.00244717
23 *361:33 *438:23 0.0347252
24 *370:11 *438:19 2.04299e-05
25 *389:11 *438:19 0.0645158
26 *394:15 *438:23 4.70134e-05
27 *394:19 *438:27 0.0306767
28 *395:23 *438:23 0.252856
29 *395:27 *438:27 0.0312316
30 *416:11 *438:17 0.00254191
31 *423:11 *438:19 0.00991237
*RES
1 *921:gpio_ib_mode_sel[7] *438:17 28.9993 
2 *438:17 *438:19 867.105 
3 *438:19 *438:21 0.5 
4 *438:21 *438:23 371.43 
5 *438:23 *438:25 0.5 
6 *438:25 *438:27 597.825 
7 *438:27 gpio_ib_mode_sel[7] 19.8667 
*END

*D_NET *439 0.761016
*CONN
*P gpio_ib_mode_sel[8] O
*I *921:gpio_ib_mode_sel[8] O *D CF_CARAVEL_SOC
*CAP
1 gpio_ib_mode_sel[8] 0.00127589
2 *921:gpio_ib_mode_sel[8] 0.0069251
3 *439:15 0.094818
4 *439:13 0.0935421
5 *439:11 0.044013
6 *439:9 0.0509381
7 gpio_ib_mode_sel[8] *703:11 0
8 gpio_ib_mode_sel[8] *835:15 0.00085807
9 *439:9 *440:17 0
10 *439:11 *446:11 0.0884767
11 *439:11 *447:17 0.0304129
12 *439:11 *461:11 0
13 *439:11 *776:11 0.010328
14 *439:11 *782:11 0.0471968
15 *439:11 *810:11 0.0308299
16 *439:15 *835:15 0.261401
17 *268:11 gpio_ib_mode_sel[8] 0
18 *311:11 gpio_ib_mode_sel[8] 0
19 *438:17 *439:9 0
*RES
1 *921:gpio_ib_mode_sel[8] *439:9 14.6715 
2 *439:9 *439:11 1760.62 
3 *439:11 *439:13 0.5 
4 *439:13 *439:15 396.951 
5 *439:15 gpio_ib_mode_sel[8] 5.56037 
*END

*D_NET *440 0.920489
*CONN
*P gpio_ib_mode_sel[9] O
*I *921:gpio_ib_mode_sel[9] O *D CF_CARAVEL_SOC
*CAP
1 gpio_ib_mode_sel[9] 0.00582214
2 *921:gpio_ib_mode_sel[9] 0.0137814
3 *440:35 0.0420484
4 *440:33 0.0362263
5 *440:31 0.0396439
6 *440:29 0.0508799
7 *440:19 0.0281917
8 *440:17 0.0307372
9 gpio_ib_mode_sel[9] gpio_oeb[9] 0.000570331
10 gpio_ib_mode_sel[9] *704:11 0.0106223
11 *440:19 *689:15 0.000717091
12 *440:19 *762:11 0
13 *440:19 *770:11 0.0374719
14 *440:19 *833:11 0.0636899
15 *440:29 *730:19 0.0164609
16 *440:29 *754:21 0.000784286
17 *440:31 *753:15 0.217625
18 *440:31 *755:15 0
19 *440:31 *757:15 0.149999
20 *440:31 *759:15 0.0165853
21 *118:211 *440:19 0.000126231
22 *148:13 *440:29 0
23 *283:27 *440:35 0.0229729
24 *290:15 *440:29 0
25 *322:277 *440:19 0.00701058
26 *334:36 *440:31 0.0293174
27 *338:83 *440:19 0.0187983
28 *361:17 *440:29 0.00451015
29 *361:33 *440:29 0.000631825
30 *387:11 *440:19 0.00706258
31 *395:27 *440:35 0.0681548
32 *398:17 *440:17 0
33 *424:9 *440:17 4.83075e-05
34 *439:9 *440:17 0
*RES
1 *921:gpio_ib_mode_sel[9] *440:17 30.9931 
2 *440:17 *440:19 859.455 
3 *440:19 *440:29 49.3971 
4 *440:29 *440:31 1963.84 
5 *440:31 *440:33 2 
6 *440:33 *440:35 938.122 
7 *440:35 gpio_ib_mode_sel[9] 19.3828 
*END

*D_NET *441 0.637827
*CONN
*P gpio_in[0] I
*I *921:gpio_in[0] I *D CF_CARAVEL_SOC
*CAP
1 gpio_in[0] 0.00623364
2 *921:gpio_in[0] 0.00265268
3 *441:19 0.00370145
4 *441:17 0.00107087
5 *441:15 0.0290701
6 *441:13 0.029048
7 *441:11 0.00268753
8 *441:9 0.00892117
9 *921:gpio_in[0] *451:25 0.00304223
10 *921:gpio_in[0] *737:127 0.000156081
11 *921:gpio_in[0] *793:27 0.00278848
12 *921:gpio_in[0] *839:217 0.000529711
13 *921:gpio_in[0] *846:37 0.0121349
14 *921:gpio_in[0] *858:21 5.64401e-05
15 *921:gpio_in[0] *866:17 0.0130928
16 *441:11 *540:38 0.000175036
17 *441:11 *551:125 0.0155857
18 *441:15 *442:15 0.210028
19 *441:15 *463:15 0.219602
20 *441:15 *557:19 0.00392967
21 *441:15 *840:19 0.0041455
22 *441:19 *463:15 0.00196105
23 *441:19 *471:27 0.000994263
24 *441:19 *557:19 0.00346271
25 *441:19 *739:68 0.00255389
26 *256:11 *441:11 0.000190937
27 *339:11 *441:11 0.0164053
28 *346:15 *441:15 0.0109005
29 *408:23 *441:15 0.0325187
30 *430:23 *921:gpio_in[0] 0.000187377
*RES
1 gpio_in[0] *441:9 13.5511 
2 *441:9 *441:11 182.557 
3 *441:11 *441:13 2 
4 *441:13 *441:15 2021.63 
5 *441:15 *441:17 0.36 
6 *441:17 *441:19 54.4425 
7 *441:19 *921:gpio_in[0] 31.3312 
*END

*D_NET *442 0.849663
*CONN
*P gpio_in[10] I
*I *921:gpio_in[10] I *D CF_CARAVEL_SOC
*CAP
1 gpio_in[10] 0.00483707
2 *921:gpio_in[10] 0.000705254
3 *442:15 0.0332729
4 *442:13 0.0325677
5 *442:11 0.0830866
6 *442:9 0.0879237
7 *921:gpio_in[10] *556:37 0.0012514
8 *921:gpio_in[10] *826:29 0.000144918
9 *921:gpio_in[10] *840:19 0.00121337
10 *921:gpio_in[10] *873:17 0
11 *442:11 *445:19 0.00887349
12 *442:11 *705:39 0.0948378
13 *442:15 *463:15 0.000374383
14 *442:15 *471:27 0.0169813
15 *442:15 *531:24 0.0435229
16 *442:15 *534:11 0.00526867
17 *442:15 *557:19 0.0913159
18 gpio_dm0[0] *442:11 0.000108617
19 *106:11 *442:11 0.054587
20 *119:11 *442:11 0
21 *123:15 *442:15 0.0284668
22 *226:11 *442:11 0.0466352
23 *247:11 *442:11 0
24 *325:133 *921:gpio_in[10] 2.6411e-05
25 *408:23 *442:15 0.00363355
26 *441:15 *442:15 0.210028
*RES
1 gpio_in[10] *442:9 10.7214 
2 *442:9 *442:11 2371.73 
3 *442:11 *442:13 2 
4 *442:13 *442:15 1948.32 
5 *442:15 *921:gpio_in[10] 10.2968 
*END

*D_NET *443 0.83166
*CONN
*P gpio_in[11] I
*I *921:gpio_in[11] I *D CF_CARAVEL_SOC
*CAP
1 gpio_in[11] 0.00547549
2 *921:gpio_in[11] 0.00391014
3 *443:31 0.0410937
4 *443:29 0.0373124
5 *443:19 0.033619
6 *443:17 0.0335276
7 *443:11 0.0810613
8 *443:9 0.0864993
9 *921:gpio_in[11] *793:27 0.00288844
10 *921:gpio_in[11] *839:197 0.00776599
11 *921:gpio_in[11] *839:209 0.000429519
12 *921:gpio_in[11] *866:17 0.0135999
13 *443:11 *570:26 0.11586
14 *443:19 *569:22 0.00612397
15 *443:19 *570:26 0.0088227
16 *443:19 *572:28 0.0234659
17 *443:19 *661:19 0.005692
18 *443:19 *698:23 0.00294998
19 *443:29 *444:15 2.08918e-05
20 *443:29 *815:49 3.6898e-05
21 *443:31 *451:25 0.000759504
22 *443:31 *457:23 0.021143
23 *443:31 *458:23 0.00159173
24 *443:31 *531:24 0.00010988
25 *443:31 *534:11 0.0483407
26 *443:31 *557:19 0.0366851
27 *443:31 *793:27 0.114639
28 *443:31 *815:49 0.0119323
29 *443:31 *866:17 0.0219557
30 gpio_dm1[0] *443:19 0
31 gpio_dm2[1] *443:19 0
32 *92:11 *443:11 0.0275493
33 *95:11 *443:11 0
34 *96:11 *443:11 0
35 *105:11 *443:11 0.00493517
36 *125:11 *443:11 0
37 *125:11 *443:19 0.00458806
38 *309:13 *443:19 0
39 *322:27 *443:19 0.00113467
40 *322:235 *921:gpio_in[11] 9.49713e-05
41 *335:13 *443:11 9.50342e-06
42 *335:13 *443:19 0.00987018
43 *336:11 *443:19 0.00458806
44 *336:11 *443:29 4.09447e-05
45 *338:11 *443:11 0.000395092
46 *338:11 *443:19 0.00810304
47 *338:17 *443:19 0.000416344
48 *338:17 *443:29 3.98126e-05
49 *350:11 *443:19 0
50 *397:53 *921:gpio_in[11] 1.74629e-05
51 *430:23 *921:gpio_in[11] 0.00256607
*RES
1 gpio_in[11] *443:9 12.1603 
2 *443:9 *443:11 1940.66 
3 *443:11 *443:17 1.06713 
4 *443:17 *443:19 100.986 
5 *443:19 *443:29 3.72943 
6 *443:29 *443:31 1802.39 
7 *443:31 *921:gpio_in[11] 34.4852 
*END

*D_NET *444 0.887998
*CONN
*P gpio_in[12] I
*I *921:gpio_in[12] I *D CF_CARAVEL_SOC
*CAP
1 gpio_in[12] 0.00406971
2 *921:gpio_in[12] 0.00348961
3 *444:71 0.0117365
4 *444:69 0.0131957
5 *444:55 0.0229437
6 *444:53 0.0195867
7 *444:39 0.00257409
8 *444:37 0.00362433
9 *444:23 0.00366168
10 *444:21 0.00115546
11 *444:15 0.00961201
12 *444:13 0.00947616
13 *444:11 0.100916
14 *444:9 0.104986
15 *921:gpio_in[12] *921:gpio_in[16] 0.00479149
16 *921:gpio_in[12] *739:112 8.09735e-05
17 *921:gpio_in[12] *826:29 0.00274131
18 *444:9 *752:15 0
19 *444:11 *484:11 0.197807
20 *444:11 *788:19 0
21 *444:15 *529:9 0.03726
22 *444:15 *815:49 0
23 *444:23 *533:104 0.000890977
24 *444:23 *696:95 1.03423e-05
25 *444:23 *740:95 0.00701451
26 *444:37 *529:9 0.00287073
27 *444:37 *530:75 0
28 *444:37 *532:30 6.03517e-05
29 *444:37 *535:93 0
30 *444:37 *567:14 0.00138437
31 *444:37 *568:11 0.00146583
32 *444:37 *569:18 0.000606579
33 *444:37 *572:16 0.00137739
34 *444:37 *696:95 0.000751877
35 *444:37 *826:117 0
36 *444:39 *532:16 0.00734988
37 *444:53 *535:65 0.000118754
38 *444:53 *536:33 0.00742677
39 *444:53 *562:89 0
40 *444:53 *696:95 0.00130876
41 *444:53 *741:160 0.00161799
42 *444:55 *532:16 0.0165355
43 *444:55 *537:12 0.000904107
44 *444:55 *541:27 0.054868
45 *444:55 *556:11 0
46 *444:55 *572:16 0.00325273
47 *444:55 *826:47 0
48 *444:69 gpio_out[39] 0.00572461
49 *444:69 *472:55 0.0116596
50 *444:69 *539:69 0.027159
51 *444:69 *826:45 6.16289e-05
52 *444:71 *472:55 0.00369267
53 *444:71 *556:11 0.000334568
54 *444:71 *693:175 0.000190905
55 *444:71 *826:29 0.00275643
56 gpio_analog_sel[43] *444:15 0.00797288
57 gpio_analog_sel[43] *444:37 0.00172467
58 *103:11 *444:11 0
59 *115:11 *444:11 0
60 *118:39 *444:23 0.000171641
61 *118:57 *444:37 0.000931628
62 *118:69 *444:39 0.000314678
63 *118:75 *444:53 0.00118365
64 *118:179 *444:71 0.00102763
65 *125:15 *444:23 0.00835092
66 *125:15 *444:39 0.00788268
67 *125:15 *444:55 0.0160009
68 *155:11 *444:11 0.00512742
69 *180:11 *444:11 0.0384508
70 *225:19 *444:11 0
71 *243:11 *444:11 0.00921356
72 *246:11 *444:11 0
73 *270:19 *444:11 0
74 *293:15 *444:71 0.0034113
75 *310:11 *444:11 0.010807
76 *322:69 *444:21 0.000227379
77 *322:129 *444:55 0.00141813
78 *322:181 *444:69 4.36573e-06
79 *325:39 *444:53 0.00128441
80 *325:57 *444:53 7.9642e-06
81 *325:117 *921:gpio_in[12] 6.51859e-05
82 *338:35 *444:55 0.0104129
83 *338:69 *444:69 0.00111561
84 *346:15 *444:15 0.0120761
85 *386:69 *921:gpio_in[12] 0
86 *397:53 *921:gpio_in[12] 0.00197727
87 *397:77 *444:71 0.000297002
88 *397:79 *444:71 0.017188
89 *419:23 *444:71 0.0142269
90 *443:29 *444:15 2.08918e-05
*RES
1 gpio_in[12] *444:9 9.12537 
2 *444:9 *444:11 2706.68 
3 *444:11 *444:13 0.5 
4 *444:13 *444:15 55.1 
5 *444:15 *444:21 5.2825 
6 *444:21 *444:23 75.315 
7 *444:23 *444:37 16.137 
8 *444:37 *444:39 71.175 
9 *444:39 *444:53 16.2823 
10 *444:53 *444:55 706.665 
11 *444:55 *444:69 47.2226 
12 *444:69 *444:71 288.87 
13 *444:71 *921:gpio_in[12] 22.4334 
*END

*D_NET *445 1.02469
*CONN
*P gpio_in[13] I
*I *921:gpio_in[13] I *D CF_CARAVEL_SOC
*CAP
1 gpio_in[13] 0.00282515
2 *921:gpio_in[13] 0.00142943
3 *445:23 0.0291311
4 *445:21 0.0277017
5 *445:19 0.0144349
6 *445:17 0.0162211
7 *445:11 0.0665992
8 *445:9 0.0676381
9 *445:9 gpio_slow_sel[13] 0
10 *445:11 *692:23 0.00104614
11 *445:11 *787:19 0.000240628
12 *445:11 *832:51 0.00927845
13 *445:19 *562:123 0.0290518
14 *445:19 *705:39 0.00885592
15 *445:19 *716:15 0.0319197
16 *445:19 *727:15 0.0169796
17 *445:23 *481:15 0.196644
18 *445:23 *482:15 0.000113808
19 *445:23 *483:23 0.0187252
20 *445:23 *547:13 0.00495845
21 *445:23 *555:13 0.1728
22 *445:23 *837:11 0.047091
23 *90:11 *445:19 0.00112898
24 *119:11 *445:19 0
25 *178:19 *445:11 0.0405531
26 *207:19 *445:19 0
27 *226:11 *445:19 0.00130881
28 *267:23 *445:11 0
29 *274:69 *445:11 0.00289822
30 *308:11 *445:19 0.00553673
31 *313:11 *445:11 0.198193
32 *321:49 *445:11 0.00220178
33 *430:27 *445:19 0.000305885
34 *442:11 *445:19 0.00887349
*RES
1 gpio_in[13] *445:9 6.07244 
2 *445:9 *445:11 2290.9 
3 *445:11 *445:17 29.635 
4 *445:17 *445:19 769.95 
5 *445:19 *445:21 2 
6 *445:21 *445:23 1887.6 
7 *445:23 *921:gpio_in[13] 21.3275 
*END

*D_NET *446 0.99114
*CONN
*P gpio_in[14] I
*I *921:gpio_in[14] I *D CF_CARAVEL_SOC
*CAP
1 gpio_in[14] 0.000209138
2 *921:gpio_in[14] 0.0021977
3 *446:27 0.0100405
4 *446:25 0.00880185
5 *446:19 0.0376532
6 *446:17 0.0390552
7 *446:11 0.0684069
8 *446:9 0.0660457
9 *446:7 0.146142
10 *446:5 0.146352
11 *446:11 gpio_oeb[29] 0.000272003
12 *446:11 *447:17 0.200461
13 *446:11 *810:11 0
14 *446:19 *455:21 0
15 *446:19 *470:11 0
16 *446:19 *693:79 0
17 *446:19 *693:83 0
18 *446:19 *763:11 0
19 *446:19 *774:11 0.0144389
20 *446:19 *775:11 0.0139978
21 *446:19 *779:11 0.00987807
22 *446:25 *455:21 0
23 *446:25 *544:17 0
24 *446:27 *447:21 0.0446402
25 *446:27 *546:23 0.000663149
26 *446:27 *825:23 0.00906705
27 *446:27 *844:13 0.0231523
28 *119:27 *446:25 0.000111733
29 *149:39 *446:7 0
30 *238:25 *446:25 1.92979e-05
31 *250:23 *446:27 0.000200091
32 *289:33 *446:25 8.08514e-05
33 *294:27 *446:19 0.0605745
34 *294:27 *446:25 0.000202969
35 *439:11 *446:11 0.0884767
*RES
1 gpio_in[14] *446:5 0.601033 
2 *446:5 *446:7 399.465 
3 *446:7 *446:9 0.5 
4 *446:9 *446:11 2316.4 
5 *446:11 *446:17 38.26 
6 *446:17 *446:19 1068.56 
7 *446:19 *446:25 19.8875 
8 *446:25 *446:27 411 
9 *446:27 *921:gpio_in[14] 31.8875 
*END

*D_NET *447 1.08097
*CONN
*P gpio_in[15] I
*I *921:gpio_in[15] I *D CF_CARAVEL_SOC
*CAP
1 gpio_in[15] 0.000970366
2 *921:gpio_in[15] 0.00215556
3 *447:21 0.0108621
4 *447:19 0.00870652
5 *447:17 0.14457
6 *447:15 0.14457
7 *447:13 0.0892577
8 *447:11 0.090228
9 *447:17 *461:11 0
10 *447:17 *462:11 0
11 *447:17 *547:25 0
12 *447:17 *548:23 0
13 *447:17 *693:41 0
14 *447:17 *776:11 0.0103269
15 *447:17 *811:11 0
16 *447:21 *453:49 0.0449184
17 *447:21 *546:23 0.000650567
18 *447:21 *825:23 0.0103992
19 *447:21 *844:13 0.00111359
20 gpio_analog_en[32] *447:17 0
21 gpio_analog_pol[30] *447:17 0
22 gpio_analog_sel[29] *447:17 0
23 gpio_analog_sel[32] *447:17 0
24 gpio_dm2[37] *447:17 0
25 gpio_ib_mode_sel[35] *447:17 0
26 *360:15 *447:13 0.189965
27 *362:15 *447:13 0.0562018
28 *381:11 *447:17 0
29 *381:15 *447:17 0
30 *397:77 *921:gpio_in[15] 8.57101e-05
31 *404:23 *447:13 0
32 *409:15 *447:13 0.000479324
33 *439:11 *447:17 0.0304129
34 *446:11 *447:17 0.200461
35 *446:27 *447:21 0.0446402
*RES
1 gpio_in[15] *447:11 19.6475 
2 *447:11 *447:13 2235.71 
3 *447:13 *447:15 2 
4 *447:15 *447:17 3548.94 
5 *447:17 *447:19 2 
6 *447:19 *447:21 469.305 
7 *447:21 *921:gpio_in[15] 31.6325 
*END

*D_NET *448 1.04492
*CONN
*P gpio_in[16] I
*I *921:gpio_in[16] I *D CF_CARAVEL_SOC
*CAP
1 gpio_in[16] 1.31292e-05
2 *921:gpio_in[16] 0.00438969
3 *448:33 0.00902526
4 *448:31 0.00761419
5 *448:13 0.122712
6 *448:11 0.119734
7 *448:9 0.0653719
8 *448:7 0.065385
9 *921:gpio_in[16] *541:77 8.34139e-05
10 *921:gpio_in[16] *693:137 0
11 *921:gpio_in[16] *826:29 0.00266637
12 *921:gpio_in[16] *840:19 0.0039343
13 *448:9 *449:9 0.175194
14 *448:9 *450:9 0.000180373
15 *448:9 *451:9 0.000351848
16 *448:9 *536:245 0.00279337
17 *448:9 *537:250 0.00881766
18 *448:13 *451:13 0
19 *448:13 *453:35 0.00209062
20 *448:13 *785:11 0
21 *448:13 *797:17 0.00133617
22 *448:13 *798:19 0.248078
23 *448:13 *801:11 0
24 *448:13 *805:11 0
25 *448:13 *819:11 0.000546361
26 *448:13 *829:11 0.00994298
27 *448:13 *845:27 0
28 *448:13 *865:15 0
29 *448:31 *471:11 0.00233612
30 *448:31 *471:25 4.12831e-05
31 *448:31 *543:23 0
32 *448:31 *826:11 0.00606309
33 *448:31 *852:27 0.000314814
34 *448:31 *854:27 0.00253603
35 *448:31 *873:47 0
36 *448:33 *451:25 0.0335584
37 *448:33 *457:23 0.033375
38 *448:33 *866:17 0.00655717
39 *921:gpio_in[12] *921:gpio_in[16] 0.00479149
40 *118:185 *921:gpio_in[16] 0.000880121
41 *161:19 *448:13 0.00107427
42 *359:15 *448:9 0.019529
43 *359:21 *448:9 0.000139081
44 *359:23 *448:9 0.0236871
45 *360:11 *448:13 0.00493089
46 *363:19 *448:9 0.000335221
47 *386:69 *921:gpio_in[16] 0
48 *391:11 *448:13 0.00538556
49 *397:53 *921:gpio_in[16] 0
50 *397:77 *921:gpio_in[16] 0.00291924
51 *419:23 *921:gpio_in[16] 0.00265331
52 *429:11 *448:13 0.0326091
53 *435:11 *448:13 0.000265994
54 *435:11 *448:31 0.0106747
*RES
1 gpio_in[16] *448:7 2.18 
2 *448:7 *448:9 1786.86 
3 *448:9 *448:11 2 
4 *448:11 *448:13 3425.14 
5 *448:13 *448:31 26.1988 
6 *448:31 *448:33 309.57 
7 *448:33 *921:gpio_in[16] 27.7309 
*END

*D_NET *449 1.11166
*CONN
*P gpio_in[17] I
*I *921:gpio_in[17] I *D CF_CARAVEL_SOC
*CAP
1 gpio_in[17] 3.38334e-05
2 *921:gpio_in[17] 0.00161892
3 *449:41 0.00862776
4 *449:39 0.00700885
5 *449:37 0.00469392
6 *449:35 0.00610974
7 *449:29 0.0204492
8 *449:27 0.0196194
9 *449:21 0.00379169
10 *449:19 0.00483149
11 *449:13 0.0869036
12 *449:11 0.0852778
13 *449:9 0.0280755
14 *449:7 0.0281093
15 *921:gpio_in[17] *470:15 0.000387952
16 *921:gpio_in[17] *539:105 0.000101386
17 *921:gpio_in[17] *693:175 0
18 *921:gpio_in[17] *739:112 0.000401204
19 *921:gpio_in[17] *847:16 0.00182623
20 *449:9 *450:9 0.138209
21 *449:9 *537:250 0.00279337
22 *449:13 *450:13 0
23 *449:13 *453:17 0.211828
24 *449:13 *541:125 0
25 *449:13 *542:39 0.000477155
26 *449:13 *690:21 0
27 *449:13 *758:9 0.00726968
28 *449:13 *831:27 0.00331883
29 *449:13 *836:11 0.00664276
30 *449:19 *453:35 0
31 *449:21 *453:41 0.00562031
32 *449:21 *543:31 0
33 *449:29 *471:11 0.0158608
34 *449:29 *737:73 0
35 *449:29 *751:11 0.0200702
36 *449:29 *791:23 0.00826
37 *449:29 *797:17 0.00195784
38 *449:29 *797:19 0.000886779
39 *449:29 *798:19 0
40 *449:29 *808:11 0.00865491
41 *449:29 *819:11 0.00344663
42 *449:29 *825:11 0.023718
43 *449:29 *829:11 0.000624521
44 *449:29 *852:27 0.0116806
45 *449:29 *854:27 0.0125968
46 *449:37 *921:mask_rev[7] 0.00134772
47 *449:37 *450:29 0.00570969
48 *449:37 *844:17 0
49 *449:37 *873:39 0
50 *449:41 *461:23 0.0453406
51 *449:41 *780:13 0.0099373
52 *115:33 *449:13 0
53 *160:29 *449:13 0.0022077
54 *238:15 *449:41 0.0266805
55 *354:11 *449:29 0.000496885
56 *359:15 *449:9 0.0173849
57 *359:21 *449:9 0.000188169
58 *359:23 *449:9 0.0241761
59 *363:19 *449:9 0.00036272
60 *375:19 *449:21 0
61 *386:11 *449:29 0.00396403
62 *389:11 *449:21 0.00131657
63 *423:11 *449:21 0.00165689
64 *435:11 *449:29 0.00391455
65 *448:9 *449:9 0.175194
*RES
1 gpio_in[17] *449:7 2.435 
2 *449:7 *449:9 1580.9 
3 *449:9 *449:11 2 
4 *449:11 *449:13 2441.22 
5 *449:13 *449:19 27.565 
6 *449:19 *449:21 88.335 
7 *449:21 *449:27 12.73 
8 *449:27 *449:29 905.61 
9 *449:29 *449:35 24.115 
10 *449:35 *449:37 116.385 
11 *449:37 *449:39 2 
12 *449:39 *449:41 417.21 
13 *449:41 *921:gpio_in[17] 20.979 
*END

*D_NET *450 1.0045
*CONN
*P gpio_in[18] I
*I *921:gpio_in[18] I *D CF_CARAVEL_SOC
*CAP
1 gpio_in[18] 5.54381e-05
2 *921:gpio_in[18] 0.00198985
3 *450:33 0.00913821
4 *450:31 0.00714836
5 *450:29 0.0043846
6 *450:27 0.0076082
7 *450:13 0.130165
8 *450:11 0.126942
9 *450:9 0.025367
10 *450:7 0.0254224
11 *921:gpio_in[18] *472:55 0.000221392
12 *921:gpio_in[18] *539:97 0.000182829
13 *921:gpio_in[18] *739:112 0.000317469
14 *921:gpio_in[18] *826:29 0
15 *450:9 *451:9 0.0961479
16 *450:9 *763:15 0.00636111
17 *450:13 *541:125 0.00163144
18 *450:13 *542:39 0
19 *450:13 *690:21 0.000169455
20 *450:13 *752:11 0.0345116
21 *450:13 *786:11 0.000210651
22 *450:13 *830:11 0.00414726
23 *450:13 *840:27 0
24 *450:13 *842:23 0
25 *450:13 *860:19 0.00945307
26 *450:27 *921:mask_rev[11] 0.000750225
27 *450:27 *921:mask_rev[9] 7.5434e-05
28 *450:27 *921:porb_l 0.000111222
29 *450:27 *786:11 0.0032581
30 *450:27 *828:11 0.00094184
31 *450:27 *830:11 0.00055704
32 *450:29 *921:mask_rev[7] 0.00134772
33 *450:33 *456:31 0.0459285
34 *450:33 *771:27 0.0270137
35 *115:33 *450:13 0.000101791
36 *359:15 *450:9 0.0115628
37 *359:21 *450:9 0.000512209
38 *359:23 *450:9 0.0181172
39 *386:89 *921:gpio_in[18] 0.00031516
40 *397:77 *921:gpio_in[18] 0.00174991
41 *401:11 *450:13 0.24649
42 *434:15 *450:33 0.00999646
43 *448:9 *450:9 0.000180373
44 *449:9 *450:9 0.138209
45 *449:13 *450:13 0
46 *449:37 *450:29 0.00570969
*RES
1 gpio_in[18] *450:7 2.69 
2 *450:7 *450:9 1250.04 
3 *450:9 *450:11 2 
4 *450:11 *450:13 3377.2 
5 *450:13 *450:27 13.4785 
6 *450:27 *450:29 111.668 
7 *450:29 *450:31 2 
8 *450:31 *450:33 422.73 
9 *450:33 *921:gpio_in[18] 20.6013 
*END

*D_NET *451 0.879187
*CONN
*P gpio_in[19] I
*I *921:gpio_in[19] I *D CF_CARAVEL_SOC
*CAP
1 gpio_in[19] 7.49216e-05
2 *921:gpio_in[19] 0.00173768
3 *451:25 0.00975452
4 *451:23 0.00801684
5 *451:21 0.0166553
6 *451:19 0.0176841
7 *451:13 0.122584
8 *451:11 0.121555
9 *451:9 0.0316116
10 *451:7 0.0316866
11 *921:gpio_in[19] *793:27 0.00136041
12 *921:gpio_in[19] *839:197 0.00708254
13 *921:gpio_in[19] *866:17 0.00707795
14 *451:9 *763:15 0.0116526
15 *451:13 *792:11 0.00518629
16 *451:13 *795:19 0
17 *451:13 *796:11 0
18 *451:13 *799:11 0
19 *451:13 *800:11 0
20 *451:13 *801:11 0.0181195
21 *451:13 *805:11 0.000278565
22 *451:13 *806:11 0.000223654
23 *451:13 *807:11 0.0270875
24 *451:13 *834:11 0.0144019
25 *451:19 *453:35 0.000978396
26 *451:21 *467:11 0.0118648
27 *451:21 *815:11 0.00909751
28 *451:21 *863:23 0.0125117
29 *451:25 *457:23 0.00776612
30 *451:25 *550:11 0.00015046
31 *451:25 *793:27 0.0456816
32 *451:25 *815:25 0.00110928
33 *451:25 *866:17 0.00536868
34 gpio_dm0[34] *451:21 0.000698584
35 gpio_holdover[34] *451:21 0.0012045
36 *921:gpio_in[0] *451:25 0.00304223
37 *322:211 *921:gpio_in[19] 9.68083e-06
38 *325:133 *451:25 0.000424068
39 *353:11 *451:21 0.00912934
40 *359:15 *451:9 0.0256355
41 *359:21 *451:9 0.00111124
42 *359:23 *451:9 0.000921811
43 *363:19 *451:9 0.000164601
44 *385:11 *451:21 0.0985852
45 *430:23 *451:25 0.000280977
46 *436:19 *451:21 0.0588012
47 *443:31 *451:25 0.000759504
48 *448:9 *451:9 0.000351848
49 *448:13 *451:13 0
50 *448:33 *451:25 0.0335584
51 *450:9 *451:9 0.0961479
*RES
1 gpio_in[19] *451:7 2.945 
2 *451:7 *451:9 875.715 
3 *451:9 *451:11 2 
4 *451:11 *451:13 2443.51 
5 *451:13 *451:19 23.08 
6 *451:19 *451:21 1097.37 
7 *451:21 *451:23 2 
8 *451:23 *451:25 452.745 
9 *451:25 *921:gpio_in[19] 20.7116 
*END

*D_NET *452 0.657662
*CONN
*P gpio_in[1] I
*I *921:gpio_in[1] I *D CF_CARAVEL_SOC
*CAP
1 gpio_in[1] 0.00525696
2 *921:gpio_in[1] 0.00061531
3 *452:15 0.0318495
4 *452:13 0.0312342
5 *452:11 0.00685078
6 *452:9 0.0121077
7 *452:11 *463:11 0.0317106
8 *452:11 *474:11 0.000239053
9 *452:15 *466:15 0.0199314
10 *452:15 *469:15 0.00180688
11 *452:15 *479:15 0.22811
12 *452:15 *484:15 8.25446e-05
13 *452:15 *548:11 0.00329944
14 gpio_dm1[0] *452:11 0.000970057
15 *125:11 *452:11 0.0136049
16 *273:9 *452:9 0.00168423
17 *292:15 *452:15 0.000868062
18 *295:15 *452:15 0.234286
19 *299:23 *452:15 0.0285606
20 *309:13 *452:11 0.000169377
21 *336:11 *452:11 0
22 *430:23 *452:15 0
23 *431:15 *452:15 0.00442379
*RES
1 gpio_in[1] *452:9 12.216 
2 *452:9 *452:11 358.253 
3 *452:11 *452:13 2 
4 *452:13 *452:15 2174.99 
5 *452:15 *921:gpio_in[1] 11.1425 
*END

*D_NET *453 0.963336
*CONN
*P gpio_in[20] I
*I *921:gpio_in[20] I *D CF_CARAVEL_SOC
*CAP
1 gpio_in[20] 0.00101137
2 *921:gpio_in[20] 0.002166
3 *453:49 0.0103923
4 *453:47 0.00876477
5 *453:41 0.0179517
6 *453:39 0.0181959
7 *453:35 0.00249715
8 *453:25 0.00285818
9 *453:23 0.00320429
10 *453:17 0.0810798
11 *453:15 0.0790193
12 *453:13 0.0237593
13 *453:11 0.0247706
14 *453:17 *756:6 0.0151342
15 *453:17 *758:9 0.00915049
16 *453:17 *831:27 0.0111411
17 *453:17 *836:11 0.00857388
18 *453:35 *805:11 0
19 *453:41 *543:31 0
20 *453:41 *737:65 0
21 *453:41 *793:11 0.00226475
22 *453:41 *827:11 7.70952e-06
23 *453:41 *857:23 5.1985e-06
24 *453:47 *462:21 0.000184746
25 *453:47 *827:11 0.000472551
26 *453:47 *857:21 0.000321239
27 *453:49 *454:53 0.0560993
28 *453:49 *541:59 0.00724518
29 *453:49 *546:13 0.000478574
30 *453:49 *552:23 0.000109729
31 *453:49 *784:13 0.0133769
32 *453:49 *825:23 0.000130508
33 *453:49 *844:13 0.000710543
34 gpio_analog_sel[33] *453:25 0.000105649
35 gpio_holdover[34] *453:25 0.000200748
36 *248:33 *453:47 0.000587126
37 *248:35 *453:41 0.0827648
38 *248:35 *453:47 1.30286e-05
39 *335:25 *453:49 0.00163737
40 *360:15 *453:13 0.0729405
41 *362:15 *453:13 0.000637676
42 *363:11 *453:25 0.00079311
43 *365:15 *453:13 0.000184366
44 *374:11 *453:25 0.000340804
45 *385:11 *453:25 0.00504621
46 *389:11 *453:41 0.0971616
47 *391:11 *453:35 0.00013192
48 *404:23 *453:13 0
49 *408:13 *453:41 0.00552618
50 *409:15 *453:13 0.0140694
51 *423:11 *453:41 0.00824147
52 *436:19 *453:25 0.00644119
53 *447:21 *453:49 0.0449184
54 *448:13 *453:35 0.00209062
55 *449:13 *453:17 0.211828
56 *449:19 *453:35 0
57 *449:21 *453:41 0.00562031
58 *451:19 *453:35 0.000978396
*RES
1 gpio_in[20] *453:11 19.1375 
2 *453:11 *453:13 671.475 
3 *453:13 *453:15 2 
4 *453:15 *453:17 2355.03 
5 *453:17 *453:23 33.775 
6 *453:23 *453:25 72.27 
7 *453:25 *453:35 46.23 
8 *453:35 *453:39 13.145 
9 *453:39 *453:41 1082.96 
10 *453:41 *453:47 18.5825 
11 *453:47 *453:49 537.615 
12 *453:49 *921:gpio_in[20] 31.3775 
*END

*D_NET *454 0.810932
*CONN
*P gpio_in[21] I
*I *921:gpio_in[21] I *D CF_CARAVEL_SOC
*CAP
1 gpio_in[21] 9.87705e-05
2 *921:gpio_in[21] 0.00214572
3 *454:53 0.00988032
4 *454:51 0.00878097
5 *454:41 0.0260757
6 *454:39 0.0301528
7 *454:25 0.0135312
8 *454:23 0.00913924
9 *454:17 0.0151356
10 *454:15 0.0144041
11 *454:13 0.0130352
12 *454:11 0.0130352
13 *454:9 0.106823
14 *454:7 0.106921
15 *454:9 *673:7 0
16 *454:13 *542:51 0.051781
17 *454:13 *715:6 0.00913235
18 *454:13 *719:8 0.0115749
19 *454:17 *455:13 0.0225582
20 *454:17 *541:127 0.00946853
21 *454:17 *543:39 0.013649
22 *454:23 *543:37 0.0011913
23 *454:25 *750:11 0.000103095
24 *454:25 *764:11 0.0210249
25 *454:25 *796:11 0
26 *454:39 *756:6 0.00906285
27 *454:39 *763:9 0.000204623
28 *454:39 *764:9 0
29 *454:39 *784:7 8.20724e-06
30 *454:39 *785:9 0.000166069
31 *454:41 *786:11 0.0793009
32 *454:41 *794:11 0.000658995
33 *454:41 *804:11 0.0042664
34 *454:41 *849:15 0.00348685
35 *454:41 *850:23 0.00443057
36 *454:41 *851:15 0.00032606
37 *454:41 *868:15 0.00316639
38 *454:51 *471:25 0.000252804
39 *454:51 *830:11 0.00185934
40 *454:51 *851:15 0
41 *454:51 *860:15 0.00216565
42 *454:53 *546:13 0.0587995
43 *454:53 *784:13 0.0127682
44 *103:15 *454:13 0
45 *116:69 *454:25 0.00274074
46 *206:51 *454:17 0
47 *206:57 *454:23 0.000144792
48 *335:25 *454:53 0.000856999
49 *386:45 *454:51 0
50 *399:11 *454:41 0.0427959
51 *403:11 *454:41 0.000125307
52 *405:11 *454:41 0.000638352
53 *406:11 *454:41 0.00867129
54 *407:11 *454:41 0.0035711
55 *419:29 *921:gpio_in[21] 0
56 *434:11 *454:41 0.00472302
57 *453:49 *454:53 0.0560993
*RES
1 gpio_in[21] *454:7 1.35 
2 *454:7 *454:9 1925.35 
3 *454:9 *454:11 0.5 
4 *454:11 *454:13 80.0964 
5 *454:13 *454:15 0.5 
6 *454:15 *454:17 437.685 
7 *454:17 *454:23 2.90253 
8 *454:23 *454:25 235.215 
9 *454:25 *454:39 21.4497 
10 *454:39 *454:41 142.33 
11 *454:41 *454:51 30.1692 
12 *454:51 *454:53 541.065 
13 *454:53 *921:gpio_in[21] 31.1225 
*END

*D_NET *455 0.772669
*CONN
*P gpio_in[22] I
*I *921:gpio_in[22] I *D CF_CARAVEL_SOC
*CAP
1 gpio_in[22] 0.10674
2 *921:gpio_in[22] 0.00156912
3 *455:25 0.0112939
4 *455:23 0.00972474
5 *455:21 0.0177017
6 *455:19 0.0222455
7 *455:13 0.0210709
8 *455:11 0.0206401
9 *455:5 0.110853
10 *455:5 *712:7 0
11 *455:11 *542:51 0.0323471
12 *455:11 *543:45 0.0293197
13 *455:11 *720:9 0.00172457
14 *455:11 *807:17 0
15 *455:13 *543:39 0.00893235
16 *455:19 gpio_slow_sel[33] 0.000350766
17 *455:19 *543:37 0.000740323
18 *455:21 *470:11 0.0640945
19 *455:21 *539:183 1.93834e-05
20 *455:21 *693:31 0.000241711
21 *455:21 *693:79 0.00830811
22 *455:21 *693:83 0.00178311
23 *455:21 *737:57 0.00597645
24 *455:21 *763:11 0.00783775
25 *455:25 *462:23 0.0637374
26 *455:25 *481:25 0.00662538
27 *455:25 *544:13 0
28 *455:25 *547:13 4.10068e-05
29 *455:25 *749:27 0.0631514
30 gpio_analog_en[33] *455:19 0
31 gpio_ib_mode_sel[37] *455:21 0.000496609
32 *119:23 *455:25 0.00399082
33 *289:23 *455:25 0.000946689
34 *336:65 *455:25 0.00357703
35 *336:67 *455:21 0.000255419
36 *366:11 *455:21 0.0105379
37 *369:11 *455:21 1.46262e-05
38 *383:11 *455:21 0.00700744
39 *390:11 *455:21 0.106215
40 *446:19 *455:21 0
41 *446:25 *455:21 0
42 *454:17 *455:13 0.0225582
*RES
1 gpio_in[22] *455:5 1925.3 
2 *455:5 *455:11 48.4088 
3 *455:11 *455:13 436.155 
4 *455:13 *455:19 10.4772 
5 *455:19 *455:21 1196.44 
6 *455:21 *455:23 2 
7 *455:23 *455:25 612.825 
8 *455:25 *921:gpio_in[22] 23.2175 
*END

*D_NET *456 0.695792
*CONN
*P gpio_in[23] I
*I *921:gpio_in[23] I *D CF_CARAVEL_SOC
*CAP
1 gpio_in[23] 0.00208018
2 *921:gpio_in[23] 0.000830533
3 *456:31 0.011664
4 *456:29 0.0108334
5 *456:27 0.0187278
6 *456:25 0.0204054
7 *456:19 0.00334094
8 *456:17 0.00166338
9 *456:15 0.00255528
10 *456:13 0.00255528
11 *456:11 0.122422
12 *456:9 0.124502
13 *921:gpio_in[23] *839:181 0
14 *456:11 *539:289 0
15 *456:15 *544:29 0.00723564
16 *456:15 *690:11 1.5781e-05
17 *456:15 *732:6 0.00223697
18 *456:15 *735:11 0.000270103
19 *456:19 *831:27 0.0102108
20 *456:19 *836:11 0.0022567
21 *456:25 *544:21 0.00383399
22 *456:27 gpio_vtrip_sel[35] 0.00238717
23 *456:27 *736:23 0.0013252
24 *456:27 *768:11 0.0265557
25 *456:27 *803:11 0.013829
26 *456:27 *832:17 0.00309213
27 *456:31 *459:25 0.00103147
28 *456:31 *460:23 3.94628e-05
29 *456:31 *543:11 0.000198784
30 *456:31 *548:11 8.0611e-05
31 *456:31 *771:27 0.00776105
32 *456:31 *842:11 0.0637892
33 gpio_dm1[35] *456:27 0.000348647
34 *204:33 *456:15 0.00295941
35 *250:35 *456:27 0.00305966
36 *251:27 *456:27 0.0276103
37 *295:27 *456:27 0.00995339
38 *296:23 *456:31 0.00309595
39 *322:409 *456:11 0.00522091
40 *368:11 *456:27 4.07124e-05
41 *373:11 *456:27 0.00086064
42 *375:27 *456:19 0.0102094
43 *384:11 *456:27 0.103687
44 *420:11 *456:27 0.00329829
45 *434:15 *456:31 0.0117895
46 *450:33 *456:31 0.0459285
*RES
1 gpio_in[23] *456:9 36.0975 
2 *456:9 *456:11 2227.96 
3 *456:11 *456:13 2 
4 *456:13 *456:15 92.565 
5 *456:15 *456:17 2 
6 *456:17 *456:19 113.835 
7 *456:19 *456:25 39.985 
8 *456:25 *456:27 1170.05 
9 *456:27 *456:29 2 
10 *456:29 *456:31 621.105 
11 *456:31 *921:gpio_in[23] 13.1825 
*END

*D_NET *457 0.798851
*CONN
*P gpio_in[24] I
*I *921:gpio_in[24] I *D CF_CARAVEL_SOC
*CAP
1 gpio_in[24] 0.0035031
2 *921:gpio_in[24] 0.000400365
3 *457:23 0.00982432
4 *457:21 0.0112019
5 *457:11 0.112969
6 *457:9 0.114694
7 *457:9 gpio_slow_sel[24] 0
8 *457:11 *545:15 0.307048
9 *457:11 *693:91 0
10 *457:11 *769:11 0.0300778
11 *457:11 *817:11 0.00350788
12 *457:21 *458:21 0.00166921
13 *457:21 *467:15 0.00184625
14 *457:21 *550:21 0.00128372
15 *457:21 *557:29 0.000775065
16 *457:21 *829:29 6.16289e-05
17 *457:23 *458:23 0.0676968
18 *457:23 *866:17 0.0152296
19 gpio_ib_mode_sel[36] *457:11 0.00314872
20 *366:11 *457:11 0
21 *369:23 *457:11 0.0124904
22 *412:11 *457:11 0
23 *437:11 *457:11 0.00288522
24 *437:19 *457:11 0.0362536
25 *443:31 *457:23 0.021143
26 *448:33 *457:23 0.033375
27 *451:25 *457:23 0.00776612
*RES
1 gpio_in[24] *457:9 7.73583 
2 *457:9 *457:11 3438.52 
3 *457:11 *457:21 10.3064 
4 *457:21 *457:23 624.21 
5 *457:23 *921:gpio_in[24] 7.5725 
*END

*D_NET *458 0.619252
*CONN
*P gpio_in[25] I
*I *921:gpio_in[25] I *D CF_CARAVEL_SOC
*CAP
1 gpio_in[25] 0.00531654
2 *921:gpio_in[25] 0.000378761
3 *458:23 0.00996759
4 *458:21 0.0101907
5 *458:11 0.100247
6 *458:9 0.104962
7 *458:9 gpio_slow_sel[25] 0
8 *458:11 *555:17 0
9 *458:11 *556:43 0
10 *458:11 *809:11 0
11 *458:21 *467:15 2.07267e-05
12 *458:21 *471:25 0.000311205
13 *458:21 *550:21 0.00127138
14 *458:21 *829:29 2.2142e-05
15 *458:21 *865:15 0
16 *458:23 *467:15 0.0145593
17 *458:23 *557:19 0.0698504
18 gpio_analog_sel[33] *458:11 0.0019309
19 gpio_holdover[34] *458:11 0.000491091
20 *353:19 *458:11 0.0135603
21 *358:19 *458:11 0
22 *363:11 *458:11 0.157437
23 *374:11 *458:11 0.0109217
24 *385:11 *458:11 0.0468553
25 *443:31 *458:23 0.00159173
26 *457:21 *458:21 0.00166921
27 *457:23 *458:23 0.0676968
*RES
1 gpio_in[25] *458:9 11.6524 
2 *458:9 *458:11 2801.53 
3 *458:11 *458:21 6.6575 
4 *458:21 *458:23 648.705 
5 *458:23 *921:gpio_in[25] 7.3175 
*END

*D_NET *459 0.630339
*CONN
*P gpio_in[26] I
*I *921:gpio_in[26] I *D CF_CARAVEL_SOC
*CAP
1 gpio_in[26] 0.000503127
2 *921:gpio_in[26] 0.00077787
3 *459:25 0.010598
4 *459:23 0.0136157
5 *459:13 0.0846486
6 *459:11 0.0813562
7 *459:13 *466:11 0
8 *459:13 *553:25 0.0654298
9 *459:13 *559:31 0
10 *459:23 *460:21 0.00567941
11 *459:23 *466:15 0.000822306
12 *459:23 *468:27 2.33678e-05
13 *459:23 *470:15 0.000914309
14 *459:23 *554:23 0
15 *459:23 *749:25 1.88602e-05
16 *459:25 *460:23 0.0737164
17 *459:25 *842:11 0.0718918
18 gpio_analog_pol[26] *459:13 0.000710493
19 gpio_analog_pol[29] *459:13 0.000757173
20 gpio_analog_sel[30] *459:13 0.000975666
21 gpio_dm0[27] *459:13 0.00168084
22 gpio_dm0[31] *459:13 0.00200761
23 gpio_dm1[32] *459:13 0.00285411
24 gpio_ib_mode_sel[26] *459:13 0.000528755
25 *117:43 *459:13 0.0375098
26 *163:35 *459:13 0
27 *193:63 *459:11 0.000369504
28 *193:63 *459:13 0.116644
29 *204:45 *459:13 0.0239641
30 *206:59 *459:13 0.00590234
31 *291:27 *459:13 0.000244817
32 *292:25 *459:23 0.000768171
33 *322:293 *459:13 0.00741308
34 *432:15 *459:25 0.0169814
35 *456:31 *459:25 0.00103147
*RES
1 gpio_in[26] *459:11 8.97672 
2 *459:11 *459:13 2641.59 
3 *459:13 *459:23 15.0986 
4 *459:23 *459:25 679.065 
5 *459:25 *921:gpio_in[26] 12.6725 
*END

*D_NET *460 0.619005
*CONN
*P gpio_in[27] I
*I *921:gpio_in[27] I *D CF_CARAVEL_SOC
*CAP
1 gpio_in[27] 0.0016942
2 *921:gpio_in[27] 0.000730183
3 *460:23 0.0129845
4 *460:21 0.0140296
5 *460:11 0.0728117
6 *460:9 0.0727306
7 *460:11 gpio_inp_dis[29] 0.00183843
8 *460:11 *550:23 0.180989
9 *460:11 *812:11 0.0102791
10 *460:21 *466:15 0.00567508
11 *460:21 *861:27 4.00257e-05
12 *460:23 *468:29 0.0161734
13 *460:23 *548:11 0.0447692
14 *460:23 *842:11 0.00161384
15 *284:51 *460:11 0.102543
16 *289:35 *460:11 0.000291201
17 *388:11 *460:21 3.86814e-05
18 *404:11 *460:11 0
19 *410:11 *460:11 0
20 *428:21 *460:23 0.00033724
21 *456:31 *460:23 3.94628e-05
22 *459:23 *460:21 0.00567941
23 *459:25 *460:23 0.0737164
*RES
1 gpio_in[27] *460:9 3.73823 
2 *460:9 *460:11 2485.84 
3 *460:11 *460:21 12.4986 
4 *460:21 *460:23 705.285 
5 *460:23 *921:gpio_in[27] 12.0725 
*END

*D_NET *461 0.653334
*CONN
*P gpio_in[28] I
*I *921:gpio_in[28] I *D CF_CARAVEL_SOC
*CAP
1 gpio_in[28] 0.000866635
2 *921:gpio_in[28] 0.00104831
3 *461:23 0.0132323
4 *461:21 0.0148319
5 *461:11 0.056058
6 *461:9 0.0542767
7 *461:11 *547:25 0.201596
8 *461:11 *810:11 0.145727
9 *461:21 *472:11 0.000138171
10 *461:21 *547:23 0.00115675
11 *461:21 *559:29 0.00214597
12 *461:21 *855:17 0
13 *461:23 *545:11 0.0798
14 *461:23 *780:13 0.0117835
15 *238:15 *461:23 0.0140537
16 *238:25 *461:21 0.00224255
17 *248:33 *461:21 0.000125135
18 *294:25 *461:21 3.47471e-05
19 *339:23 *461:21 0.00239899
20 *340:39 *461:23 0.00581566
21 *429:19 *461:23 0.000661167
22 *439:11 *461:11 0
23 *447:17 *461:11 0
24 *449:41 *461:23 0.0453406
*RES
1 gpio_in[28] *461:9 2.25117 
2 *461:9 *461:11 2329.78 
3 *461:11 *461:21 14.5091 
4 *461:21 *461:23 734.955 
5 *461:23 *921:gpio_in[28] 16.7375 
*END

*D_NET *462 0.644455
*CONN
*P gpio_in[29] I
*I *921:gpio_in[29] I *D CF_CARAVEL_SOC
*CAP
1 gpio_in[29] 0.00137184
2 *921:gpio_in[29] 0.00151838
3 *462:23 0.0127749
4 *462:21 0.013573
5 *462:11 0.0424971
6 *462:9 0.0415525
7 *462:11 *548:23 0.186811
8 *462:11 *554:25 0.0318901
9 *462:11 *811:11 0.131251
10 *462:21 *464:21 0.00165279
11 *462:21 *472:11 0.00392682
12 *462:21 *547:23 0.000935766
13 *462:21 *553:23 0
14 *462:21 *827:17 9.50291e-05
15 *462:23 *464:23 0.0820223
16 *462:23 *481:25 0.00607276
17 *462:23 *749:27 0.0111421
18 *119:23 *462:23 0.00752796
19 *248:33 *462:21 0.000183402
20 *289:23 *462:23 0.000350361
21 *289:33 *462:21 0.000104461
22 *336:65 *462:23 0.00327868
23 *447:17 *462:11 0
24 *453:47 *462:21 0.000184746
25 *455:25 *462:23 0.0637374
*RES
1 gpio_in[29] *462:9 3.15557 
2 *462:9 *462:11 2170.16 
3 *462:11 *462:21 14.2836 
4 *462:21 *462:23 760.83 
5 *462:23 *921:gpio_in[29] 22.9625 
*END

*D_NET *463 0.691978
*CONN
*P gpio_in[2] I
*I *921:gpio_in[2] I *D CF_CARAVEL_SOC
*CAP
1 gpio_in[2] 0.00621519
2 *921:gpio_in[2] 0.000235538
3 *463:15 0.0314496
4 *463:13 0.031214
5 *463:11 0.0108317
6 *463:9 0.0170469
7 *463:11 *474:11 0.0465998
8 *463:15 *557:19 0.00231289
9 *463:15 *739:68 0.00255156
10 *463:15 *840:19 0.00380122
11 gpio_dm1[0] *463:11 0.000970057
12 gpio_dm2[1] *463:11 0.000999527
13 *125:11 *463:11 0
14 *293:15 *463:15 0.23291
15 *309:13 *463:11 0.000643607
16 *313:9 *463:9 0
17 *315:9 *463:9 0
18 *346:15 *463:15 0.0121029
19 *350:11 *463:11 0.000200748
20 *408:23 *463:15 0.0382435
21 *441:15 *463:15 0.219602
22 *441:19 *463:15 0.00196105
23 *442:15 *463:15 0.000374383
24 *452:11 *463:11 0.0317106
*RES
1 gpio_in[2] *463:9 12.781 
2 *463:9 *463:11 518.903 
3 *463:11 *463:13 2 
4 *463:13 *463:15 2149.8 
5 *463:15 *921:gpio_in[2] 6.0425 
*END

*D_NET *464 0.605344
*CONN
*P gpio_in[30] I
*I *921:gpio_in[30] I *D CF_CARAVEL_SOC
*CAP
1 gpio_in[30] 0.00230366
2 *921:gpio_in[30] 0.00149985
3 *464:23 0.0125936
4 *464:21 0.0129613
5 *464:11 0.0512338
6 *464:9 0.0516699
7 *464:11 *541:111 0
8 *464:11 *549:25 0.17398
9 *464:11 *690:23 0.0112239
10 *464:11 *772:11 0.0955221
11 *464:21 *749:25 3.85204e-05
12 *464:21 *827:17 9.98104e-05
13 *464:21 *827:19 0.000188047
14 *464:23 *481:25 0.00605878
15 *464:23 *749:27 0.00111359
16 *464:23 *838:11 0.00868431
17 *289:23 *464:23 0.0847173
18 *289:33 *464:21 0.000953928
19 *336:65 *464:21 0.00354779
20 *336:65 *464:23 0.00327868
21 *402:11 *464:11 0
22 *462:21 *464:21 0.00165279
23 *462:23 *464:23 0.0820223
*RES
1 gpio_in[30] *464:9 4.73383 
2 *464:9 *464:11 2011.04 
3 *464:11 *464:21 11.6828 
4 *464:21 *464:23 779.805 
5 *464:23 *921:gpio_in[30] 22.7075 
*END

*D_NET *465 0.537445
*CONN
*P gpio_in[31] I
*I *921:gpio_in[31] I *D CF_CARAVEL_SOC
*CAP
1 gpio_in[31] 0.00279636
2 *921:gpio_in[31] 0.00145812
3 *465:23 0.0124619
4 *465:21 0.0133285
5 *465:11 0.0703566
6 *465:9 0.0708283
7 *465:11 gpio_vtrip_sel[36] 0
8 *465:11 *472:15 0
9 *465:11 *541:111 0
10 *465:11 *737:41 0.00754479
11 *465:11 *773:11 0.0810425
12 *465:21 *542:15 0
13 *465:21 *553:23 0.00535366
14 *465:21 *860:15 0.000225289
15 *465:21 *864:11 1.40238e-05
16 *465:21 *868:11 0.000133442
17 *465:23 *547:13 0.0857213
18 *465:23 *838:11 0.0187593
19 *119:23 *465:21 0.000323975
20 *162:27 *465:11 0.00194217
21 *207:49 *465:21 0.00409718
22 *249:27 *465:11 0.0743287
23 *289:23 *465:23 0.0857243
24 *289:33 *465:21 0.00064964
25 *336:65 *465:21 1.18044e-05
26 *353:29 *465:21 0.000320656
27 *388:21 *465:21 8.09537e-06
28 *396:11 *465:11 0
29 *402:11 *465:11 0
30 *435:21 *465:21 1.41941e-05
*RES
1 gpio_in[31] *465:9 5.69397 
2 *465:9 *465:11 1850.39 
3 *465:11 *465:21 15.9006 
4 *465:21 *465:23 788.775 
5 *465:23 *921:gpio_in[31] 22.1975 
*END

*D_NET *466 0.523882
*CONN
*P gpio_in[32] I
*I *921:gpio_in[32] I *D CF_CARAVEL_SOC
*CAP
1 gpio_in[32] 0.000522269
2 *921:gpio_in[32] 0.000648239
3 *466:15 0.0192806
4 *466:13 0.0186324
5 *466:11 0.0326679
6 *466:9 0.0331902
7 *466:11 *557:31 0.0415184
8 *466:11 *559:31 0.0454202
9 *466:11 *693:47 0.00244302
10 *466:11 *693:57 0
11 *466:11 *731:18 0.00586178
12 *466:15 *468:27 8.05947e-05
13 *466:15 *468:29 0.000496382
14 *466:15 *469:15 0.094023
15 *466:15 *479:15 0.0164945
16 *466:15 *548:21 0.00228934
17 *466:15 *858:11 0.00190628
18 *163:35 *466:11 0.0656001
19 *193:63 *466:11 0
20 *244:19 *466:11 0.00475529
21 *286:41 *466:11 0.000173106
22 *291:27 *466:11 9.88751e-05
23 *292:15 *466:15 0.0166051
24 *325:167 *466:11 0.00367185
25 *378:11 *466:11 0
26 *431:15 *466:15 0.091074
27 *452:15 *466:15 0.0199314
28 *459:13 *466:11 0
29 *459:23 *466:15 0.000822306
30 *460:21 *466:15 0.00567508
*RES
1 gpio_in[32] *466:9 1.53677 
2 *466:9 *466:11 1357.72 
3 *466:11 *466:13 0.5 
4 *466:13 *466:15 151.473 
5 *466:15 *921:gpio_in[32] 9.68 
*END

*D_NET *467 0.524277
*CONN
*P gpio_in[33] I
*I *921:gpio_in[33] I *D CF_CARAVEL_SOC
*CAP
1 gpio_in[33] 0.00580608
2 *921:gpio_in[33] 0.000370345
3 *467:15 0.0176194
4 *467:13 0.0172491
5 *467:11 0.0182485
6 *467:9 0.0240545
7 *467:11 *552:25 0.107145
8 *467:11 *735:23 0.0618229
9 *467:11 *815:11 0.000318831
10 *467:11 *848:23 0.0110803
11 *467:11 *863:23 0.000806163
12 *467:15 *471:25 9.22523e-05
13 *467:15 *471:27 0.0899771
14 *467:15 *557:19 0.0154768
15 *467:15 *557:29 0.000359933
16 *467:15 *793:25 0.000209524
17 *467:15 *839:217 2.73636e-05
18 *467:15 *858:21 0.00245562
19 *467:15 *866:17 0.0924473
20 *293:15 *467:15 0.0012423
21 *408:21 *467:15 0.00241046
22 *408:23 *467:15 0.000476546
23 *419:13 *467:11 0.005727
24 *421:11 *467:11 0.0152879
25 *430:21 *467:15 0.00030335
26 *436:17 *467:11 0.00174336
27 *436:19 *467:11 0.00322791
28 *451:21 *467:11 0.0118648
29 *457:21 *467:15 0.00184625
30 *458:21 *467:15 2.07267e-05
31 *458:23 *467:15 0.0145593
*RES
1 gpio_in[33] *467:9 10.8062 
2 *467:9 *467:11 1192.99 
3 *467:11 *467:13 0.5 
4 *467:13 *467:15 146.113 
5 *467:15 *921:gpio_in[33] 5.945 
*END

*D_NET *468 0.475664
*CONN
*P gpio_in[34] I
*I *921:gpio_in[34] I *D CF_CARAVEL_SOC
*CAP
1 gpio_in[34] 0.00700871
2 *921:gpio_in[34] 0.000749231
3 *468:29 0.0173836
4 *468:27 0.0169918
5 *468:11 0.0262987
6 *468:9 0.0329499
7 *468:9 gpio_slow_sel[34] 0
8 *468:11 *543:31 0.0324948
9 *468:11 *558:25 0.0613769
10 *468:11 *732:10 0.00334541
11 *468:11 *766:11 0.00338602
12 *468:11 *787:11 0.00388308
13 *468:11 *859:23 0.0116063
14 *468:11 *862:23 0.000265869
15 *468:27 *548:11 6.69773e-05
16 *468:27 *749:25 0.000101824
17 *468:29 *470:15 0.00014383
18 *468:29 *548:11 0.005649
19 *468:29 *771:27 0.00421647
20 *248:35 *468:11 0
21 *292:25 *468:27 1.81028e-05
22 *292:25 *468:29 0.000599273
23 *358:17 *468:9 0.000448407
24 *364:19 *468:11 0.019541
25 *364:27 *468:11 0.0140713
26 *413:11 *468:11 0.000644863
27 *418:11 *468:11 0.00258863
28 *431:15 *468:29 0.0965441
29 *432:15 *468:29 0.0965161
30 *459:23 *468:27 2.33678e-05
31 *460:23 *468:29 0.0161734
32 *466:15 *468:27 8.05947e-05
33 *466:15 *468:29 0.000496382
*RES
1 gpio_in[34] *468:9 13.071 
2 *468:9 *468:11 1029.92 
3 *468:11 *468:27 9.39203 
4 *468:27 *468:29 148.181 
5 *468:29 *921:gpio_in[34] 11.045 
*END

*D_NET *469 0.401617
*CONN
*P gpio_in[35] I
*I *921:gpio_in[35] I *D CF_CARAVEL_SOC
*CAP
1 gpio_in[35] 0.00396703
2 *921:gpio_in[35] 0.000621866
3 *469:15 0.0247139
4 *469:13 0.0240921
5 *469:11 0.0305314
6 *469:9 0.0344985
7 *469:9 gpio_slow_sel[35] 0.00564198
8 *469:9 *767:17 4.32417e-05
9 *469:11 *539:159 0
10 *469:11 *733:10 0.00339393
11 *469:11 *753:11 0.00633514
12 *469:11 *803:11 0.00579555
13 *469:11 *832:19 0
14 *469:15 *479:15 0.00197131
15 *469:15 *548:21 0.00103146
16 *469:15 *737:127 0.00121041
17 *469:15 *771:25 0.00061678
18 *469:15 *815:47 0.00371915
19 *469:15 *815:49 0.0086562
20 *469:15 *839:157 0.0066573
21 *469:15 *839:181 0.00675425
22 *469:15 *839:197 0.00783174
23 *469:15 *839:209 0.00244865
24 *469:15 *839:217 0.00461954
25 *469:15 *846:13 0.00271176
26 *469:15 *846:37 0.00151665
27 *469:15 *858:11 0.00893134
28 *250:35 *469:11 0.0619623
29 *292:15 *469:15 0.000279766
30 *293:25 *469:15 0.000979968
31 *295:15 *469:15 0.0209477
32 *295:27 *469:11 0.00787089
33 *364:37 *469:15 7.71138e-05
34 *386:69 *469:15 0.00164272
35 *387:11 *469:11 0
36 *420:11 *469:11 0.00920028
37 *431:15 *469:15 0.00451509
38 *452:15 *469:15 0.00180688
39 *466:15 *469:15 0.094023
*RES
1 gpio_in[35] *469:9 10.1349 
2 *469:9 *469:11 870.675 
3 *469:11 *469:13 0.5 
4 *469:13 *469:15 155.493 
5 *469:15 *921:gpio_in[35] 9.515 
*END

*D_NET *470 0.356826
*CONN
*P gpio_in[36] I
*I *921:gpio_in[36] I *D CF_CARAVEL_SOC
*CAP
1 gpio_in[36] 0.00391785
2 *921:gpio_in[36] 0.000849432
3 *470:15 0.0327976
4 *470:13 0.0319482
5 *470:11 0.0236663
6 *470:9 0.0275841
7 *470:11 *693:83 0.00307598
8 *470:15 *543:11 0.0228914
9 *470:15 *543:21 7.71138e-05
10 *470:15 *739:112 0.000536445
11 *470:15 *771:27 0.013641
12 *470:15 *847:16 0.0173616
13 *470:15 *847:36 0.00058602
14 *921:gpio_in[17] *470:15 0.000387952
15 *165:23 *470:15 0.00274773
16 *292:25 *470:15 0.000696895
17 *295:25 *470:15 0.00298132
18 *296:23 *470:15 0.0490776
19 *383:11 *470:11 0.00373343
20 *390:21 *470:15 0.00052782
21 *432:15 *470:15 0.000436672
22 *434:15 *470:15 0.0521512
23 *446:19 *470:11 0
24 *455:21 *470:11 0.0640945
25 *459:23 *470:15 0.000914309
26 *468:29 *470:15 0.00014383
*RES
1 gpio_in[36] *470:9 7.6345 
2 *470:9 *470:11 713.085 
3 *470:11 *470:13 0.5 
4 *470:13 *470:15 161.961 
5 *470:15 *921:gpio_in[36] 12.575 
*END

*D_NET *471 0.3833
*CONN
*P gpio_in[37] I
*I *921:gpio_in[37] I *D CF_CARAVEL_SOC
*CAP
1 gpio_in[37] 0.00590586
2 *921:gpio_in[37] 0.000320271
3 *471:27 0.017675
4 *471:25 0.0192719
5 *471:11 0.0173483
6 *471:9 0.021337
7 *921:gpio_in[37] *539:69 0
8 *921:gpio_in[37] *826:45 0
9 *471:9 gpio_slow_sel[37] 0.00469468
10 *471:9 *833:9 0
11 *471:11 *737:73 0
12 *471:11 *749:11 0
13 *471:11 *826:11 0.000431818
14 *471:11 *846:39 0.00350735
15 *471:11 *852:27 0.0210132
16 *471:11 *864:15 0.0126315
17 *471:25 *921:mask_rev[8] 0.000630406
18 *471:25 *826:29 0.000292224
19 *471:25 *840:19 0.00283977
20 *471:25 *858:21 1.87232e-05
21 *471:27 *557:19 0.00621919
22 *471:27 *866:17 0.00389126
23 *293:15 *471:27 0.0064476
24 *341:18 *471:27 0.00394844
25 *386:11 *471:11 0.00607543
26 *386:45 *471:25 0
27 *408:23 *471:25 8.59716e-05
28 *408:23 *471:27 0.101024
29 *430:21 *471:25 0.000842262
30 *441:19 *471:27 0.000994263
31 *442:15 *471:27 0.0169813
32 *448:31 *471:11 0.00233612
33 *448:31 *471:25 4.12831e-05
34 *449:29 *471:11 0.0158608
35 *454:51 *471:25 0.000252804
36 *458:21 *471:25 0.000311205
37 *467:15 *471:25 9.22523e-05
38 *467:15 *471:27 0.0899771
*RES
1 gpio_in[37] *471:9 14.0362 
2 *471:9 *471:11 539.175 
3 *471:11 *471:25 10.3271 
4 *471:25 *471:27 153.454 
5 *471:27 *921:gpio_in[37] 5.09 
*END

*D_NET *472 0.529397
*CONN
*P gpio_in[38] I
*I *921:gpio_in[38] I *D CF_CARAVEL_SOC
*I *920:clk I *D counter_macro
*CAP
1 gpio_in[38] 0.00159878
2 *921:gpio_in[38] 7.1295e-05
3 *920:clk 0.00243861
4 *472:55 0.0192161
5 *472:53 0.0204008
6 *472:41 0.00792064
7 *472:37 0.00611504
8 *472:27 0.00243074
9 *472:25 0.00604623
10 *472:15 0.0464123
11 *472:13 0.0421638
12 *472:11 0.0132692
13 *472:9 0.0132692
14 *472:7 0.00285477
15 *472:11 *547:23 0.000965506
16 *472:11 *558:23 0.000844169
17 *472:11 *693:163 0.0012344
18 *472:11 *827:17 3.54583e-05
19 *472:11 *827:19 0.0532515
20 *472:11 *852:11 0.000739771
21 *472:15 *546:25 0
22 *472:15 *693:71 0.0121836
23 *472:15 *802:11 0.0482866
24 *472:25 *737:39 0.00385626
25 *472:25 *754:11 0.000112617
26 *472:27 *544:25 0.010159
27 *472:27 *737:39 0.0012296
28 *472:27 *831:27 0
29 *472:27 *836:11 0.0023229
30 *472:37 *732:6 0.0026449
31 *472:37 *733:6 0.0026472
32 *472:41 *732:6 0.0120812
33 *472:41 *735:21 0.00710147
34 *472:41 *737:9 0.0288489
35 *472:55 gpio_out[39] 0.00582375
36 *472:55 *539:69 2.29145e-05
37 *472:55 *541:37 0
38 *472:55 *693:187 0
39 *472:55 *826:29 0.0104365
40 *472:55 *826:45 0.000287293
41 *472:55 *840:19 0.0171552
42 gpio_analog_sel[33] *472:25 0.000641096
43 *921:gpio_in[18] *472:55 0.000221392
44 *206:51 *472:27 0.00921073
45 *249:27 *472:15 0
46 *293:15 *472:55 0.00328835
47 *294:25 *472:11 0.0106672
48 *322:167 *472:55 0.000611461
49 *322:181 *472:55 6.68625e-06
50 *322:255 *472:11 0.000236947
51 *322:259 *472:11 0.000638497
52 *338:69 *472:55 0.0030775
53 *339:23 *472:11 0.0121705
54 *364:39 *472:11 0.000619428
55 *375:27 *472:27 0.000132722
56 *386:45 *472:11 0.00204038
57 *387:9 *472:25 0.00446612
58 *390:23 *472:11 0.00684661
59 *396:11 *472:15 0.0134484
60 *397:77 *472:55 0
61 *397:79 *472:55 0.00982738
62 *409:11 *472:15 0.0233899
63 *419:23 *472:55 0.00196039
64 *444:69 *472:55 0.0116596
65 *444:71 *472:55 0.00369267
66 *461:21 *472:11 0.000138171
67 *462:21 *472:11 0.00392682
68 *465:11 *472:15 0
*RES
1 gpio_in[38] *472:7 21.5925 
2 *472:7 *472:9 0.5 
3 *472:9 *472:11 87.1467 
4 *472:11 *472:13 0.5 
5 *472:13 *472:15 1170.05 
6 *472:15 *472:25 12.2353 
7 *472:25 *472:27 117.915 
8 *472:27 *472:37 7.1934 
9 *472:37 *472:41 44.238 
10 *472:41 *920:clk 38.07 
11 *472:7 *472:53 17.435 
12 *472:53 *472:55 85.253 
13 *472:55 *921:gpio_in[38] 1.5725 
*END

*D_NET *473 0.034496
*CONN
*P gpio_in[39] I
*I *921:gpio_in[39] I *D CF_CARAVEL_SOC
*CAP
1 gpio_in[39] 0.0032291
2 *921:gpio_in[39] 0.00209372
3 *473:15 0.00532283
4 *921:gpio_in[39] *839:133 2.94309e-05
5 *473:15 *783:15 0.00473607
6 *473:15 *784:13 0.0138172
7 *473:15 *825:23 0.0052676
*RES
1 gpio_in[39] *473:15 31.1732 
2 *473:15 *921:gpio_in[39] 29.505 
*END

*D_NET *474 0.59922
*CONN
*P gpio_in[3] I
*I *921:gpio_in[3] I *D CF_CARAVEL_SOC
*CAP
1 gpio_in[3] 0.00612826
2 *921:gpio_in[3] 0.000920676
3 *474:15 0.0550011
4 *474:13 0.0540804
5 *474:11 0.0136716
6 *474:9 0.0197999
7 *474:11 *571:31 0.0628473
8 *474:15 *480:15 0.225403
9 *474:15 *539:105 0.0022555
10 *474:15 *543:11 0
11 *474:15 *559:19 0.00209878
12 *474:15 *771:27 0
13 *474:15 *780:13 0.000381121
14 *474:15 *847:16 0.000402423
15 *474:15 *852:19 0.00469159
16 gpio_dm1[0] *474:11 0.00134769
17 gpio_dm2[1] *474:11 0.00138864
18 *92:9 *474:9 8.94722e-05
19 *93:9 *474:9 0
20 *125:11 *474:11 0
21 *169:15 *474:15 0.000118286
22 *209:15 *474:15 0.0130909
23 *213:15 *474:15 0.0174256
24 *294:15 *474:15 0.000216119
25 *309:13 *474:11 0.000662777
26 *314:17 *474:9 0.000137581
27 *314:19 *474:11 1.75432e-05
28 *322:79 *474:15 0.000992749
29 *336:11 *474:11 0
30 *338:71 *474:15 0.00931252
31 *351:11 *474:11 0.00313943
32 *386:207 *474:15 1.19756e-05
33 *434:23 *474:15 0.0567483
34 *452:11 *474:11 0.000239053
35 *463:11 *474:11 0.0465998
*RES
1 gpio_in[3] *474:9 12.6112 
2 *474:9 *474:11 699.953 
3 *474:11 *474:13 2 
4 *474:13 *474:15 2126 
5 *474:15 *921:gpio_in[3] 15.2075 
*END

*D_NET *475 0.0197967
*CONN
*P gpio_in[40] I
*I *921:gpio_in[40] I *D CF_CARAVEL_SOC
*CAP
1 gpio_in[40] 0.00419236
2 *921:gpio_in[40] 6.47173e-05
3 *475:17 0.00425708
4 *475:17 *477:11 0.000716075
5 *475:17 *783:15 0.00619932
6 *475:17 *784:13 0.00299972
7 *335:25 *475:17 0.00136747
*RES
1 gpio_in[40] *475:17 48.9372 
2 *475:17 *921:gpio_in[40] 1.0725 
*END

*D_NET *476 0.0674337
*CONN
*P gpio_in[41] I
*I *921:gpio_in[41] I *D CF_CARAVEL_SOC
*CAP
1 gpio_in[41] 0.00218385
2 *921:gpio_in[41] 0.00494244
3 *476:17 0.00697676
4 *476:13 0.00421817
5 *921:gpio_in[41] *529:9 0.00883042
6 *921:gpio_in[41] *539:55 0.00364057
7 *921:gpio_in[41] *540:24 0.000993343
8 *921:gpio_in[41] *556:11 0.00162262
9 *921:gpio_in[41] *840:19 0.00920942
10 *476:13 *477:11 0.00961059
11 *476:13 *563:14 0.00961289
12 *476:17 *784:19 3.33028e-05
13 *322:167 *921:gpio_in[41] 0.00364059
14 *338:69 *921:gpio_in[41] 0.000158569
15 *397:79 *921:gpio_in[41] 0.00176013
*RES
1 gpio_in[41] *476:13 25.2889 
2 *476:13 *476:17 28.655 
3 *476:17 *921:gpio_in[41] 28.6625 
*END

*D_NET *477 0.103641
*CONN
*P gpio_in[42] I
*I *921:gpio_in[42] I *D CF_CARAVEL_SOC
*CAP
1 gpio_in[42] 0.000667424
2 *921:gpio_in[42] 0.00211277
3 *477:11 0.0148404
4 *477:9 0.0133951
5 *477:11 *541:19 0.0007636
6 *477:11 *546:13 0.00680111
7 *477:11 *552:13 0.00626975
8 *477:11 *561:18 0.00081251
9 *477:11 *563:14 0.00740274
10 *477:11 *564:13 0.0199337
11 *477:11 *783:15 0.000423584
12 *477:11 *784:13 0.0138952
13 *477:11 *843:11 0.00599629
14 *475:17 *477:11 0.000716075
15 *476:13 *477:11 0.00961059
*RES
1 gpio_in[42] *477:9 9.5975 
2 *477:9 *477:11 70.6572 
3 *477:11 *921:gpio_in[42] 30.005 
*END

*D_NET *478 0.151067
*CONN
*P gpio_in[43] I
*I *921:gpio_in[43] I *D CF_CARAVEL_SOC
*CAP
1 gpio_in[43] 0.000482977
2 *921:gpio_in[43] 0.00225279
3 *478:9 0.014593
4 *478:7 0.0128232
5 *478:9 *560:27 0.00045217
6 *478:9 *561:18 0.0666656
7 gpio_analog_en[40] *921:gpio_in[43] 0
8 gpio_dm1[40] *921:gpio_in[43] 0
9 gpio_dm2[42] *478:9 0.00711122
10 *300:29 *478:9 4.53412e-05
11 *433:10 *478:9 0.046641
*RES
1 gpio_in[43] *478:7 7.3325 
2 *478:7 *478:9 101.189 
3 *478:9 *921:gpio_in[43] 32.045 
*END

*D_NET *479 0.760165
*CONN
*P gpio_in[4] I
*I *921:gpio_in[4] I *D CF_CARAVEL_SOC
*CAP
1 gpio_in[4] 0.00542439
2 *921:gpio_in[4] 0.000607789
3 *479:15 0.0305933
4 *479:13 0.0299855
5 *479:11 0.0139602
6 *479:9 0.0193846
7 *479:11 *480:11 0.0776806
8 *479:11 *571:31 0.0709448
9 *479:15 *484:15 0.214586
10 *479:15 *548:11 0.00795685
11 gpio_dm1[0] *479:11 0.00155629
12 gpio_dm2[1] *479:11 0.00160357
13 *178:17 *479:9 0.00127822
14 *220:9 *479:9 0.000834113
15 *299:23 *479:15 0.0260855
16 *309:13 *479:11 0.00113563
17 *314:19 *479:11 0
18 *352:11 *479:11 0.00517478
19 *431:15 *479:15 0.00479721
20 *452:15 *479:15 0.22811
21 *466:15 *479:15 0.0164945
22 *469:15 *479:15 0.00197131
*RES
1 gpio_in[4] *479:9 12.4592 
2 *479:9 *479:11 865.448 
3 *479:11 *479:13 2 
4 *479:13 *479:15 2099.77 
5 *479:15 *921:gpio_in[4] 10.7075 
*END

*D_NET *480 0.795344
*CONN
*P gpio_in[5] I
*I *921:gpio_in[5] I *D CF_CARAVEL_SOC
*CAP
1 gpio_in[5] 0.00588745
2 *921:gpio_in[5] 0.000705297
3 *480:15 0.0300317
4 *480:13 0.0293264
5 *480:11 0.0162968
6 *480:9 0.0221842
7 *480:11 *534:15 0.092177
8 *480:11 *571:31 0.000239297
9 *480:11 *699:10 0.00979539
10 *480:15 *847:16 0.0322711
11 gpio_dm1[0] *480:11 0.00138416
12 gpio_dm2[1] *480:11 0.00142644
13 *169:15 *480:15 0.00012905
14 *173:13 *480:9 0.00197366
15 *174:9 *480:9 0
16 *178:17 *480:9 4.75652e-05
17 *213:15 *480:15 0.0158777
18 *284:11 *480:11 0
19 *294:15 *480:15 0.223512
20 *309:13 *480:11 0.00122032
21 *314:19 *480:11 0
22 *335:43 *921:gpio_in[5] 0.000318506
23 *338:77 *921:gpio_in[5] 0.000350847
24 *352:11 *480:11 0.00652967
25 *386:207 *480:15 0.000575155
26 *474:15 *480:15 0.225403
27 *479:11 *480:11 0.0776806
*RES
1 gpio_in[5] *480:9 13.0242 
2 *480:9 *480:11 1036.3 
3 *480:11 *480:13 2 
4 *480:13 *480:15 2074.59 
5 *480:15 *921:gpio_in[5] 15.8075 
*END

*D_NET *481 0.817566
*CONN
*P gpio_in[6] I
*I *921:gpio_in[6] I *D CF_CARAVEL_SOC
*CAP
1 gpio_in[6] 0.00381489
2 *921:gpio_in[6] 0.00153661
3 *481:25 0.00741259
4 *481:15 0.0324666
5 *481:13 0.0265906
6 *481:11 0.0298735
7 *481:9 0.0336884
8 *921:gpio_in[6] *693:117 0
9 *921:gpio_in[6] *737:127 0
10 *481:11 *535:121 0
11 *481:15 *482:15 0.000253543
12 *481:15 *547:13 0.145468
13 *481:15 *749:27 0
14 *481:15 *837:11 0.0409663
15 *481:25 *838:11 0.0279837
16 *119:15 *481:15 0.00031415
17 *119:23 *481:25 0.0154653
18 *133:11 *481:11 0.0108826
19 *137:11 *481:11 0.00257803
20 *166:13 *481:11 0.000399006
21 *174:11 *481:11 0.000378056
22 *181:11 *481:11 0.00215922
23 *224:19 *481:11 0
24 *289:23 *481:25 0.00661013
25 *307:11 *481:11 0.0792937
26 *327:39 *481:11 0.00463171
27 *336:15 *481:15 0.050295
28 *375:57 *481:11 0.00331156
29 *391:43 *481:11 0
30 *435:27 *481:11 0.0757922
31 *445:23 *481:15 0.196644
32 *455:25 *481:25 0.00662538
33 *462:23 *481:25 0.00607276
34 *464:23 *481:25 0.00605878
*RES
1 gpio_in[6] *481:9 7.55217 
2 *481:9 *481:11 1213.27 
3 *481:11 *481:13 2 
4 *481:13 *481:15 1829.98 
5 *481:15 *481:25 46.7086 
6 *481:25 *921:gpio_in[6] 20.835 
*END

*D_NET *482 0.923899
*CONN
*P gpio_in[7] I
*I *921:gpio_in[7] I *D CF_CARAVEL_SOC
*CAP
1 gpio_in[7] 0.00110481
2 *921:gpio_in[7] 0.00131218
3 *482:15 0.0323472
4 *482:13 0.031035
5 *482:11 0.0401869
6 *482:9 0.0412917
7 *921:gpio_in[7] *839:209 9.04457e-05
8 *482:9 *790:15 0
9 *482:15 *483:23 0.0139602
10 *482:15 *558:13 0.197064
11 *482:15 *827:19 0.0238574
12 *120:11 *482:11 0
13 *229:11 *482:11 0.00541198
14 *262:11 *482:11 0.14998
15 *268:11 *482:11 0.132686
16 *297:14 *482:15 0.0275466
17 *364:39 *482:15 0.225658
18 *445:23 *482:15 0.000113808
19 *481:15 *482:15 0.000253543
*RES
1 gpio_in[7] *482:9 2.6603 
2 *482:9 *482:11 1879.58 
3 *482:11 *482:13 2 
4 *482:13 *482:15 2082.18 
5 *482:15 *921:gpio_in[7] 20.4125 
*END

*D_NET *483 0.85105
*CONN
*P gpio_in[8] I
*I *921:gpio_in[8] I *D CF_CARAVEL_SOC
*CAP
1 gpio_in[8] 0.00614539
2 *921:gpio_in[8] 0.00137797
3 *483:23 0.0311578
4 *483:21 0.0297799
5 *483:19 0.0236793
6 *483:17 0.0244287
7 *483:11 0.0611983
8 *483:9 0.0665943
9 *483:11 gpio_oeb[6] 0
10 *483:11 *534:15 0
11 *483:11 *788:27 0
12 *483:19 *572:28 0.0111042
13 *483:19 *672:15 0
14 *483:19 *683:15 0.00856808
15 *483:19 *698:23 0
16 *483:23 *555:13 0.186303
17 *483:23 *558:13 0.194402
18 *483:23 *828:15 0.0284854
19 *99:11 *483:11 0.0485546
20 *102:11 *483:19 0.000169048
21 *117:11 *483:11 0
22 *119:11 *483:19 0.0682686
23 *153:25 *483:11 0.000321966
24 *280:19 *483:11 0.00776555
25 *297:14 *483:23 0.0200606
26 *316:11 *483:11 0
27 *317:11 *483:11 0
28 *319:11 *483:11 0
29 *445:23 *483:23 0.0187252
30 *482:15 *483:23 0.0139602
*RES
1 gpio_in[8] *483:9 13.432 
2 *483:9 *483:11 1285.18 
3 *483:11 *483:17 14.8 
4 *483:17 *483:19 760.77 
5 *483:19 *483:21 2 
6 *483:21 *483:23 2008.35 
7 *483:23 *921:gpio_in[8] 20.8175 
*END

*D_NET *484 0.996956
*CONN
*P gpio_in[9] I
*I *921:gpio_in[9] I *D CF_CARAVEL_SOC
*CAP
1 gpio_in[9] 0.00416142
2 *921:gpio_in[9] 0.000662037
3 *484:15 0.0306834
4 *484:13 0.0300214
5 *484:11 0.0413462
6 *484:9 0.0455076
7 *484:9 *792:15 0
8 *484:15 *548:11 0.167145
9 *135:11 *484:11 0.0221998
10 *155:11 *484:11 0.00702631
11 *165:15 *484:15 0.000733607
12 *188:11 *484:11 0.000200844
13 *225:19 *484:11 0
14 *256:15 *484:15 0.0230367
15 *287:13 *484:11 0.000221881
16 *299:23 *484:15 0.00433794
17 *304:11 *484:11 0.00299775
18 *310:11 *484:11 0.152734
19 *338:19 *484:15 0.0280598
20 *349:11 *484:11 0.000644853
21 *431:15 *484:15 0.0227602
22 *444:11 *484:11 0.197807
23 *452:15 *484:15 8.25446e-05
24 *479:15 *484:15 0.214586
*RES
1 gpio_in[9] *484:9 9.05697 
2 *484:9 *484:11 2206.49 
3 *484:11 *484:13 2 
4 *484:13 *484:15 1995.58 
5 *484:15 *921:gpio_in[9] 11.3075 
*END

*D_NET *529 0.350198
*CONN
*P gpio_inp_dis[0] O
*I *921:gpio_inp_dis[0] O *D CF_CARAVEL_SOC
*CAP
1 gpio_inp_dis[0] 0.00103437
2 *921:gpio_inp_dis[0] 7.17868e-05
3 *529:13 0.00498904
4 *529:11 0.00395467
5 *529:9 0.0357566
6 *529:7 0.0358283
7 *529:9 *531:14 0.00544397
8 *529:9 *531:16 0.000408104
9 *529:9 *532:30 0.0071167
10 *529:9 *536:25 0.0144529
11 *529:9 *536:33 0.00323322
12 *529:9 *536:63 0
13 *529:9 *537:12 0.00471885
14 *529:9 *537:14 0.000341074
15 *529:9 *538:25 0.000509499
16 *529:9 *540:24 0.0228916
17 *529:9 *541:27 0.000853635
18 *529:9 *556:11 0.0212715
19 *529:9 *557:11 0.00581623
20 *529:9 *559:11 0.00169629
21 *529:9 *560:11 0.00146254
22 *529:9 *561:16 0.00373107
23 *529:9 *562:119 0
24 *529:9 *563:12 0.00152829
25 *529:9 *567:12 0.000752952
26 *529:9 *567:14 0.00572781
27 *529:9 *568:11 0.00590133
28 *529:9 *569:16 0.00505098
29 *529:9 *570:14 0.000391981
30 *529:9 *571:17 0.00632351
31 *529:9 *572:16 0.0039746
32 *529:9 *572:26 0
33 *529:9 *697:109 1.94009e-05
34 *529:9 *740:81 0.0082677
35 *529:9 *815:49 0
36 *529:9 *840:19 0.00643995
37 *529:13 *749:31 0.0163066
38 gpio_analog_en[0] *529:13 0.000201736
39 gpio_analog_pol[0] gpio_inp_dis[0] 0.00170503
40 gpio_analog_sel[43] *529:9 0.0083671
41 *921:gpio_in[41] *529:9 0.00883042
42 *118:33 *529:9 0
43 *120:11 *529:13 0
44 *125:15 *529:9 0.00393962
45 *322:161 *529:9 0.0143142
46 *322:167 *529:9 0.0033021
47 *338:69 *529:9 0.00451462
48 *346:15 *529:9 0.00252185
49 *353:35 *529:13 0.00029087
50 *397:79 *529:9 0.00823054
51 *397:177 *529:13 0.0175825
52 *408:97 *529:9 0
53 *419:117 *529:9 0
54 *444:15 *529:9 0.03726
55 *444:37 *529:9 0.00287073
*RES
1 *921:gpio_inp_dis[0] *529:7 1.5725 
2 *529:7 *529:9 195.843 
3 *529:9 *529:11 0.5 
4 *529:11 *529:13 208.695 
5 *529:13 gpio_inp_dis[0] 3.27843 
*END

*D_NET *530 0.633977
*CONN
*P gpio_inp_dis[10] O
*I *921:gpio_inp_dis[10] O *D CF_CARAVEL_SOC
*CAP
1 gpio_inp_dis[10] 0.00442264
2 *921:gpio_inp_dis[10] 0.00414348
3 *530:113 0.0858036
4 *530:111 0.0813809
5 *530:109 0.0056639
6 *530:107 0.00618965
7 *530:93 0.00376717
8 *530:91 0.00420614
9 *530:77 0.00211981
10 *530:75 0.00397134
11 *530:55 0.00505109
12 *530:53 0.00291983
13 *530:43 0.00212535
14 *530:41 0.00288493
15 *530:29 0.00210792
16 *530:25 0.00480683
17 *530:25 *533:36 0.000287083
18 *530:25 *539:35 0
19 *530:25 *540:24 0.00100565
20 *530:25 *551:41 7.95017e-05
21 *530:25 *551:49 8.82606e-05
22 *530:25 *562:41 0
23 *530:25 *562:49 1.7635e-05
24 *530:25 *569:16 0
25 *530:25 *696:145 0.00074333
26 *530:29 *562:57 0.00512568
27 *530:29 *696:125 5.83121e-06
28 *530:29 *826:63 9.80032e-06
29 *530:41 *535:33 0.000135234
30 *530:41 *540:24 0.00116657
31 *530:41 *551:77 0.00852289
32 *530:41 *562:57 2.82887e-05
33 *530:41 *696:117 7.08673e-05
34 *530:41 *696:145 1.61696e-05
35 *530:43 *533:56 0
36 *530:43 *535:33 0.000903432
37 *530:43 *535:65 1.03323e-05
38 *530:43 *551:79 0.00653267
39 *530:43 *551:93 0.000774382
40 *530:43 *696:103 2.72392e-05
41 *530:43 *740:141 0.00170939
42 *530:53 *551:93 0.00076053
43 *530:53 *740:133 4.14644e-05
44 *530:53 *740:141 0.00104096
45 *530:55 *535:65 0.000274347
46 *530:55 *551:95 2.30998e-05
47 *530:55 *562:91 0.00776353
48 *530:55 *740:123 0
49 *530:55 *740:133 0.00287252
50 *530:55 *741:160 0.00104174
51 *530:55 *826:95 2.16833e-05
52 *530:75 *533:92 0.000117089
53 *530:75 *535:93 0.00184597
54 *530:75 *536:35 0.000629511
55 *530:75 *562:107 0.000110953
56 *530:75 *826:117 0.00615936
57 *530:77 *533:94 3.1562e-06
58 *530:77 *535:95 1.03323e-05
59 *530:77 *537:48 0.000199541
60 *530:77 *551:111 1.19928e-05
61 *530:77 *562:109 2.0514e-05
62 *530:77 *696:93 0
63 *530:91 *535:111 0.00540524
64 *530:91 *551:119 1.31646e-05
65 *530:91 *551:121 2.02787e-05
66 *530:93 *535:113 0.0101149
67 *530:93 *551:121 0.000441675
68 *530:107 *551:121 0.00363062
69 *530:113 *567:18 0.0356699
70 *530:113 *831:75 0.00333181
71 gpio_analog_pol[10] gpio_inp_dis[10] 0
72 gpio_analog_sel[10] gpio_inp_dis[10] 0
73 gpio_analog_sel[43] *530:91 0.000456242
74 gpio_analog_sel[43] *530:107 0.000419624
75 gpio_dm0[10] gpio_inp_dis[10] 0
76 *93:11 *530:113 0.153113
77 *98:11 *530:113 0
78 *101:11 *530:113 0
79 *118:115 *530:25 0.00184602
80 *130:11 *530:113 0.00163698
81 *144:11 *530:113 0.00119303
82 *179:11 *530:113 0.0492178
83 *207:19 *530:113 0
84 *223:11 *530:113 0.00201048
85 *247:11 *530:113 0
86 *254:11 *530:113 0.000232447
87 *270:17 *530:113 0.00156656
88 *274:37 *530:113 0.000181504
89 *288:57 *530:113 0.00165275
90 *288:59 *530:113 0.00340237
91 *322:61 *530:93 0.00394043
92 *342:11 *530:113 0.000351142
93 *386:157 *530:41 0.000468782
94 *386:175 *530:43 7.67415e-06
95 *397:97 *530:29 0.00512479
96 *397:117 *530:43 0.00492761
97 *397:151 *530:77 9.51995e-05
98 *397:171 *530:77 0.00150217
99 *397:173 *530:107 3.48975e-05
100 *408:53 *530:43 0.00165874
101 *408:61 *530:55 0.00129984
102 *408:63 *530:55 0.00784013
103 *408:79 *530:77 0.00682042
104 *419:85 *530:25 2.53191e-06
105 *419:93 *530:25 0.0101093
106 *419:117 *530:41 0.00858453
107 *419:119 *530:43 1.46828e-05
108 *419:137 *530:55 1.19928e-05
109 *419:159 *530:77 0.00857304
110 *419:175 *530:91 0.00543403
111 *419:191 *530:107 0.00363695
112 *419:193 *530:109 0.0162085
113 *444:37 *530:75 0
*RES
1 *921:gpio_inp_dis[10] *530:25 46.2035 
2 *530:25 *530:29 48.68 
3 *530:29 *530:41 18.6969 
4 *530:41 *530:43 75.8325 
5 *530:43 *530:53 17.5875 
6 *530:53 *530:55 102.225 
7 *530:55 *530:75 20.9411 
8 *530:75 *530:77 79.8 
9 *530:77 *530:91 14.3088 
10 *530:91 *530:93 91.185 
11 *530:93 *530:107 11.3153 
12 *530:107 *530:109 147.765 
13 *530:109 *530:111 2 
14 *530:111 *530:113 2388.05 
15 *530:113 gpio_inp_dis[10] 9.70803 
*END

*D_NET *531 0.590903
*CONN
*P gpio_inp_dis[11] O
*I *921:gpio_inp_dis[11] O *D CF_CARAVEL_SOC
*CAP
1 gpio_inp_dis[11] 0.00273674
2 *921:gpio_inp_dis[11] 0.00321327
3 *531:28 0.0939285
4 *531:26 0.0911918
5 *531:24 0.00878156
6 *531:22 0.00891999
7 *531:16 0.0067212
8 *531:14 0.00979605
9 *531:14 *532:14 0.00996838
10 *531:14 *539:31 0
11 *531:14 *540:24 0.0031689
12 *531:14 *541:27 0.001727
13 *531:14 *551:49 0
14 *531:14 *567:14 0.00258852
15 *531:14 *568:11 0.00281484
16 *531:14 *572:16 0.00158295
17 *531:16 *532:30 0.00122818
18 *531:16 *536:25 0.00229844
19 *531:16 *537:14 0.0160611
20 *531:16 *538:25 0.000653152
21 *531:16 *538:33 0.00437546
22 *531:16 *540:24 0.00290679
23 *531:16 *556:11 0.0024191
24 *531:16 *570:14 0.00886387
25 *531:16 *840:19 0.000236499
26 *531:24 *534:11 0.024883
27 *531:24 *793:27 0
28 *531:28 *692:23 0.020194
29 gpio_analog_pol[11] gpio_inp_dis[11] 0.00108472
30 *94:19 *531:28 0
31 *114:11 *531:28 0
32 *118:93 *531:16 0.000296865
33 *123:15 *531:24 0.00844159
34 *169:11 *531:28 0
35 *242:11 *531:28 0
36 *293:15 *531:16 0.0133631
37 *313:11 *531:28 0.184328
38 *322:129 *531:16 0.002258
39 *322:161 *531:14 1.7635e-05
40 *337:11 *531:28 0
41 *338:35 *531:14 0.000369096
42 *442:15 *531:24 0.0435229
43 *443:31 *531:24 0.00010988
44 *529:9 *531:14 0.00544397
45 *529:9 *531:16 0.000408104
*RES
1 *921:gpio_inp_dis[11] *531:14 24.435 
2 *531:14 *531:16 330.96 
3 *531:16 *531:22 5.89 
4 *531:22 *531:24 427.215 
5 *531:24 *531:26 2 
6 *531:26 *531:28 2564.26 
7 *531:28 gpio_inp_dis[11] 6.70857 
*END

*D_NET *532 0.67064
*CONN
*P gpio_inp_dis[12] O
*I *921:gpio_inp_dis[12] O *D CF_CARAVEL_SOC
*CAP
1 gpio_inp_dis[12] 0.00354192
2 *921:gpio_inp_dis[12] 0.00280697
3 *532:36 0.0940612
4 *532:34 0.0905193
5 *532:32 0.00657069
6 *532:30 0.00842697
7 *532:16 0.00660135
8 *532:14 0.00755204
9 *532:14 *533:36 0.000309164
10 *532:14 *535:33 0.000293388
11 *532:14 *539:31 0
12 *532:14 *540:24 0.0026745
13 *532:14 *551:49 0
14 *532:14 *562:49 0
15 *532:14 *826:47 0.000517748
16 *532:14 *826:61 0
17 *532:16 *537:12 0.000666143
18 *532:16 *569:18 0.00183934
19 *532:16 *696:95 0.00369483
20 *532:30 *537:24 0.00023617
21 *532:30 *740:113 6.5525e-05
22 *532:32 *536:63 0.00295477
23 *532:32 *540:34 0.0415355
24 *532:32 *569:18 0.0426786
25 *532:32 *826:127 0.00131804
26 *532:36 *568:15 0.000148153
27 gpio_analog_pol[12] gpio_inp_dis[12] 0.000271408
28 gpio_analog_pol[4] *532:36 0.00262283
29 gpio_analog_sel[43] *532:30 0.00194901
30 gpio_dm0[12] gpio_inp_dis[12] 0
31 *118:33 *532:32 0.0038138
32 *118:69 *532:16 0.00126889
33 *118:75 *532:16 0.00383776
34 *118:99 *532:16 0.00669907
35 *125:15 *532:16 0.000699888
36 *129:11 *532:36 0.000274836
37 *136:11 *532:36 0.0312191
38 *139:11 *532:36 0
39 *162:11 *532:36 0
40 *225:19 *532:36 0
41 *232:13 *532:36 0.00248178
42 *259:11 *532:36 0.0119501
43 *266:11 *532:36 0.185199
44 *312:19 *532:36 0
45 *315:11 *532:36 0.0291383
46 *325:39 *532:16 0.00590459
47 *325:63 *532:16 2.26739e-05
48 *338:35 *532:14 0.00162847
49 *338:35 *532:16 0.000996338
50 *346:15 *532:30 0.00263179
51 *397:93 *532:14 0.000384635
52 *419:197 *532:36 0.0163745
53 *444:37 *532:30 6.03517e-05
54 *444:39 *532:16 0.00734988
55 *444:55 *532:16 0.0165355
56 *529:9 *532:30 0.0071167
57 *531:14 *532:14 0.00996838
58 *531:16 *532:30 0.00122818
*RES
1 *921:gpio_inp_dis[12] *532:14 18.4548 
2 *532:14 *532:16 279.555 
3 *532:16 *532:30 22.7595 
4 *532:30 *532:32 406.86 
5 *532:32 *532:34 2 
6 *532:34 *532:36 2728.48 
7 *532:36 gpio_inp_dis[12] 8.11203 
*END

*D_NET *533 0.540619
*CONN
*P gpio_inp_dis[13] O
*I *921:gpio_inp_dis[13] O *D CF_CARAVEL_SOC
*CAP
1 gpio_inp_dis[13] 0.00388172
2 *921:gpio_inp_dis[13] 0.00421605
3 *533:200 0.00959887
4 *533:182 0.117345
5 *533:180 0.117203
6 *533:172 0.01345
7 *533:164 0.00941627
8 *533:156 0.00405412
9 *533:136 0.00936191
10 *533:122 0.0308964
11 *533:120 0.0286255
12 *533:114 0.00613631
13 *533:112 0.00155768
14 *533:110 0.00433753
15 *533:108 0.00473081
16 *533:104 0.00118078
17 *533:100 0.00104696
18 *533:94 0.00264153
19 *533:92 0.00448228
20 *533:70 0.00291568
21 *533:68 0.00355142
22 *533:56 0.00398533
23 *533:52 0.00558083
24 *533:36 0.00854749
25 *533:36 *535:33 0
26 *533:36 *539:31 0.00181626
27 *533:36 *540:24 0.000836222
28 *533:36 *551:49 0
29 *533:36 *551:61 0.0007835
30 *533:36 *696:125 2.30292e-05
31 *533:36 *696:145 0.00183391
32 *533:36 *826:63 0.00222516
33 *533:52 *535:33 0.000385303
34 *533:52 *541:13 0.00191607
35 *533:52 *541:17 0
36 *533:52 *562:65 1.95781e-05
37 *533:52 *569:18 0
38 *533:52 *696:103 0.000458069
39 *533:52 *696:117 0.00207123
40 *533:52 *696:125 3.34179e-05
41 *533:52 *740:155 0.00114163
42 *533:52 *740:165 0.000617194
43 *533:52 *740:169 0
44 *533:56 *569:18 0
45 *533:56 *740:145 0.00264272
46 *533:56 *740:155 0.000676218
47 *533:68 *535:65 0.000789867
48 *533:68 *562:89 3.1847e-05
49 *533:68 *740:141 0.000173521
50 *533:68 *826:93 1.71485e-05
51 *533:70 *551:95 0.00657866
52 *533:70 *740:123 0.00658033
53 *533:92 *535:93 0.000703487
54 *533:92 *537:24 0.000339315
55 *533:92 *537:48 0.00121203
56 *533:92 *562:107 7.22242e-05
57 *533:92 *826:117 0.000222012
58 *533:94 *535:95 0.00750309
59 *533:94 *562:109 1.19928e-05
60 *533:94 *740:113 0
61 *533:94 *826:119 0
62 *533:104 *826:127 9.4366e-05
63 *533:110 *535:113 0.000208246
64 *533:110 *551:121 0.00315292
65 *533:110 *696:71 0.0104953
66 *533:114 *537:80 0.00162047
67 *533:114 *697:103 0.0050393
68 *533:120 *697:101 0
69 *533:122 *536:79 0.000874232
70 *533:122 *696:61 0.000194387
71 *533:122 *697:93 0
72 *533:122 *741:82 8.86012e-05
73 *533:122 *742:106 0.000835529
74 *533:122 *742:108 0
75 *533:136 *536:119 0.000761994
76 *533:136 *537:86 0.00961759
77 *533:136 *538:93 0
78 *533:136 *538:109 0.0091289
79 *533:136 *695:53 0.00028069
80 *533:136 *695:55 0.000160228
81 *533:136 *741:82 0
82 *533:136 *742:106 0
83 *533:156 *537:86 6.58726e-05
84 *533:156 *537:108 0.000508252
85 *533:156 *538:121 0.000120853
86 *533:156 *695:35 0
87 *533:156 *695:53 0.000943256
88 *533:156 *697:73 0.00239087
89 *533:156 *741:72 0.000551747
90 *533:156 *742:96 0.00260785
91 *533:164 *536:119 9.8386e-05
92 *533:164 *538:129 0.00365149
93 *533:164 *741:72 0.000604965
94 *533:164 *742:72 0.00169427
95 *533:172 *536:121 0.00055234
96 *533:172 *536:135 0.00153923
97 *533:172 *537:108 0
98 *533:172 *537:116 0.000301198
99 *533:172 *538:137 0.00422268
100 *533:172 *697:37 0
101 *533:172 *742:72 0
102 *533:180 *536:143 0.000412795
103 *533:180 *538:137 0.000183332
104 *533:180 *538:145 0.00427801
105 *533:180 *695:35 0
106 *533:180 *696:23 0.000578935
107 *533:180 *697:11 0.00137361
108 gpio_analog_en[13] gpio_inp_dis[13] 0
109 gpio_analog_pol[13] gpio_inp_dis[13] 0.000458305
110 gpio_dm0[13] gpio_inp_dis[13] 0.00235404
111 *93:11 *533:200 0
112 *118:37 *533:108 0
113 *118:39 *533:104 0.000594898
114 *118:69 *533:68 0.0014151
115 *125:15 *533:104 0.00254118
116 *138:11 *533:200 0
117 *322:69 *533:104 0.00392999
118 *322:93 *533:92 0.00486124
119 *322:113 *533:68 0.00735056
120 *322:113 *533:70 0.00125906
121 *325:57 *533:56 0.000755895
122 *336:31 *533:56 0.000266169
123 *338:33 *533:52 9.04344e-05
124 *338:35 *533:36 0.000104141
125 *386:153 *533:36 0
126 *386:189 *533:68 3.91983e-05
127 *397:97 *533:36 0.000320972
128 *397:109 *533:52 0
129 *408:77 *533:92 0.0020284
130 *408:95 *533:94 0.000220075
131 *419:93 *533:36 1.2782e-05
132 *419:101 *533:36 0.000535571
133 *419:117 *533:52 0.000156614
134 *419:133 *533:68 4.61701e-06
135 *419:157 *533:92 2.04694e-05
136 *444:23 *533:104 0.000890977
137 *530:25 *533:36 0.000287083
138 *530:43 *533:56 0
139 *530:75 *533:92 0.000117089
140 *530:77 *533:94 3.1562e-06
141 *532:14 *533:36 0.000309164
*RES
1 *921:gpio_inp_dis[13] *533:36 46.0106 
2 *533:36 *533:52 44.8292 
3 *533:52 *533:56 44.0225 
4 *533:56 *533:68 25.3056 
5 *533:68 *533:70 59.445 
6 *533:70 *533:92 43.5261 
7 *533:92 *533:94 68.415 
8 *533:94 *533:100 7.93 
9 *533:100 *533:104 48.68 
10 *533:104 *533:108 7.715 
11 *533:108 *533:110 112.23 
12 *533:110 *533:112 2 
13 *533:112 *533:114 55.8225 
14 *533:114 *533:120 13.0701 
15 *533:120 *533:122 71.7009 
16 *533:122 *533:136 46.9641 
17 *533:136 *533:156 14.6451 
18 *533:156 *533:164 42.6131 
19 *533:164 *533:172 29.1403 
20 *533:172 *533:180 23.8 
21 *533:180 *533:182 322.952 
22 *533:182 *533:200 47.303 
23 *533:200 gpio_inp_dis[13] 14.296 
*END

*D_NET *534 0.658446
*CONN
*P gpio_inp_dis[14] O
*I *921:gpio_inp_dis[14] O *D CF_CARAVEL_SOC
*CAP
1 gpio_inp_dis[14] 0.00394077
2 *921:gpio_inp_dis[14] 0.000312975
3 *534:15 0.165515
4 *534:13 0.161574
5 *534:11 0.0149003
6 *534:9 0.0152133
7 *534:11 *557:19 0.0270659
8 *534:15 *699:10 0.0023294
9 *534:15 *744:15 0.0187058
10 gpio_analog_en[14] gpio_inp_dis[14] 0
11 gpio_analog_pol[14] gpio_inp_dis[14] 0.00589021
12 gpio_dm1[0] *534:15 0.000285279
13 *91:11 *534:15 0.0485552
14 *97:11 *534:15 0
15 *99:11 *534:15 0
16 *107:11 *534:15 0
17 *152:11 *534:15 0.00248092
18 *160:11 *534:15 0
19 *212:11 *534:15 0
20 *274:11 *534:15 0
21 *284:11 *534:15 0
22 *309:13 *534:15 0.00414371
23 *314:19 *534:15 0
24 *341:18 *534:11 0.0141369
25 *352:11 *534:15 0.00272603
26 *442:15 *534:11 0.00526867
27 *443:31 *534:11 0.0483407
28 *480:11 *534:15 0.092177
29 *483:11 *534:15 0
30 *531:24 *534:11 0.024883
*RES
1 *921:gpio_inp_dis[14] *534:9 6.2825 
2 *534:9 *534:11 758.415 
3 *534:11 *534:13 2 
4 *534:13 *534:15 3402.7 
5 *534:15 gpio_inp_dis[14] 14.7109 
*END

*D_NET *535 0.833696
*CONN
*P gpio_inp_dis[15] O
*I *921:gpio_inp_dis[15] O *D CF_CARAVEL_SOC
*CAP
1 gpio_inp_dis[15] 1.31292e-05
2 *921:gpio_inp_dis[15] 0.00568952
3 *535:125 0.00666918
4 *535:123 0.00665605
5 *535:121 0.114174
6 *535:119 0.114174
7 *535:117 0.00677579
8 *535:115 0.00684421
9 *535:113 0.0024051
10 *535:111 0.00329276
11 *535:95 0.00216437
12 *535:93 0.00424154
13 *535:65 0.00873092
14 *535:33 0.0113872
15 *535:33 *539:11 6.31308e-05
16 *535:33 *539:31 0
17 *535:33 *540:24 0.0016911
18 *535:33 *551:77 0.00855039
19 *535:33 *551:79 0.000828078
20 *535:33 *562:65 0.00862665
21 *535:33 *562:73 0.000524238
22 *535:33 *696:103 0.000903432
23 *535:33 *696:145 0.000104132
24 *535:33 *740:155 0.000671726
25 *535:33 *826:79 0.000709264
26 *535:65 *540:24 0.000858358
27 *535:65 *551:79 1.34594e-05
28 *535:65 *551:93 0.00194872
29 *535:65 *562:89 0.00378395
30 *535:65 *562:91 0.000297598
31 *535:65 *740:141 6.95177e-05
32 *535:65 *740:145 1.34503e-05
33 *535:65 *741:138 0.000100429
34 *535:65 *741:160 0.00677422
35 *535:65 *826:93 0.00109288
36 *535:65 *826:95 0.000187229
37 *535:93 *536:51 0.000139941
38 *535:93 *537:48 0.000149098
39 *535:93 *551:109 0.00166066
40 *535:93 *562:107 0.00188071
41 *535:93 *826:117 0.00355656
42 *535:95 *551:111 0.00857126
43 *535:95 *562:109 2.0514e-05
44 *535:111 *551:119 7.27144e-05
45 *535:111 *551:121 0.00540995
46 *535:113 *537:58 4.3375e-05
47 *535:113 *551:121 0.000239554
48 *535:113 *696:71 0.000126741
49 *535:117 *551:121 0.00333136
50 *535:121 *568:15 0
51 gpio_analog_en[3] *535:121 0.000638647
52 gpio_analog_pol[15] gpio_inp_dis[15] 0
53 gpio_analog_sel[43] *535:65 0.000566134
54 gpio_analog_sel[43] *535:93 0.00187341
55 gpio_analog_sel[43] *535:111 0.000218969
56 gpio_analog_sel[4] *535:121 0.000139918
57 *94:17 *535:121 0.00283166
58 *96:15 *535:125 0.00338364
59 *100:13 *535:121 0.00100156
60 *104:27 *535:121 0.000727517
61 *113:11 *535:121 0.00108026
62 *113:19 *535:121 0.0102812
63 *118:69 *535:65 0.000153676
64 *161:13 *535:121 0.00198636
65 *176:11 *535:121 0.00536134
66 *177:11 *535:121 0.00374523
67 *181:11 *535:121 0.0120631
68 *182:19 *535:121 0.21254
69 *202:25 *535:121 0.000476082
70 *260:19 *535:121 0.0607341
71 *288:11 *535:121 0.00834955
72 *299:21 *535:117 0.000119762
73 *307:11 *535:121 0
74 *312:19 *535:121 0.000229715
75 *322:61 *535:113 0.0021495
76 *322:93 *535:93 0.000139941
77 *322:113 *535:65 0.00700545
78 *322:129 *535:33 0
79 *325:57 *535:33 3.57564e-05
80 *326:11 *535:121 0.063635
81 *336:41 *535:33 0
82 *386:157 *535:33 0.000965328
83 *386:161 *535:33 0.00114454
84 *386:189 *535:65 0.000153676
85 *386:201 *535:93 0.000135363
86 *397:109 *535:33 2.77016e-05
87 *397:117 *535:33 0.000874648
88 *397:133 *535:65 0.00369871
89 *397:135 *535:93 0.00160939
90 *397:149 *535:93 0.00152375
91 *397:171 *535:95 0.000108569
92 *408:53 *535:33 0.000208503
93 *408:61 *535:65 0.00179786
94 *408:63 *535:65 0.00025331
95 *408:77 *535:93 0.00102031
96 *408:95 *535:95 0.000114227
97 *419:117 *535:33 4.02874e-05
98 *419:119 *535:33 0.000768169
99 *419:133 *535:65 0.00162727
100 *419:137 *535:65 0.000936702
101 *419:157 *535:65 0.000351697
102 *419:157 *535:93 0.00145906
103 *419:175 *535:111 6.08535e-05
104 *419:177 *535:113 0.0101149
105 *419:191 *535:113 0.000842084
106 *419:193 *535:117 0.0174572
107 *444:37 *535:93 0
108 *444:53 *535:65 0.000118754
109 *481:11 *535:121 0
110 *530:41 *535:33 0.000135234
111 *530:43 *535:33 0.000903432
112 *530:43 *535:65 1.03323e-05
113 *530:55 *535:65 0.000274347
114 *530:75 *535:93 0.00184597
115 *530:77 *535:95 1.03323e-05
116 *530:91 *535:111 0.00540524
117 *530:93 *535:113 0.0101149
118 *532:14 *535:33 0.000293388
119 *533:36 *535:33 0
120 *533:52 *535:33 0.000385303
121 *533:68 *535:65 0.000789867
122 *533:92 *535:93 0.000703487
123 *533:94 *535:95 0.00750309
124 *533:110 *535:113 0.000208246
*RES
1 *921:gpio_inp_dis[15] *535:33 48.63 
2 *535:33 *535:65 36.9748 
3 *535:65 *535:93 23.8151 
4 *535:93 *535:95 78.075 
5 *535:95 *535:111 14.5038 
6 *535:111 *535:113 112.747 
7 *535:113 *535:115 1.125 
8 *535:115 *535:117 171.053 
9 *535:117 *535:119 2 
10 *535:119 *535:121 3529.81 
11 *535:121 *535:123 2 
12 *535:123 *535:125 113.438 
13 *535:125 gpio_inp_dis[15] 2.18 
*END

*D_NET *536 0.721878
*CONN
*P gpio_inp_dis[16] O
*I *921:gpio_inp_dis[16] O *D CF_CARAVEL_SOC
*CAP
1 gpio_inp_dis[16] 3.38334e-05
2 *921:gpio_inp_dis[16] 0.0036467
3 *536:245 0.00270491
4 *536:243 0.00417733
5 *536:239 0.00345161
6 *536:235 0.00388215
7 *536:225 0.0072566
8 *536:223 0.0053198
9 *536:221 0.0025631
10 *536:213 0.00677367
11 *536:211 0.00658247
12 *536:207 0.00395333
13 *536:197 0.00486747
14 *536:195 0.00387415
15 *536:189 0.00391403
16 *536:187 0.00508869
17 *536:177 0.00596369
18 *536:175 0.00481462
19 *536:169 0.0062647
20 *536:167 0.00565102
21 *536:165 0.00274831
22 *536:161 0.0103055
23 *536:159 0.00819946
24 *536:153 0.0516657
25 *536:151 0.0510234
26 *536:149 0.0136587
27 *536:143 0.0153782
28 *536:135 0.00412364
29 *536:121 0.00516214
30 *536:119 0.0078027
31 *536:89 0.0251161
32 *536:87 0.0208654
33 *536:81 0.0056728
34 *536:79 0.0108906
35 *536:65 0.0108209
36 *536:63 0.00881602
37 *536:51 0.00754387
38 *536:35 0.00635127
39 *536:33 0.00422338
40 *536:25 0.00505582
41 *536:25 *538:25 0.000147489
42 *536:25 *538:33 0.000913375
43 *536:25 *539:17 0
44 *536:25 *540:24 0.00212865
45 *536:25 *542:9 0
46 *536:25 *556:11 0.00111489
47 *536:25 *568:11 0.000661069
48 *536:25 *570:14 0.00149567
49 *536:25 *741:164 0
50 *536:25 *840:19 0.00763915
51 *536:33 *562:89 0
52 *536:33 *567:14 0.00156182
53 *536:33 *568:11 0.00164098
54 *536:33 *572:16 0.00155483
55 *536:35 *537:24 2.8585e-06
56 *536:35 *540:34 0.00475802
57 *536:35 *569:18 0.0129797
58 *536:35 *826:117 0
59 *536:51 *537:32 0.000197352
60 *536:51 *537:48 0.000381106
61 *536:51 *540:34 0.00176852
62 *536:51 *826:119 0.00176518
63 *536:63 *540:34 0.00270831
64 *536:63 *562:117 3.02513e-05
65 *536:63 *562:119 0.0175348
66 *536:63 *569:18 0.0027253
67 *536:63 *697:109 0.00247475
68 *536:63 *826:119 0.000883431
69 *536:63 *826:127 0.00176121
70 *536:65 *696:61 0
71 *536:79 *696:61 0.00188301
72 *536:81 *538:79 0.0128305
73 *536:81 *695:55 0.00328465
74 *536:87 *538:93 0
75 *536:89 *538:93 0
76 *536:89 *696:39 0.0241065
77 *536:89 *741:82 0.00314747
78 *536:119 *537:86 0.00099806
79 *536:119 *538:109 0
80 *536:119 *538:121 0.000152929
81 *536:119 *695:35 0.00379909
82 *536:119 *695:53 0.00169763
83 *536:119 *696:31 0.00370795
84 *536:119 *697:73 0.00184232
85 *536:119 *741:72 0.000160446
86 *536:119 *742:96 0
87 *536:121 *697:47 0
88 *536:121 *741:40 0
89 *536:143 *537:108 0.00275702
90 *536:143 *538:137 0.00774487
91 *536:143 *697:37 3.4493e-05
92 *536:143 *740:57 0.00026485
93 *536:149 *537:116 0.012429
94 *536:149 *538:145 0.00148942
95 *536:149 *740:23 0.00699492
96 *536:149 *740:57 0.000472579
97 *536:149 *742:40 0
98 *536:153 *537:118 0.0333914
99 gpio_analog_pol[16] gpio_inp_dis[16] 0
100 gpio_analog_sel[43] *536:63 0.00160165
101 *118:33 *536:63 0.00449822
102 *118:39 *536:63 0.000693561
103 *118:53 *536:51 0.000686662
104 *125:15 *536:33 0.00141334
105 *139:19 *536:161 0.0197594
106 *140:381 *536:225 0
107 *230:25 *536:149 2.06223e-06
108 *244:15 *536:149 0.000250139
109 *271:27 *536:153 0.0826378
110 *322:69 *536:63 0.000512631
111 *322:93 *536:35 0.00199835
112 *322:93 *536:51 0.00816189
113 *322:149 *536:25 0.000136754
114 *359:23 *536:245 0.00231528
115 *386:201 *536:51 0
116 *386:205 *536:51 0
117 *391:15 *536:149 0.000593988
118 *397:135 *536:35 0
119 *408:95 *536:51 0.000222806
120 *444:53 *536:33 0.00742677
121 *448:9 *536:245 0.00279337
122 *529:9 *536:25 0.0144529
123 *529:9 *536:33 0.00323322
124 *529:9 *536:63 0
125 *530:75 *536:35 0.000629511
126 *531:16 *536:25 0.00229844
127 *532:32 *536:63 0.00295477
128 *533:122 *536:79 0.000874232
129 *533:136 *536:119 0.000761994
130 *533:164 *536:119 9.8386e-05
131 *533:172 *536:121 0.00055234
132 *533:172 *536:135 0.00153923
133 *533:180 *536:143 0.000412795
134 *535:93 *536:51 0.000139941
*RES
1 *921:gpio_inp_dis[16] *536:25 41.8855 
2 *536:25 *536:33 15.6481 
3 *536:33 *536:35 117.06 
4 *536:35 *536:51 49.014 
5 *536:51 *536:63 29.4744 
6 *536:63 *536:65 85.785 
7 *536:65 *536:79 36.6233 
8 *536:79 *536:81 142.395 
9 *536:81 *536:87 3.16473 
10 *536:87 *536:89 80.4004 
11 *536:89 *536:119 28.1193 
12 *536:119 *536:121 49.575 
13 *536:121 *536:135 39.2941 
14 *536:135 *536:143 15.4957 
15 *536:143 *536:149 49.6555 
16 *536:149 *536:151 0.5 
17 *536:151 *536:153 1583.02 
18 *536:153 *536:159 14.455 
19 *536:159 *536:161 219.66 
20 *536:161 *536:165 48.68 
21 *536:165 *536:167 2 
22 *536:167 *536:169 102.36 
23 *536:169 *536:175 14.455 
24 *536:175 *536:177 76.35 
25 *536:177 *536:187 37.08 
26 *536:187 *536:189 57.375 
27 *536:189 *536:195 14.56 
28 *536:195 *536:197 56.685 
29 *536:197 *536:207 33.42 
30 *536:207 *536:211 44.945 
31 *536:211 *536:213 72.555 
32 *536:213 *536:221 49.495 
33 *536:221 *536:223 2 
34 *536:223 *536:225 95.475 
35 *536:225 *536:235 40.515 
36 *536:235 *536:239 36.605 
37 *536:239 *536:243 29.135 
38 *536:243 *536:245 55.305 
39 *536:245 gpio_inp_dis[16] 2.435 
*END

*D_NET *537 0.682021
*CONN
*P gpio_inp_dis[17] O
*I *921:gpio_inp_dis[17] O *D CF_CARAVEL_SOC
*CAP
1 gpio_inp_dis[17] 5.54381e-05
2 *921:gpio_inp_dis[17] 0.00358919
3 *537:250 0.00601666
4 *537:248 0.00596122
5 *537:246 0.0153921
6 *537:244 0.0167357
7 *537:240 0.00277882
8 *537:230 0.0315288
9 *537:228 0.0313247
10 *537:222 0.00510595
11 *537:220 0.00568506
12 *537:214 0.0061776
13 *537:212 0.00484142
14 *537:208 0.00261859
15 *537:200 0.00420614
16 *537:190 0.00739921
17 *537:188 0.00595127
18 *537:182 0.00364014
19 *537:180 0.00420009
20 *537:174 0.00720811
21 *537:172 0.00874218
22 *537:168 0.00366635
23 *537:164 0.00268594
24 *537:156 0.00339917
25 *537:148 0.00422718
26 *537:142 0.00512167
27 *537:138 0.00903764
28 *537:136 0.00647127
29 *537:134 0.00228763
30 *537:126 0.0186828
31 *537:124 0.0170646
32 *537:118 0.0212353
33 *537:116 0.0237182
34 *537:108 0.0143747
35 *537:86 0.045923
36 *537:84 0.0405155
37 *537:80 0.00976672
38 *537:58 0.00515723
39 *537:56 0.00322454
40 *537:48 0.00558031
41 *537:32 0.00538121
42 *537:24 0.00255286
43 *537:14 0.00340359
44 *537:12 0.00625999
45 *537:12 *538:41 2.73058e-05
46 *537:12 *540:24 0.00266878
47 *537:12 *542:9 0
48 *537:12 *567:14 0.00225049
49 *537:12 *568:11 0.00244604
50 *537:12 *572:16 0.00225049
51 *537:14 *538:33 4.66108e-05
52 *537:14 *540:24 0.00290679
53 *537:14 *556:11 0.0067068
54 *537:24 *540:34 7.43808e-05
55 *537:24 *740:121 0
56 *537:24 *826:117 0.000543682
57 *537:32 *540:34 0
58 *537:32 *562:107 0.00106802
59 *537:32 *740:117 0.0018826
60 *537:32 *740:121 1.16578e-05
61 *537:48 *551:121 0.000259704
62 *537:48 *696:93 0.000204021
63 *537:56 *551:121 0
64 *537:56 *696:93 0.00499917
65 *537:58 *551:121 0.00222391
66 *537:58 *696:71 0.010194
67 *537:80 *538:61 0.000118636
68 *537:80 *551:121 0.000515838
69 *537:80 *695:63 0.000400867
70 *537:80 *696:61 5.35797e-05
71 *537:80 *696:67 0.00103723
72 *537:80 *697:103 0.000265869
73 *537:80 *741:120 0
74 *537:84 *696:65 5.58964e-05
75 *537:86 *538:93 0
76 *537:86 *695:53 0.000996665
77 *537:86 *695:55 0
78 *537:86 *697:73 0.000572829
79 *537:86 *697:81 0
80 *537:86 *741:72 0.00132842
81 *537:86 *742:96 0.000506188
82 *537:108 *538:137 0
83 *537:108 *695:35 0
84 *537:108 *696:31 0.00143522
85 *537:108 *697:73 0.00260376
86 *537:108 *741:72 0
87 *537:108 *742:72 0.000337738
88 *537:116 *538:137 0.0016693
89 *537:116 *538:145 0.00468799
90 *537:116 *695:27 0.00105663
91 *537:116 *697:37 0.00023629
92 *537:118 *538:147 0.00464908
93 *537:118 *696:21 0
94 *537:134 *667:15 0
95 *537:188 *706:11 0.00053468
96 *537:250 gpio_slow_sel[17] 0
97 gpio_analog_pol[17] gpio_inp_dis[17] 0
98 gpio_dm2[16] *537:240 0.00169447
99 *118:33 *537:56 0
100 *118:99 *537:12 0.000610325
101 *125:15 *537:12 0.00245528
102 *139:19 *537:126 0.0426551
103 *140:113 *537:126 0
104 *140:257 *537:142 0
105 *271:27 *537:118 0.00064519
106 *322:61 *537:56 1.95991e-05
107 *322:93 *537:24 1.03323e-05
108 *322:93 *537:48 0.00823842
109 *322:129 *537:12 0.00393234
110 *325:63 *537:12 0.00045111
111 *338:35 *537:12 0.000534788
112 *359:23 *537:250 0.00705596
113 *386:201 *537:32 0
114 *397:135 *537:24 1.61831e-05
115 *397:171 *537:48 0.00146554
116 *403:19 *537:134 0.000620156
117 *408:77 *537:48 2.603e-05
118 *419:117 *537:12 0
119 *419:177 *537:58 0.0101149
120 *444:55 *537:12 0.000904107
121 *448:9 *537:250 0.00881766
122 *449:9 *537:250 0.00279337
123 *529:9 *537:12 0.00471885
124 *529:9 *537:14 0.000341074
125 *530:77 *537:48 0.000199541
126 *531:16 *537:14 0.0160611
127 *532:16 *537:12 0.000666143
128 *532:30 *537:24 0.00023617
129 *533:92 *537:24 0.000339315
130 *533:92 *537:48 0.00121203
131 *533:114 *537:80 0.00162047
132 *533:136 *537:86 0.00961759
133 *533:156 *537:86 6.58726e-05
134 *533:156 *537:108 0.000508252
135 *533:172 *537:108 0
136 *533:172 *537:116 0.000301198
137 *535:93 *537:48 0.000149098
138 *535:113 *537:58 4.3375e-05
139 *536:35 *537:24 2.8585e-06
140 *536:51 *537:32 0.000197352
141 *536:51 *537:48 0.000381106
142 *536:119 *537:86 0.00099806
143 *536:143 *537:108 0.00275702
144 *536:149 *537:116 0.012429
145 *536:153 *537:118 0.0333914
*RES
1 *921:gpio_inp_dis[17] *537:12 21.3993 
2 *537:12 *537:14 145.005 
3 *537:14 *537:24 21.0325 
4 *537:24 *537:32 47.11 
5 *537:32 *537:48 44.1638 
6 *537:48 *537:56 13.0556 
7 *537:56 *537:58 91.875 
8 *537:58 *537:80 46.442 
9 *537:80 *537:84 16.0078 
10 *537:84 *537:86 118.644 
11 *537:86 *537:108 42.6644 
12 *537:108 *537:116 26.3549 
13 *537:116 *537:118 528.338 
14 *537:118 *537:124 14.8 
15 *537:124 *537:126 473.64 
16 *537:126 *537:134 48.055 
17 *537:134 *537:136 2 
18 *537:136 *537:138 111.54 
19 *537:138 *537:142 48.515 
20 *537:142 *537:148 47.92 
21 *537:148 *537:156 33.085 
22 *537:156 *537:164 33.805 
23 *537:164 *537:168 18.935 
24 *537:168 *537:172 48.68 
25 *537:172 *537:174 108.735 
26 *537:174 *537:180 24.805 
27 *537:180 *537:182 54.675 
28 *537:182 *537:188 14.455 
29 *537:188 *537:190 95.73 
30 *537:190 *537:200 42.66 
31 *537:200 *537:208 42.28 
32 *537:208 *537:212 10.04 
33 *537:212 *537:214 77.88 
34 *537:214 *537:220 35.155 
35 *537:220 *537:222 70.23 
36 *537:222 *537:228 24.805 
37 *537:228 *537:230 544.785 
38 *537:230 *537:240 38.1 
39 *537:240 *537:244 25.565 
40 *537:244 *537:246 278.055 
41 *537:246 *537:248 2 
42 *537:248 *537:250 157.425 
43 *537:250 gpio_inp_dis[17] 2.69 
*END

*D_NET *538 0.719108
*CONN
*P gpio_inp_dis[18] O
*I *921:gpio_inp_dis[18] O *D CF_CARAVEL_SOC
*CAP
1 gpio_inp_dis[18] 0.000835785
2 *921:gpio_inp_dis[18] 0.000863318
3 *538:409 0.00430939
4 *538:393 0.00669678
5 *538:385 0.00477715
6 *538:377 0.00511099
7 *538:361 0.00909879
8 *538:347 0.0102747
9 *538:345 0.00742858
10 *538:331 0.00599592
11 *538:329 0.00835238
12 *538:325 0.0113199
13 *538:315 0.0374785
14 *538:313 0.0351944
15 *538:307 0.00722797
16 *538:305 0.00644636
17 *538:289 0.00633925
18 *538:275 0.0138987
19 *538:273 0.0113978
20 *538:267 0.00538601
21 *538:265 0.00538601
22 *538:259 0.0139997
23 *538:257 0.0159837
24 *538:249 0.00568507
25 *538:241 0.00700157
26 *538:219 0.00753934
27 *538:217 0.00429963
28 *538:213 0.00483423
29 *538:195 0.00655254
30 *538:193 0.011194
31 *538:179 0.0116358
32 *538:177 0.00777904
33 *538:169 0.00934481
34 *538:157 0.00631141
35 *538:147 0.00415034
36 *538:145 0.0108962
37 *538:137 0.0147871
38 *538:129 0.0079177
39 *538:121 0.00385883
40 *538:109 0.00855559
41 *538:93 0.0209769
42 *538:79 0.0230413
43 *538:77 0.0152844
44 *538:61 0.0100438
45 *538:53 0.00519317
46 *538:43 0.00810197
47 *538:41 0.00859361
48 *538:33 0.00320506
49 *538:25 0.00166899
50 *538:25 *556:11 0.00151789
51 *538:25 *568:11 0.00255234
52 *538:33 *556:11 0.00208013
53 *538:41 *542:9 0.000565105
54 *538:43 *692:35 0.00216644
55 *538:43 *742:120 0.00556581
56 *538:43 *857:11 0.0145768
57 *538:53 *698:27 0.0107983
58 *538:53 *860:11 0.00247995
59 *538:53 *865:11 0.0022731
60 *538:61 *551:121 0.00140906
61 *538:61 *741:120 0
62 *538:61 *741:124 0.00172818
63 *538:77 *741:120 0
64 *538:79 *695:55 0.00366654
65 *538:79 *741:98 0
66 *538:93 *741:82 0.000296143
67 *538:109 *695:55 0.0216222
68 *538:109 *742:96 0
69 *538:121 *697:73 0.00190816
70 *538:121 *741:72 0.000301198
71 *538:121 *742:72 0.000100269
72 *538:129 *697:73 0.000903886
73 *538:129 *741:40 0.000197481
74 *538:129 *741:72 0.000254544
75 *538:137 *742:72 0.000443122
76 *538:145 *695:25 5.94831e-05
77 *538:145 *740:31 0.00257943
78 *538:195 *685:17 0.0063772
79 *538:219 *682:7 0
80 *538:241 *681:17 0
81 *538:249 *799:15 0
82 *538:257 *800:15 0.000398632
83 *538:259 *677:7 0
84 *538:289 *748:11 0.00248584
85 *538:289 *836:15 0
86 *538:361 *756:10 0
87 *538:409 gpio_slow_sel[18] 0
88 gpio_analog_en[18] *538:409 0
89 gpio_analog_pol[18] gpio_inp_dis[18] 0
90 gpio_analog_pol[18] *538:409 0
91 gpio_analog_sel[17] *538:315 0.0316994
92 gpio_dm0[18] *538:409 0
93 gpio_dm1[18] *538:409 0
94 *105:31 *538:377 0.00233989
95 *109:31 *538:305 0.0011017
96 *139:19 *538:157 0.00349708
97 *146:21 *538:241 0.00253624
98 *153:31 *538:305 0.000322907
99 *156:15 *538:265 0
100 *187:15 *538:169 0.00736851
101 *189:15 *538:169 0
102 *191:15 *538:241 0.000329599
103 *197:15 *538:289 0.000552756
104 *230:25 *538:157 0.000149496
105 *230:27 *538:409 0.000211314
106 *231:15 *538:169 0.000901378
107 *234:15 *538:241 0.000327142
108 *237:23 *538:377 0.000516279
109 *251:15 *538:43 0.0211666
110 *252:15 *538:53 0.010796
111 *275:15 *538:157 0.000404001
112 *278:15 *538:241 0.0039342
113 *280:23 *538:249 0.00589073
114 *284:23 *538:43 0.0112093
115 *285:15 *538:305 0
116 *290:15 *538:157 0.000289924
117 *293:15 *538:25 0.000381639
118 *317:15 *538:177 0
119 *319:15 *538:169 0
120 *322:129 *538:41 1.9579e-05
121 *402:15 *538:377 0
122 *529:9 *538:25 0.000509499
123 *531:16 *538:25 0.000653152
124 *531:16 *538:33 0.00437546
125 *533:136 *538:93 0
126 *533:136 *538:109 0.0091289
127 *533:156 *538:121 0.000120853
128 *533:164 *538:129 0.00365149
129 *533:172 *538:137 0.00422268
130 *533:180 *538:137 0.000183332
131 *533:180 *538:145 0.00427801
132 *536:25 *538:25 0.000147489
133 *536:25 *538:33 0.000913375
134 *536:81 *538:79 0.0128305
135 *536:87 *538:93 0
136 *536:89 *538:93 0
137 *536:119 *538:109 0
138 *536:119 *538:121 0.000152929
139 *536:143 *538:137 0.00774487
140 *536:149 *538:145 0.00148942
141 *537:12 *538:41 2.73058e-05
142 *537:14 *538:33 4.66108e-05
143 *537:80 *538:61 0.000118636
144 *537:86 *538:93 0
145 *537:108 *538:137 0
146 *537:116 *538:137 0.0016693
147 *537:116 *538:145 0.00468799
148 *537:118 *538:147 0.00464908
*RES
1 *921:gpio_inp_dis[18] *538:25 43.1875 
2 *538:25 *538:33 44.66 
3 *538:33 *538:41 37.595 
4 *538:41 *538:43 330.96 
5 *538:43 *538:53 21.3702 
6 *538:53 *538:61 46.6338 
7 *538:61 *538:77 27.4334 
8 *538:77 *538:79 208.185 
9 *538:79 *538:93 44.7918 
10 *538:93 *538:109 46.0503 
11 *538:109 *538:121 9.67033 
12 *538:121 *538:129 47.4217 
13 *538:129 *538:137 30.704 
14 *538:137 *538:145 40.5137 
15 *538:145 *538:147 54.165 
16 *538:147 *538:157 42.7775 
17 *538:157 *538:169 29.799 
18 *538:169 *538:177 43.033 
19 *538:177 *538:179 51.615 
20 *538:179 *538:193 48.2347 
21 *538:193 *538:195 70.485 
22 *538:195 *538:213 49.2235 
23 *538:213 *538:217 2.4608 
24 *538:217 *538:219 64.875 
25 *538:219 *538:241 40.696 
26 *538:241 *538:249 25.183 
27 *538:249 *538:257 41.651 
28 *538:257 *538:259 240.315 
29 *538:259 *538:265 2.786 
30 *538:265 *538:267 85.785 
31 *538:267 *538:273 2.786 
32 *538:273 *538:275 193.905 
33 *538:275 *538:289 26.075 
34 *538:289 *538:305 46.582 
35 *538:305 *538:307 58.755 
36 *538:307 *538:313 10.652 
37 *538:313 *538:315 807.435 
38 *538:315 *538:325 36.9449 
39 *538:325 *538:329 14.1141 
40 *538:329 *538:331 59.775 
41 *538:331 *538:345 26.951 
42 *538:345 *538:347 85.785 
43 *538:347 *538:361 47.9611 
44 *538:361 *538:377 43.4336 
45 *538:377 *538:385 17.7393 
46 *538:385 *538:393 49.301 
47 *538:393 *538:409 46.6115 
48 *538:409 gpio_inp_dis[18] 14.3325 
*END

*D_NET *539 0.993888
*CONN
*P gpio_inp_dis[19] O
*I *921:gpio_inp_dis[19] O *D CF_CARAVEL_SOC
*CAP
1 gpio_inp_dis[19] 0.000698788
2 *921:gpio_inp_dis[19] 0.000191581
3 *539:435 0.0331391
4 *539:433 0.0324404
5 *539:431 0.00359275
6 *539:429 0.0042486
7 *539:423 0.00364079
8 *539:421 0.00446153
9 *539:407 0.00525219
10 *539:405 0.00410037
11 *539:399 0.0046024
12 *539:397 0.00736306
13 *539:375 0.00621715
14 *539:373 0.00494692
15 *539:355 0.00754015
16 *539:353 0.00635385
17 *539:347 0.00353589
18 *539:345 0.00323176
19 *539:339 0.00429924
20 *539:337 0.00460336
21 *539:331 0.0117876
22 *539:329 0.0135131
23 *539:315 0.0136635
24 *539:313 0.0116414
25 *539:307 0.0121979
26 *539:305 0.0120692
27 *539:299 0.00856428
28 *539:297 0.00869295
29 *539:291 0.0172992
30 *539:289 0.0194764
31 *539:271 0.011552
32 *539:269 0.0121385
33 *539:253 0.00651574
34 *539:237 0.00626401
35 *539:225 0.00551133
36 *539:211 0.00921512
37 *539:209 0.00972026
38 *539:191 0.00788141
39 *539:189 0.00470908
40 *539:187 0.00193676
41 *539:185 0.00193676
42 *539:183 0.00150707
43 *539:181 0.00271588
44 *539:175 0.00629703
45 *539:173 0.00714694
46 *539:167 0.00899367
47 *539:165 0.0073965
48 *539:159 0.0317307
49 *539:157 0.0312691
50 *539:155 0.00200026
51 *539:153 0.00200026
52 *539:151 0.00581628
53 *539:117 0.00798136
54 *539:105 0.00360018
55 *539:97 0.00451869
56 *539:75 0.00638421
57 *539:73 0.00374189
58 *539:69 0.00394043
59 *539:55 0.0107294
60 *539:53 0.0072502
61 *539:49 0.000989943
62 *539:41 0.00186961
63 *539:35 0.00399613
64 *539:33 0.00309646
65 *539:31 0.00366937
66 *539:21 0.00390379
67 *539:17 0.002302
68 *539:11 0.00379836
69 *539:9 0.00192235
70 *539:11 *569:18 0.00272658
71 *539:11 *696:145 9.4087e-05
72 *539:17 *696:145 0
73 *539:17 *760:29 0
74 *539:21 *861:11 0.00169218
75 *539:31 *540:24 0.000575291
76 *539:31 *551:61 0
77 *539:31 *571:25 0.00150556
78 *539:31 *696:145 0.00473564
79 *539:35 *551:41 3.96653e-05
80 *539:35 *551:49 0.00194205
81 *539:35 *562:41 0.000391354
82 *539:35 *696:147 0.00340876
83 *539:49 *696:163 0.000123403
84 *539:49 *858:11 0.00454906
85 *539:53 *696:163 4.14843e-05
86 *539:55 *571:17 0.000429479
87 *539:55 *840:19 0.0047296
88 *539:69 gpio_out[39] 0.00525267
89 *539:69 *541:37 9.66862e-06
90 *539:69 *826:45 7.2767e-05
91 *539:73 *826:31 0.00253639
92 *539:75 *826:31 0.00877027
93 *539:97 *541:57 9.26191e-05
94 *539:97 *693:175 0
95 *539:97 *693:187 0.00829976
96 *539:97 *739:112 0
97 *539:97 *739:116 0.00861929
98 *539:105 *541:65 0.000732898
99 *539:105 *543:11 0
100 *539:105 *739:112 0.000248921
101 *539:117 *541:77 0.0136852
102 *539:117 *737:147 0.000570024
103 *539:117 *739:80 0.00183501
104 *539:117 *815:47 1.95991e-05
105 *539:117 *826:29 0.00134525
106 *539:151 *541:105 0
107 *539:151 *556:37 5.69898e-06
108 *539:151 *693:109 0.000483466
109 *539:151 *693:117 0.000156528
110 *539:151 *737:103 0.000283372
111 *539:151 *739:80 0.000416012
112 *539:151 *815:25 0.00174823
113 *539:151 *826:29 0.00340187
114 *539:151 *840:19 0.00140407
115 *539:155 *693:95 0.0118811
116 *539:155 *873:37 0.00166464
117 *539:159 *737:89 0.0104757
118 *539:159 *832:19 0.00548197
119 *539:165 *832:19 0.000747733
120 *539:167 *832:19 0.0158612
121 *539:183 *693:31 0.0084063
122 *539:183 *818:11 0.00207947
123 *539:187 *693:27 0.00645664
124 *539:187 *731:16 0.000101386
125 *539:191 *808:25 0
126 *539:225 *808:27 0
127 *539:269 *720:9 0.000619048
128 *539:269 *807:17 0.000200428
129 *539:271 *764:23 0
130 *539:289 *722:13 0.000216558
131 *539:329 *678:13 0.000606213
132 *539:421 gpio_oeb[22] 0
133 *539:423 gpio_out[22] 0
134 gpio_analog_pol[19] gpio_inp_dis[19] 0
135 gpio_analog_sel[22] *539:431 0
136 *921:gpio_in[17] *539:105 0.000101386
137 *921:gpio_in[18] *539:97 0.000182829
138 *921:gpio_in[37] *539:69 0
139 *921:gpio_in[41] *539:55 0.00364057
140 *104:35 *539:253 0
141 *104:35 *539:269 0
142 *118:115 *539:35 0
143 *118:187 *539:117 0.00195514
144 *148:17 *539:253 0
145 *212:23 *539:49 0.00101402
146 *237:23 *539:421 0.000897567
147 *238:27 *539:175 0.0116385
148 *248:19 *539:21 0.0016945
149 *285:15 *539:305 0.000622404
150 *292:15 *539:49 0.00455138
151 *293:15 *539:55 0.0174812
152 *322:131 *539:11 0.00692774
153 *322:149 *539:17 0
154 *322:161 *539:41 3.79555e-05
155 *322:167 *539:55 0.0432887
156 *322:181 *539:69 0.0274476
157 *322:191 *539:75 0.0181188
158 *322:219 *539:105 0.00154795
159 *322:235 *539:117 0.0132003
160 *322:255 *539:151 0.000515787
161 *322:271 *539:151 0.00688375
162 *322:273 *539:155 0.0113157
163 *322:315 *539:187 0.00378443
164 *322:317 *539:209 0
165 *322:483 *539:435 0.0209575
166 *325:69 *539:17 0.000864601
167 *325:101 *539:97 0.000981872
168 *325:133 *539:151 0.000437178
169 *325:145 *539:151 0.000491154
170 *338:69 *539:69 0.00103343
171 *338:81 *539:151 5.787e-05
172 *362:15 *539:435 0
173 *365:15 *539:435 0
174 *366:11 *539:183 0.00488076
175 *366:15 *539:435 0.00377627
176 *369:11 *539:183 1.16104e-05
177 *386:45 *539:151 8.80675e-05
178 *386:69 *539:151 0.0134331
179 *386:89 *539:97 0.00137017
180 *386:139 *539:35 1.33293e-05
181 *386:153 *539:31 0.000197254
182 *386:157 *539:11 0
183 *386:161 *539:11 0
184 *387:11 *539:159 0.0351173
185 *387:11 *539:165 0.000517726
186 *387:11 *539:167 0
187 *397:33 *539:151 0.00157698
188 *397:53 *539:117 0.000337995
189 *397:53 *539:151 0.0122259
190 *397:77 *539:75 0.00141649
191 *397:79 *539:55 1.34594e-05
192 *404:11 *539:175 0
193 *419:23 *539:117 5.92589e-05
194 *419:31 *539:73 0.00103427
195 *419:85 *539:35 0.000354725
196 *419:117 *539:11 0.001369
197 *436:23 *539:187 0
198 *444:69 *539:69 0.027159
199 *455:21 *539:183 1.93834e-05
200 *456:11 *539:289 0
201 *469:11 *539:159 0
202 *472:55 *539:69 2.29145e-05
203 *474:15 *539:105 0.0022555
204 *530:25 *539:35 0
205 *531:14 *539:31 0
206 *532:14 *539:31 0
207 *533:36 *539:31 0.00181626
208 *535:33 *539:11 6.31308e-05
209 *535:33 *539:31 0
210 *536:25 *539:17 0
*RES
1 *921:gpio_inp_dis[19] *539:9 4.7675 
2 *539:9 *539:11 73.935 
3 *539:11 *539:17 35.215 
4 *539:17 *539:21 17.63 
5 *539:21 *539:31 48.5663 
6 *539:31 *539:33 2 
7 *539:33 *539:35 78.075 
8 *539:35 *539:41 17.11 
9 *539:41 *539:49 49.7225 
10 *539:49 *539:53 2.4875 
11 *539:53 *539:55 390.645 
12 *539:55 *539:69 49.8891 
13 *539:69 *539:73 23.235 
14 *539:73 *539:75 165.015 
15 *539:75 *539:97 49.0515 
16 *539:97 *539:105 41.1325 
17 *539:105 *539:117 48.2483 
18 *539:117 *539:151 48.0367 
19 *539:151 *539:153 2 
20 *539:153 *539:155 109.125 
21 *539:155 *539:157 2 
22 *539:157 *539:159 835.357 
23 *539:159 *539:165 16.275 
24 *539:165 *539:167 183.607 
25 *539:167 *539:173 33.43 
26 *539:173 *539:175 134.745 
27 *539:175 *539:181 21.355 
28 *539:181 *539:183 93.435 
29 *539:183 *539:185 2 
30 *539:185 *539:187 60.825 
31 *539:187 *539:189 2 
32 *539:189 *539:191 77.7525 
33 *539:191 *539:209 34.7631 
34 *539:209 *539:211 118.935 
35 *539:211 *539:225 35.403 
36 *539:225 *539:237 45.3099 
37 *539:237 *539:253 49.966 
38 *539:253 *539:269 45.2651 
39 *539:269 *539:271 162.795 
40 *539:271 *539:289 33.8597 
41 *539:289 *539:291 305.595 
42 *539:291 *539:297 1.912 
43 *539:297 *539:299 150.555 
44 *539:299 *539:305 1.912 
45 *539:305 *539:307 214.305 
46 *539:307 *539:313 1.912 
47 *539:313 *539:315 204.105 
48 *539:315 *539:329 13.545 
49 *539:329 *539:331 201.555 
50 *539:331 *539:337 2.786 
51 *539:337 *539:339 72.015 
52 *539:339 *539:345 1.912 
53 *539:345 *539:347 52.635 
54 *539:347 *539:353 2.786 
55 *539:353 *539:355 103.635 
56 *539:355 *539:373 20.5997 
57 *539:373 *539:375 56.715 
58 *539:375 *539:397 33.704 
59 *539:397 *539:399 77.625 
60 *539:399 *539:405 1.912 
61 *539:405 *539:407 67.935 
62 *539:407 *539:421 13.837 
63 *539:421 *539:423 53.655 
64 *539:423 *539:429 2.786 
65 *539:429 *539:431 64.365 
66 *539:431 *539:433 0.5 
67 *539:433 *539:435 99.0913 
68 *539:435 gpio_inp_dis[19] 12.7925 
*END

*D_NET *540 0.352582
*CONN
*P gpio_inp_dis[1] O
*I *921:gpio_inp_dis[1] O *D CF_CARAVEL_SOC
*CAP
1 gpio_inp_dis[1] 0.00409338
2 *921:gpio_inp_dis[1] 0.0361318
3 *540:38 0.00990527
4 *540:36 0.00581189
5 *540:34 0.0131965
6 *540:32 0.013499
7 *540:24 0.0364343
8 *540:24 *551:25 0.00170975
9 *540:24 *551:33 0.00127121
10 *540:24 *551:49 0.00112698
11 *540:24 *551:77 0.000809568
12 *540:24 *562:25 0.000912905
13 *540:24 *562:33 0.00126664
14 *540:24 *562:49 0.00101939
15 *540:24 *562:65 0.000814146
16 *540:24 *567:12 0.000423989
17 *540:24 *569:16 0.00319115
18 *540:24 *570:12 0.00234721
19 *540:24 *571:17 0.0010467
20 *540:24 *572:14 0.000808966
21 *540:24 *696:117 0.000260155
22 *540:24 *696:145 0.000543242
23 *540:24 *696:163 0.000867859
24 *540:24 *740:165 0.000296006
25 *540:24 *741:138 0
26 *540:24 *826:61 0.000181545
27 *540:24 *826:77 0.000814146
28 *540:24 *840:19 0.00625268
29 *540:32 *696:95 0.00180604
30 *540:34 *569:18 0.00067866
31 *540:34 *740:113 0.00063824
32 *540:34 *826:119 0.00629685
33 *540:38 *551:125 0.0332189
34 gpio_analog_pol[1] gpio_inp_dis[1] 0.00551678
35 gpio_analog_sel[43] *540:24 0.00141634
36 *921:gpio_in[41] *540:24 0.000993343
37 *118:33 *540:34 0.00426225
38 *118:69 *540:32 0.00180772
39 *118:93 *540:24 0.000604334
40 *118:133 *540:24 0.00154363
41 *118:145 *540:24 0.00106021
42 *245:11 *540:38 0.000929985
43 *250:21 *540:38 0.00223352
44 *256:11 *540:38 0.0235378
45 *257:11 *540:38 0.000210254
46 *279:11 *540:38 0.000117854
47 *280:11 *540:38 9.65729e-05
48 *281:9 gpio_inp_dis[1] 0.00328719
49 *296:11 *540:38 0.00409149
50 *322:93 *540:32 8.33066e-06
51 *322:129 *540:24 0.00155728
52 *322:161 *540:24 0.00214845
53 *336:41 *540:24 0.000476148
54 *338:33 *540:24 0.00045863
55 *338:69 *540:24 0.00280793
56 *346:15 *540:24 0.000977825
57 *386:123 *540:24 0.00106479
58 *386:137 *540:24 0.00126206
59 *397:93 *540:24 0.000378385
60 *397:109 *540:24 0.000649332
61 *419:63 *540:24 0.00106021
62 *419:77 *540:24 0.00126206
63 *419:93 *540:24 0.00100565
64 *419:117 *540:24 0.0015814
65 *441:11 *540:38 0.000175036
66 *529:9 *540:24 0.0228916
67 *530:25 *540:24 0.00100565
68 *530:41 *540:24 0.00116657
69 *531:14 *540:24 0.0031689
70 *531:16 *540:24 0.00290679
71 *532:14 *540:24 0.0026745
72 *532:32 *540:34 0.0415355
73 *533:36 *540:24 0.000836222
74 *535:33 *540:24 0.0016911
75 *535:65 *540:24 0.000858358
76 *536:25 *540:24 0.00212865
77 *536:35 *540:34 0.00475802
78 *536:51 *540:34 0.00176852
79 *536:63 *540:34 0.00270831
80 *537:12 *540:24 0.00266878
81 *537:14 *540:24 0.00290679
82 *537:24 *540:34 7.43808e-05
83 *537:32 *540:34 0
84 *539:31 *540:24 0.000575291
*RES
1 *921:gpio_inp_dis[1] *540:24 38.1381 
2 *540:24 *540:32 21.445 
3 *540:32 *540:34 428.94 
4 *540:34 *540:36 2 
5 *540:36 *540:38 373.552 
6 *540:38 gpio_inp_dis[1] 13.3003 
*END

*D_NET *541 0.974852
*CONN
*P gpio_inp_dis[20] O
*I *921:gpio_inp_dis[20] O *D CF_CARAVEL_SOC
*CAP
1 gpio_inp_dis[20] 9.87705e-05
2 *921:gpio_inp_dis[20] 0.00416951
3 *541:135 0.125414
4 *541:133 0.125315
5 *541:131 0.0266493
6 *541:129 0.0266493
7 *541:127 0.00213555
8 *541:125 0.00333709
9 *541:115 0.00562566
10 *541:113 0.00442412
11 *541:111 0.0401401
12 *541:109 0.0401401
13 *541:107 0.00402714
14 *541:105 0.00658082
15 *541:89 0.00515102
16 *541:77 0.00492807
17 *541:65 0.00426728
18 *541:59 0.0031943
19 *541:57 0.00446863
20 *541:43 0.00570689
21 *541:41 0.00261693
22 *541:37 0.00670263
23 *541:27 0.0195095
24 *541:25 0.0151121
25 *541:19 0.00351686
26 *541:17 0.00355924
27 *541:13 0.0063962
28 *541:13 *740:155 0.0066494
29 *541:17 *740:169 0.00302018
30 *541:19 *546:13 0.00679138
31 *541:19 *564:13 0.000324125
32 *541:27 *556:11 0
33 *541:27 *567:12 0.000397833
34 *541:27 *567:14 0.00903638
35 *541:27 *569:16 0.00263047
36 *541:27 *572:16 0.01001
37 *541:37 gpio_out[39] 0.000735128
38 *541:37 *826:31 0.0108957
39 *541:59 *825:23 0.00174237
40 *541:59 *844:13 0.00263317
41 *541:77 *693:137 0.00206572
42 *541:77 *737:147 0.000378918
43 *541:77 *815:47 0.0132365
44 *541:77 *826:29 0.00193187
45 *541:89 *693:125 0.0134451
46 *541:89 *737:147 0.0130714
47 *541:89 *739:68 0.000635544
48 *541:89 *739:80 1.4548e-05
49 *541:89 *826:29 0.00143146
50 *541:89 *873:21 0
51 *541:89 *873:25 0
52 *541:105 *556:37 0.000199699
53 *541:105 *840:19 0.000347488
54 *541:107 *693:95 0.000582928
55 *541:107 *749:25 4.41506e-05
56 *541:107 *815:25 0.000811159
57 *541:107 *824:21 8.23457e-05
58 *541:107 *841:21 8.23457e-05
59 *541:107 *847:36 4.77719e-05
60 *541:111 *690:23 0.00636155
61 *541:111 *820:11 0.0261208
62 *541:125 *752:11 0.000142915
63 *541:127 *542:47 0.00182123
64 *541:127 *737:17 0.0047227
65 *541:127 *737:39 0
66 *541:131 *693:19 0.025816
67 *541:131 *716:11 0.000353226
68 gpio_analog_pol[20] gpio_inp_dis[20] 0
69 gpio_analog_pol[20] *541:135 0
70 gpio_analog_pol[38] *541:57 0
71 gpio_analog_sel[42] *541:17 0
72 *921:gpio_in[16] *541:77 8.34139e-05
73 *118:113 *541:25 0
74 *118:159 *541:41 1.88904e-05
75 *118:163 *541:43 0.0207164
76 *118:177 *541:57 0.00445617
77 *118:187 *541:77 0.00206414
78 *118:187 *541:105 2.01504e-05
79 *145:19 *541:135 0
80 *160:23 *541:131 0.0154977
81 *163:23 *541:131 0
82 *206:51 *541:127 0
83 *293:15 *541:105 0.00173556
84 *301:17 *541:19 0.000367129
85 *322:181 *541:37 0.00887846
86 *322:211 *541:57 1.0911e-05
87 *322:219 *541:65 0.000721796
88 *322:235 *541:77 4.24492e-05
89 *322:255 *541:89 0
90 *322:273 *541:107 0.0068988
91 *322:301 *541:115 0
92 *325:57 *541:13 0.000889355
93 *325:85 *541:37 0.0137346
94 *325:87 *541:43 0.0206432
95 *325:117 *541:65 0
96 *325:133 *541:89 0.000561002
97 *325:145 *541:89 0.000566085
98 *325:145 *541:105 0.00172684
99 *335:25 *541:19 0.00213593
100 *335:25 *541:59 0.000491177
101 *335:43 *541:105 0.000551435
102 *335:55 *541:105 0.0137371
103 *338:33 *541:13 0
104 *338:69 *541:27 0.00266222
105 *338:69 *541:37 0.000666462
106 *338:81 *541:105 0.00792955
107 *386:103 *541:37 0.00513677
108 *386:103 *541:41 6.0872e-05
109 *392:19 *541:111 0.00627526
110 *397:77 *541:57 0.00426842
111 *402:11 *541:111 0.069708
112 *419:21 *541:105 6.65155e-05
113 *419:37 *541:41 8.54671e-05
114 *444:55 *541:27 0.054868
115 *449:13 *541:125 0
116 *450:13 *541:125 0.00163144
117 *453:49 *541:59 0.00724518
118 *454:17 *541:127 0.00946853
119 *464:11 *541:111 0
120 *465:11 *541:111 0
121 *472:55 *541:37 0
122 *477:11 *541:19 0.0007636
123 *529:9 *541:27 0.000853635
124 *531:14 *541:27 0.001727
125 *533:52 *541:13 0.00191607
126 *533:52 *541:17 0
127 *539:69 *541:37 9.66862e-06
128 *539:97 *541:57 9.26191e-05
129 *539:105 *541:65 0.000732898
130 *539:117 *541:77 0.0136852
131 *539:151 *541:105 0
*RES
1 *921:gpio_inp_dis[20] *541:13 29.865 
2 *541:13 *541:17 44.5625 
3 *541:17 *541:19 62.55 
4 *541:19 *541:25 33.685 
5 *541:25 *541:27 494.835 
6 *541:27 *541:37 48.6465 
7 *541:37 *541:41 4.7825 
8 *541:41 *541:43 187.095 
9 *541:43 *541:57 47.0441 
10 *541:57 *541:59 66.69 
11 *541:59 *541:65 36.3925 
12 *541:65 *541:77 49.3416 
13 *541:77 *541:89 45.5569 
14 *541:89 *541:105 49.74 
15 *541:105 *541:107 88.425 
16 *541:107 *541:109 2 
17 *541:109 *541:111 1148.62 
18 *541:111 *541:113 2 
19 *541:113 *541:115 62.895 
20 *541:115 *541:125 31.815 
21 *541:125 *541:127 105.93 
22 *541:127 *541:129 2 
23 *541:129 *541:131 642.15 
24 *541:131 *541:133 2 
25 *541:133 *541:135 2256.98 
26 *541:135 gpio_inp_dis[20] 1.35 
*END

*D_NET *542 1.01554
*CONN
*P gpio_inp_dis[21] O
*I *921:gpio_inp_dis[21] O *D CF_CARAVEL_SOC
*CAP
1 gpio_inp_dis[21] 9.87705e-05
2 *921:gpio_inp_dis[21] 0.0016614
3 *542:55 0.106855
4 *542:53 0.106756
5 *542:51 0.00906619
6 *542:49 0.00906619
7 *542:47 0.0180863
8 *542:45 0.0183441
9 *542:39 0.00817818
10 *542:37 0.00835941
11 *542:31 0.0163413
12 *542:29 0.0160867
13 *542:23 0.00726133
14 *542:21 0.00767354
15 *542:15 0.00545933
16 *542:13 0.00486285
17 *542:11 0.0238557
18 *542:9 0.0255171
19 *542:11 *544:13 0.177165
20 *542:11 *570:22 0.00612412
21 *542:11 *760:31 0.000324
22 *542:11 *868:11 0.0416336
23 *542:15 *921:mask_rev[11] 0.00199284
24 *542:15 *559:29 0
25 *542:15 *781:21 0.00255016
26 *542:15 *838:25 0.000128942
27 *542:15 *840:25 1.10631e-05
28 *542:15 *840:27 0.00968116
29 *542:15 *842:21 0.00175399
30 *542:15 *860:15 0
31 *542:15 *860:19 0
32 *542:21 *921:mask_rev[0] 0
33 *542:21 *921:mask_rev[1] 0.0002461
34 *542:23 *785:11 0.0104266
35 *542:23 *804:11 0.00264518
36 *542:23 *853:23 0.010717
37 *542:29 *793:9 0
38 *542:29 *804:9 0.000272875
39 *542:31 *764:11 0.00750762
40 *542:31 *786:11 0.00316898
41 *542:31 *796:11 0
42 *542:39 *758:9 0.000790839
43 *542:39 *831:27 0.00696379
44 *542:47 *543:39 0.00556922
45 *542:47 *737:17 0.00193058
46 *542:47 *756:6 0.028362
47 *542:51 *720:9 0.00336933
48 *542:51 *807:17 0
49 *542:55 *670:7 0
50 gpio_analog_pol[21] gpio_inp_dis[21] 0
51 gpio_analog_pol[21] *542:55 0
52 *103:15 *542:51 0
53 *146:25 *542:55 0
54 *336:47 *542:11 0.147921
55 *353:31 *542:11 0.00928266
56 *374:9 *542:45 5.71654e-05
57 *376:9 *542:45 0
58 *397:13 *542:23 0.0032372
59 *399:11 *542:31 0.00062336
60 *407:11 *542:31 0.0176096
61 *430:11 *542:23 0.000143229
62 *431:11 *542:23 0.0325403
63 *432:11 *542:23 0.000268721
64 *434:11 *542:23 0
65 *449:13 *542:39 0.000477155
66 *450:13 *542:39 0
67 *454:13 *542:51 0.051781
68 *455:11 *542:51 0.0323471
69 *465:21 *542:15 0
70 *536:25 *542:9 0
71 *537:12 *542:9 0
72 *538:41 *542:9 0.000565105
73 *541:127 *542:47 0.00182123
*RES
1 *921:gpio_inp_dis[21] *542:9 26.9525 
2 *542:9 *542:11 1630.23 
3 *542:11 *542:13 2 
4 *542:13 *542:15 140.992 
5 *542:15 *542:21 2.4364 
6 *542:21 *542:23 387.705 
7 *542:23 *542:29 1.5624 
8 *542:29 *542:31 424.807 
9 *542:31 *542:37 10.315 
10 *542:37 *542:39 171.083 
11 *542:39 *542:45 1.59153 
12 *542:45 *542:47 86.2575 
13 *542:47 *542:49 0.5 
14 *542:49 *542:51 76.1051 
15 *542:51 *542:53 0.5 
16 *542:53 *542:55 1924.84 
17 *542:55 gpio_inp_dis[21] 1.35 
*END

*D_NET *543 0.991418
*CONN
*P gpio_inp_dis[22] O
*I *921:gpio_inp_dis[22] O *D CF_CARAVEL_SOC
*CAP
1 gpio_inp_dis[22] 0.00401259
2 *921:gpio_inp_dis[22] 0.000977822
3 *543:49 0.00403737
4 *543:47 0.075674
5 *543:45 0.080322
6 *543:39 0.0288139
7 *543:37 0.0258917
8 *543:31 0.0149181
9 *543:29 0.0132868
10 *543:23 0.0275817
11 *543:21 0.0275172
12 *543:11 0.0523947
13 *543:9 0.0533177
14 *543:11 *771:27 0.181129
15 *543:21 *861:27 6.16289e-05
16 *543:23 *558:25 0.00890839
17 *543:23 *749:11 0.00465434
18 *543:23 *771:11 0.00720284
19 *543:23 *824:11 0.0137051
20 *543:23 *826:11 0
21 *543:23 *855:23 0.00461747
22 *543:23 *861:27 0.00512463
23 *543:29 *817:9 7.13354e-05
24 *543:31 *687:19 0.00336197
25 *543:31 *732:10 0.00580042
26 *543:31 *737:65 0.016108
27 *543:31 *766:11 0.00274711
28 *543:39 *756:6 0
29 *543:45 *720:9 0.0240359
30 *543:45 *807:17 0
31 *543:47 *709:7 0.0767975
32 gpio_analog_en[33] *543:37 0.000104615
33 gpio_analog_pol[22] gpio_inp_dis[22] 0
34 gpio_analog_pol[22] *543:47 0
35 *165:23 *543:11 0.0110613
36 *206:57 *543:37 0
37 *248:35 *543:31 0
38 *292:25 *543:21 7.4816e-05
39 *296:23 *543:11 0.00795045
40 *322:219 *543:11 0
41 *357:19 *543:31 0
42 *364:27 *543:23 0.0240193
43 *364:27 *543:31 0.000190181
44 *375:19 *543:31 0.00643687
45 *388:11 *543:21 6.02846e-05
46 *388:11 *543:23 0.00774308
47 *413:11 *543:23 0.00353963
48 *418:11 *543:23 0.0221541
49 *418:11 *543:31 0.00342619
50 *425:11 *543:23 0.0113844
51 *434:23 *543:11 0.0151372
52 *435:11 *543:23 0
53 *448:31 *543:23 0
54 *449:21 *543:31 0
55 *453:41 *543:31 0
56 *454:17 *543:39 0.013649
57 *454:23 *543:37 0.0011913
58 *455:11 *543:45 0.0293197
59 *455:13 *543:39 0.00893235
60 *455:19 *543:37 0.000740323
61 *456:31 *543:11 0.000198784
62 *468:11 *543:31 0.0324948
63 *470:15 *543:11 0.0228914
64 *470:15 *543:21 7.71138e-05
65 *474:15 *543:11 0
66 *539:105 *543:11 0
67 *542:47 *543:39 0.00556922
*RES
1 *921:gpio_inp_dis[22] *543:9 14.2025 
2 *543:9 *543:11 1673.7 
3 *543:11 *543:21 3.8679 
4 *543:21 *543:23 113.389 
5 *543:23 *543:29 1.24193 
6 *543:29 *543:31 512.655 
7 *543:31 *543:37 5.6702 
8 *543:37 *543:39 74.1127 
9 *543:39 *543:45 44.0097 
10 *543:45 *543:47 1853.47 
11 *543:47 *543:49 0.45 
12 *543:49 gpio_inp_dis[22] 71.4225 
*END

*D_NET *544 0.966862
*CONN
*P gpio_inp_dis[23] O
*I *921:gpio_inp_dis[23] O *D CF_CARAVEL_SOC
*CAP
1 gpio_inp_dis[23] 0.00208018
2 *921:gpio_inp_dis[23] 0.00170705
3 *544:33 0.118687
4 *544:31 0.116607
5 *544:29 0.00239929
6 *544:27 0.00239929
7 *544:25 0.00168424
8 *544:23 0.00168424
9 *544:21 0.0024217
10 *544:17 0.034328
11 *544:15 0.0319063
12 *544:13 0.0260528
13 *544:11 0.0277598
14 *544:11 *839:53 9.04457e-05
15 *544:13 *553:13 0.184039
16 *544:13 *570:22 0.00326895
17 *544:13 *749:27 0
18 *544:13 *841:11 0.0391159
19 *544:17 *736:39 0
20 *544:17 *779:11 0.00733371
21 *544:17 *788:11 0.0352742
22 *544:25 *836:11 0.00201817
23 *544:29 *735:21 0.00136886
24 *544:33 *693:25 0
25 gpio_analog_pol[23] gpio_inp_dis[23] 0
26 *119:27 *544:17 0.000536242
27 *148:17 *544:33 0
28 *206:51 *544:25 4.72496e-05
29 *207:51 *544:17 0.0456166
30 *294:27 *544:17 0
31 *322:285 *544:17 0.0271917
32 *322:377 *544:33 0.0164025
33 *353:31 *544:13 0.000210687
34 *367:11 *544:17 0.00839058
35 *375:27 *544:25 0.0102531
36 *411:11 *544:17 0.0175931
37 *437:31 *544:29 0
38 *446:25 *544:17 0
39 *455:25 *544:13 0
40 *456:15 *544:29 0.00723564
41 *456:25 *544:21 0.00383399
42 *472:27 *544:25 0.010159
43 *542:11 *544:13 0.177165
*RES
1 *921:gpio_inp_dis[23] *544:11 25.7675 
2 *544:11 *544:13 1725.45 
3 *544:13 *544:15 2 
4 *544:15 *544:17 1183.31 
5 *544:17 *544:21 48.68 
6 *544:21 *544:23 2 
7 *544:23 *544:25 114.345 
8 *544:25 *544:27 2 
9 *544:27 *544:29 66.69 
10 *544:29 *544:31 2 
11 *544:31 *544:33 2227.7 
12 *544:33 gpio_inp_dis[23] 36.0975 
*END

*D_NET *545 1.04788
*CONN
*P gpio_inp_dis[24] O
*I *921:gpio_inp_dis[24] O *D CF_CARAVEL_SOC
*CAP
1 gpio_inp_dis[24] 0.00356415
2 *921:gpio_inp_dis[24] 0.00100434
3 *545:15 0.0942326
4 *545:13 0.0906684
5 *545:11 0.0308904
6 *545:9 0.0318948
7 *545:9 *557:17 0.000155661
8 *545:11 *554:13 0.18941
9 *545:11 *852:19 0.0097121
10 *545:15 gpio_out[27] 0.00359233
11 *545:15 *817:11 0.00929392
12 gpio_analog_pol[24] gpio_inp_dis[24] 0
13 gpio_analog_pol[43] *545:9 0
14 gpio_analog_sel[24] gpio_inp_dis[24] 0
15 gpio_ib_mode_sel[36] *545:15 0.00314872
16 *164:35 *545:11 0.03674
17 *237:23 gpio_inp_dis[24] 0
18 *238:15 *545:11 0.00659178
19 *253:15 *545:11 0.0191143
20 *296:21 *545:9 4.04634e-05
21 *336:67 *545:15 0.0899687
22 *338:71 *545:11 0.0121692
23 *366:11 *545:15 0
24 *369:11 *545:15 0.0209304
25 *383:11 *545:15 0.00135459
26 *417:11 *545:15 0.00448145
27 *437:11 *545:15 0.00207675
28 *457:11 *545:15 0.307048
29 *461:23 *545:11 0.0798
*RES
1 *921:gpio_inp_dis[24] *545:9 16.4825 
2 *545:9 *545:11 1756.5 
3 *545:11 *545:13 2 
4 *545:13 *545:15 3423.1 
5 *545:15 gpio_inp_dis[24] 7.93343 
*END

*D_NET *546 0.842779
*CONN
*P gpio_inp_dis[25] O
*I *921:gpio_inp_dis[25] O *D CF_CARAVEL_SOC
*CAP
1 gpio_inp_dis[25] 0.00310617
2 *921:gpio_inp_dis[25] 0.0021212
3 *546:25 0.132104
4 *546:23 0.13213
5 *546:13 0.0421665
6 *546:11 0.0411563
7 *546:11 gpio_vtrip_sel[43] 0
8 *546:13 *552:13 0.189158
9 *546:13 *560:19 0.0122457
10 *546:13 *564:13 0.00029927
11 *546:13 *565:13 0.00527286
12 *546:13 *784:13 0.0279194
13 *546:23 *549:23 0
14 *546:23 *552:23 0.000199131
15 *546:23 *785:25 0
16 *546:23 *825:23 0.000325565
17 *546:23 *853:17 0
18 *546:25 *693:91 0
19 *546:25 *761:11 0.009197
20 *546:25 *813:11 0
21 *546:25 *814:19 0.0172455
22 *546:25 *816:25 0.000681113
23 *546:25 *832:27 0.019954
24 *546:25 *873:49 0.0916988
25 gpio_ib_mode_sel[32] *546:25 0.000673276
26 *150:31 gpio_inp_dis[25] 0
27 *248:33 *546:23 0.000430468
28 *250:33 *546:23 0.00280071
29 *284:59 *546:25 0
30 *284:67 *546:25 0.00728512
31 *301:17 *546:13 0.000143059
32 *335:25 *546:13 0.0116151
33 *345:15 *546:13 0.00270638
34 *398:17 *546:25 0.00152445
35 *398:19 *546:25 0
36 *409:11 *546:25 0
37 *412:11 *546:25 0
38 *422:11 *546:25 0.0142926
39 *428:21 *546:23 0.000142556
40 *446:27 *546:23 0.000663149
41 *447:21 *546:23 0.000650567
42 *453:49 *546:13 0.000478574
43 *454:53 *546:13 0.0587995
44 *472:15 *546:25 0
45 *477:11 *546:13 0.00680111
46 *541:19 *546:13 0.00679138
*RES
1 *921:gpio_inp_dis[25] *546:11 30.8675 
2 *546:11 *546:13 1740.97 
3 *546:13 *546:23 12.6082 
4 *546:23 *546:25 2804.59 
5 *546:25 gpio_inp_dis[25] 6.61103 
*END

*D_NET *547 0.888051
*CONN
*P gpio_inp_dis[26] O
*I *921:gpio_inp_dis[26] O *D CF_CARAVEL_SOC
*CAP
1 gpio_inp_dis[26] 0.000866735
2 *921:gpio_inp_dis[26] 0.000784386
3 *547:25 0.0956364
4 *547:23 0.0965405
5 *547:13 0.0312212
6 *547:11 0.0302347
7 *547:13 *555:13 0.0161736
8 *547:13 *838:11 0.0449154
9 *547:23 *559:29 5.9286e-06
10 *547:25 *557:31 0
11 *547:25 *693:57 0.00298722
12 *547:25 *810:11 0.0146832
13 gpio_analog_pol[26] gpio_inp_dis[26] 0
14 gpio_dm0[26] gpio_inp_dis[26] 0
15 *119:15 *547:13 0.0706698
16 *289:23 *547:13 0.0230502
17 *325:29 *547:11 0.000791486
18 *325:167 *547:25 0
19 *336:25 *547:11 0.00153373
20 *336:67 *547:23 0.000103643
21 *378:11 *547:25 0.0170102
22 *445:23 *547:13 0.00495845
23 *447:17 *547:25 0
24 *455:25 *547:13 4.10068e-05
25 *461:11 *547:25 0.201596
26 *461:21 *547:23 0.00115675
27 *462:21 *547:23 0.000935766
28 *465:23 *547:13 0.0857213
29 *472:11 *547:23 0.000965506
30 *481:15 *547:13 0.145468
*RES
1 *921:gpio_inp_dis[26] *547:11 21.9425 
2 *547:11 *547:13 1806.87 
3 *547:13 *547:23 10.5545 
4 *547:23 *547:25 2630.18 
5 *547:25 gpio_inp_dis[26] 2.1853 
*END

*D_NET *548 0.835453
*CONN
*P gpio_inp_dis[27] O
*I *921:gpio_inp_dis[27] O *D CF_CARAVEL_SOC
*CAP
1 gpio_inp_dis[27] 0.00106868
2 *921:gpio_inp_dis[27] 0.000817549
3 *548:23 0.0877051
4 *548:21 0.0893689
5 *548:11 0.0341554
6 *548:9 0.0322405
7 *548:11 *550:11 0
8 *548:11 *842:11 0.00908128
9 *548:21 *557:29 0.00110594
10 *548:23 gpio_vtrip_sel[33] 0.000225955
11 *548:23 *693:41 0.00188846
12 *548:23 *811:11 0.01461
13 gpio_analog_en[32] *548:23 7.25022e-05
14 gpio_analog_pol[27] gpio_inp_dis[27] 0.000459696
15 gpio_analog_pol[30] *548:23 0.000225955
16 gpio_analog_sel[29] *548:23 0.000225955
17 gpio_analog_sel[32] *548:23 0.000225963
18 gpio_dm0[32] *548:23 0.000135708
19 gpio_dm2[28] *548:23 0.000138699
20 gpio_dm2[34] *548:23 0.000314334
21 gpio_dm2[37] *548:23 0.000358524
22 gpio_holdover[27] *548:23 0.000138699
23 gpio_ib_mode_sel[35] *548:23 0.000314334
24 *165:15 *548:11 0.0072678
25 *256:15 *548:11 0.0113808
26 *292:15 *548:11 4.92064e-05
27 *293:25 *548:21 0.000779201
28 *295:15 *548:11 0.00164506
29 *299:23 *548:11 0.00473269
30 *325:71 *548:11 0.0603843
31 *338:19 *548:11 0.017284
32 *381:11 *548:23 0.00472923
33 *381:15 *548:23 0.01202
34 *428:21 *548:11 0.000336076
35 *431:15 *548:11 0.0208673
36 *447:17 *548:23 0
37 *452:15 *548:11 0.00329944
38 *456:31 *548:11 8.0611e-05
39 *460:23 *548:11 0.0447692
40 *462:11 *548:23 0.186811
41 *466:15 *548:21 0.00228934
42 *468:27 *548:11 6.69773e-05
43 *468:29 *548:11 0.005649
44 *469:15 *548:21 0.00103146
45 *479:15 *548:11 0.00795685
46 *484:15 *548:11 0.167145
*RES
1 *921:gpio_inp_dis[27] *548:9 11.9075 
2 *548:9 *548:11 1805.49 
3 *548:11 *548:21 13.1107 
4 *548:21 *548:23 2459.32 
5 *548:23 gpio_inp_dis[27] 2.8313 
*END

*D_NET *549 0.963182
*CONN
*P gpio_inp_dis[28] O
*I *921:gpio_inp_dis[28] O *D CF_CARAVEL_SOC
*CAP
1 gpio_inp_dis[28] 0.00231614
2 *921:gpio_inp_dis[28] 0.00254878
3 *549:25 0.0493516
4 *549:23 0.0486754
5 *549:13 0.0286984
6 *549:11 0.0296073
7 *549:13 gpio_out[40] 0.000368732
8 *549:13 gpio_out[42] 0.00285616
9 *549:13 *692:27 0.00743573
10 *549:13 *693:193 0.0085601
11 *549:13 *697:115 0.00141998
12 *549:13 *698:27 0.00162243
13 *549:13 *824:23 0.0100106
14 *549:13 *848:11 0.0135641
15 *549:13 *865:11 0.00570077
16 *549:13 *867:11 0.187686
17 *549:23 *848:23 0
18 gpio_analog_pol[28] gpio_inp_dis[28] 0
19 gpio_dm0[43] *549:13 0.000460926
20 gpio_dm1[39] *549:13 0.00421057
21 *207:31 *549:13 0.148473
22 *238:27 *549:25 0.199314
23 *251:25 *549:23 0.000289572
24 *252:15 *549:13 0.00829347
25 *284:39 *549:13 0.0207465
26 *284:49 *549:23 0.00372906
27 *385:15 *549:13 0.00124459
28 *387:21 *549:13 0.00200739
29 *387:21 *549:23 1.05516e-05
30 *402:11 *549:25 0
31 *464:11 *549:25 0.17398
32 *546:23 *549:23 0
*RES
1 *921:gpio_inp_dis[28] *549:11 36.9875 
2 *549:11 *549:13 1837.92 
3 *549:13 *549:23 9.74563 
4 *549:23 *549:25 2322.14 
5 *549:25 gpio_inp_dis[28] 4.92637 
*END

*D_NET *550 0.774115
*CONN
*P gpio_inp_dis[29] O
*I *921:gpio_inp_dis[29] O *D CF_CARAVEL_SOC
*CAP
1 gpio_inp_dis[29] 0.00274815
2 *921:gpio_inp_dis[29] 0.000606001
3 *550:23 0.0399928
4 *550:21 0.041247
5 *550:11 0.0458001
6 *550:9 0.0424037
7 gpio_inp_dis[29] *812:11 0.00326581
8 *550:11 *737:127 0.000110612
9 *550:11 *815:47 0.00244485
10 *550:11 *815:49 0.0332424
11 *550:11 *839:197 0.00256332
12 *550:11 *839:209 0.000729571
13 *550:11 *839:217 0.00323189
14 *550:11 *840:11 0.00941362
15 *550:11 *846:13 0.101489
16 *550:11 *858:11 0.00600917
17 *550:21 *557:29 0.000352934
18 *550:21 *771:25 0
19 *550:21 *846:39 0.000291855
20 *550:23 *812:11 0.0134629
21 gpio_analog_pol[29] gpio_inp_dis[29] 0
22 gpio_dm0[29] gpio_inp_dis[29] 0
23 *154:13 gpio_inp_dis[29] 0
24 *289:35 *550:23 0.157291
25 *292:15 *550:11 0.000349344
26 *325:157 *550:21 0
27 *386:45 *550:21 0
28 *430:23 *550:11 0.0815362
29 *451:25 *550:11 0.00015046
30 *457:21 *550:21 0.00128372
31 *458:21 *550:21 0.00127138
32 *460:11 gpio_inp_dis[29] 0.00183843
33 *460:11 *550:23 0.180989
34 *548:11 *550:11 0
*RES
1 *921:gpio_inp_dis[29] *550:9 9.3575 
2 *550:9 *550:11 1844.82 
3 *550:11 *550:21 15.9664 
4 *550:21 *550:23 2091.58 
5 *550:23 gpio_inp_dis[29] 42.3799 
*END

*D_NET *551 0.376398
*CONN
*P gpio_inp_dis[2] O
*I *921:gpio_inp_dis[2] O *D CF_CARAVEL_SOC
*CAP
1 gpio_inp_dis[2] 0.00413306
2 *921:gpio_inp_dis[2] 0.0024719
3 *551:125 0.0125163
4 *551:123 0.0083832
5 *551:121 0.0126693
6 *551:119 0.0127662
7 *551:111 0.00115375
8 *551:109 0.0019822
9 *551:95 0.00206052
10 *551:93 0.0020773
11 *551:79 0.00196246
12 *551:77 0.00263181
13 *551:61 0.00296866
14 *551:49 0.00456225
15 *551:41 0.00383915
16 *551:33 0.00416176
17 *551:25 0.00599952
18 *551:25 *562:25 0.00417878
19 *551:33 *562:33 3.88971e-05
20 *551:33 *696:163 0
21 *551:41 *562:41 3.82741e-05
22 *551:41 *696:147 0.00161452
23 *551:49 *562:49 0.0101016
24 *551:49 *826:61 0.00159119
25 *551:61 *826:63 0.00355688
26 *551:77 *562:57 0.0016085
27 *551:77 *696:125 1.03323e-05
28 *551:79 *562:89 0.000109733
29 *551:79 *696:103 0.0026885
30 *551:93 *562:89 5.05716e-06
31 *551:93 *740:141 8.41015e-06
32 *551:95 *740:123 0.000816451
33 *551:109 *562:107 0.00653762
34 *551:109 *826:117 3.98779e-05
35 *551:111 *562:109 0.00849644
36 *551:121 *696:71 0.00223932
37 *551:121 *696:93 0.000650849
38 *551:121 *741:120 0
39 gpio_analog_en[2] gpio_inp_dis[2] 0.00304037
40 gpio_analog_pol[2] gpio_inp_dis[2] 0.001627
41 gpio_analog_sel[43] *551:121 0.00307895
42 gpio_dm0[2] gpio_inp_dis[2] 0.00359648
43 *118:133 *551:25 0.00180861
44 *118:145 *551:25 0.000947908
45 *223:17 gpio_inp_dis[2] 0.000485938
46 *245:11 *551:125 0.000929985
47 *250:21 *551:125 0.00214807
48 *279:11 *551:125 0.00228889
49 *280:11 *551:125 0.0077527
50 *281:11 gpio_inp_dis[2] 0.000196871
51 *305:11 gpio_inp_dis[2] 0
52 *316:11 *551:125 0.00143432
53 *321:9 gpio_inp_dis[2] 0.0010829
54 *322:19 *551:125 0.0180245
55 *322:61 *551:121 0.0060533
56 *322:113 *551:95 0.00137364
57 *338:69 *551:25 0.00152911
58 *339:11 *551:125 0.00835712
59 *386:139 *551:41 0.00163121
60 *386:157 *551:77 0.000827714
61 *397:93 *551:49 8.67074e-05
62 *397:133 *551:79 0.000992226
63 *397:133 *551:93 0.00729959
64 *397:149 *551:109 0.00620145
65 *397:173 *551:121 0.00492039
66 *408:61 *551:93 0.00726579
67 *408:77 *551:109 1.35034e-05
68 *419:63 *551:25 0.0011099
69 *419:77 *551:25 2.40201e-05
70 *419:77 *551:33 0.0110208
71 *419:85 *551:41 0.00427296
72 *419:117 *551:77 0.000357624
73 *419:133 *551:93 2.02872e-05
74 *419:137 *551:95 0.00446588
75 *419:157 *551:95 0.00202767
76 *419:157 *551:109 0.000210744
77 *419:159 *551:111 1.91597e-05
78 *419:175 *551:119 5.23362e-05
79 *419:175 *551:121 1.41896e-05
80 *419:177 *551:121 0.00241544
81 *419:193 *551:121 0.00256888
82 *441:11 *551:125 0.0155857
83 *530:25 *551:41 7.95017e-05
84 *530:25 *551:49 8.82606e-05
85 *530:41 *551:77 0.00852289
86 *530:43 *551:79 0.00653267
87 *530:43 *551:93 0.000774382
88 *530:53 *551:93 0.00076053
89 *530:55 *551:95 2.30998e-05
90 *530:77 *551:111 1.19928e-05
91 *530:91 *551:119 1.31646e-05
92 *530:91 *551:121 2.02787e-05
93 *530:93 *551:121 0.000441675
94 *530:107 *551:121 0.00363062
95 *531:14 *551:49 0
96 *532:14 *551:49 0
97 *533:36 *551:49 0
98 *533:36 *551:61 0.0007835
99 *533:70 *551:95 0.00657866
100 *533:110 *551:121 0.00315292
101 *535:33 *551:77 0.00855039
102 *535:33 *551:79 0.000828078
103 *535:65 *551:79 1.34594e-05
104 *535:65 *551:93 0.00194872
105 *535:93 *551:109 0.00166066
106 *535:95 *551:111 0.00857126
107 *535:111 *551:119 7.27144e-05
108 *535:111 *551:121 0.00540995
109 *535:113 *551:121 0.000239554
110 *535:117 *551:121 0.00333136
111 *537:48 *551:121 0.000259704
112 *537:56 *551:121 0
113 *537:58 *551:121 0.00222391
114 *537:80 *551:121 0.000515838
115 *538:61 *551:121 0.00140906
116 *539:31 *551:61 0
117 *539:35 *551:41 3.96653e-05
118 *539:35 *551:49 0.00194205
119 *540:24 *551:25 0.00170975
120 *540:24 *551:33 0.00127121
121 *540:24 *551:49 0.00112698
122 *540:24 *551:77 0.000809568
123 *540:38 *551:125 0.0332189
*RES
1 *921:gpio_inp_dis[2] *551:25 40.4495 
2 *551:25 *551:33 19.9304 
3 *551:33 *551:41 42.5875 
4 *551:41 *551:49 18.9035 
5 *551:49 *551:61 40 
6 *551:61 *551:77 33.8519 
7 *551:77 *551:79 59.1 
8 *551:79 *551:93 16.1658 
9 *551:93 *551:95 71.865 
10 *551:95 *551:109 15.117 
11 *551:109 *551:111 77.385 
12 *551:111 *551:119 4.2925 
13 *551:119 *551:121 50.3221 
14 *551:121 *551:123 0.5 
15 *551:123 *551:125 535.095 
16 *551:125 gpio_inp_dis[2] 18.3688 
*END

*D_NET *552 0.928716
*CONN
*P gpio_inp_dis[30] O
*I *921:gpio_inp_dis[30] O *D CF_CARAVEL_SOC
*CAP
1 gpio_inp_dis[30] 0.00404649
2 *921:gpio_inp_dis[30] 0.00207786
3 *552:25 0.0503096
4 *552:23 0.0471708
5 *552:13 0.0271193
6 *552:11 0.0282895
7 *552:13 *564:13 0.000221199
8 *552:13 *565:13 0.00886712
9 *552:13 *784:13 0.0305691
10 *552:23 *785:25 5.05716e-06
11 *552:23 *862:21 0.000460073
12 *552:25 *735:23 0.00443641
13 *552:25 *737:81 0.0243689
14 *552:25 *760:11 0
15 *552:25 *815:11 0.000302437
16 *552:25 *848:23 0.00110267
17 gpio_analog_pol[30] gpio_inp_dis[30] 0.000300661
18 *112:31 gpio_inp_dis[30] 0
19 *156:15 gpio_inp_dis[30] 0.00503482
20 *247:19 *552:25 0
21 *248:19 *552:13 0.202361
22 *248:33 *552:23 0.00150474
23 *293:27 *552:25 0
24 *301:17 *552:13 0.000131882
25 *325:23 *552:13 0.0108858
26 *345:15 *552:13 0.00153198
27 *363:11 *552:25 0
28 *374:11 *552:25 0.00398165
29 *415:11 *552:25 0.139801
30 *419:13 *552:25 0.00640058
31 *421:11 *552:25 0.0217347
32 *428:21 *552:23 1.00941e-05
33 *436:17 *552:25 0.00280849
34 *453:49 *552:23 0.000109729
35 *467:11 *552:25 0.107145
36 *477:11 *552:13 0.00626975
37 *546:13 *552:13 0.189158
38 *546:23 *552:23 0.000199131
*RES
1 *921:gpio_inp_dis[30] *552:11 30.6125 
2 *552:11 *552:13 1864.83 
3 *552:13 *552:23 6.70823 
4 *552:23 *552:25 1993.69 
5 *552:25 gpio_inp_dis[30] 10.8468 
*END

*D_NET *553 0.77443
*CONN
*P gpio_inp_dis[31] O
*I *921:gpio_inp_dis[31] O *D CF_CARAVEL_SOC
*CAP
1 gpio_inp_dis[31] 9.09635e-05
2 *921:gpio_inp_dis[31] 0.00169413
3 *553:25 0.0727067
4 *553:23 0.0768505
5 *553:13 0.0319117
6 *553:11 0.0293711
7 *553:13 *570:22 0.00887016
8 *553:13 *749:27 0
9 *553:13 *841:11 0.0480315
10 *553:23 *825:21 1.92979e-05
11 *553:25 gpio_slow_sel[33] 0.00056237
12 gpio_analog_pol[31] gpio_inp_dis[31] 0.000132389
13 gpio_dm0[31] *553:25 0.00162158
14 gpio_dm0[34] *553:25 0.000355722
15 gpio_dm1[32] *553:25 0.00285523
16 *117:43 *553:25 0.0375109
17 *207:39 *553:13 1.42598e-05
18 *289:33 *553:23 0.000292459
19 *353:29 *553:23 0.00171594
20 *435:23 *553:13 0.205
21 *459:13 *553:25 0.0654298
22 *462:21 *553:23 0
23 *465:21 *553:23 0.00535366
24 *544:13 *553:13 0.184039
*RES
1 *921:gpio_inp_dis[31] *553:11 25.5125 
2 *553:11 *553:13 1892.43 
3 *553:13 *553:23 16.0892 
4 *553:23 *553:25 1827.78 
5 *553:25 gpio_inp_dis[31] 0.7622 
*END

*D_NET *554 0.779113
*CONN
*P gpio_inp_dis[32] O
*I *921:gpio_inp_dis[32] O *D CF_CARAVEL_SOC
*CAP
1 gpio_inp_dis[32] 0.00155737
2 *921:gpio_inp_dis[32] 0.0010374
3 *554:25 0.0276893
4 *554:23 0.0286238
5 *554:13 0.0320509
6 *554:11 0.0305964
7 *554:13 *559:19 0.207179
8 *554:13 *825:21 4.41506e-05
9 *554:13 *829:29 2.04328e-05
10 *554:13 *852:19 0.0107049
11 *554:13 *857:21 2.88598e-05
12 *554:23 *559:29 0.000377893
13 *554:25 *811:11 0.0596119
14 *554:25 *873:57 0.00130729
15 *164:35 *554:13 0.00649268
16 *249:25 *554:23 0.000877024
17 *250:35 *554:23 0
18 *253:15 *554:13 0.0260255
19 *325:159 *554:25 0.110076
20 *338:71 *554:13 0.0111557
21 *386:207 *554:13 0.00105905
22 *387:11 *554:23 4.1178e-05
23 *390:21 *554:23 0.00125675
24 *410:11 *554:25 0
25 *459:23 *554:23 0
26 *462:11 *554:25 0.0318901
27 *545:11 *554:13 0.18941
*RES
1 *921:gpio_inp_dis[32] *554:11 16.3325 
2 *554:11 *554:13 1942.8 
3 *554:13 *554:23 10.6998 
4 *554:23 *554:25 1336.81 
5 *554:25 gpio_inp_dis[32] 3.2797 
*END

*D_NET *555 0.769327
*CONN
*P gpio_inp_dis[33] O
*I *921:gpio_inp_dis[33] O *D CF_CARAVEL_SOC
*CAP
1 gpio_inp_dis[33] 0.00636389
2 *921:gpio_inp_dis[33] 0.00139987
3 *555:17 0.0239933
4 *555:15 0.0176294
5 *555:13 0.0302368
6 *555:11 0.0316366
7 *555:13 *558:13 0.014492
8 *555:13 *828:15 0.0260151
9 *555:13 *837:11 0.00518139
10 *555:17 *556:43 0.0894418
11 *555:17 *755:11 0.0320718
12 *555:17 *809:11 0.0042892
13 *555:17 *827:11 0.0647893
14 *555:17 *857:21 0.000495711
15 gpio_analog_pol[33] gpio_inp_dis[33] 0
16 *292:27 *555:17 0.0139389
17 *297:14 *555:13 0.0153958
18 *353:19 *555:17 0
19 *357:17 *555:17 0.000781842
20 *361:17 *555:17 0.00103959
21 *364:39 *555:13 0.000248274
22 *370:11 *555:17 0.00739973
23 *416:11 *555:17 0.00192175
24 *438:19 *555:17 0.00528793
25 *445:23 *555:13 0.1728
26 *458:11 *555:17 0
27 *483:23 *555:13 0.186303
28 *547:13 *555:13 0.0161736
*RES
1 *921:gpio_inp_dis[33] *555:11 21.1775 
2 *555:11 *555:13 1954.19 
3 *555:13 *555:15 2 
4 *555:15 *555:17 1181.65 
5 *555:17 gpio_inp_dis[33] 11.8196 
*END

*D_NET *556 0.60628
*CONN
*P gpio_inp_dis[34] O
*I *921:gpio_inp_dis[34] O *D CF_CARAVEL_SOC
*CAP
1 gpio_inp_dis[34] 0.00571081
2 *921:gpio_inp_dis[34] 0.000200001
3 *556:52 6.61132e-06
4 *556:43 0.0326114
5 *556:41 0.0300156
6 *556:37 0.00911834
7 *556:11 0.0575483
8 *556:9 0.0517383
9 *556:11 *557:11 0.0163268
10 *556:11 *567:14 0.000426537
11 *556:11 *568:11 0.0204014
12 *556:11 *570:14 0.00585226
13 *556:11 *840:19 0.0102984
14 *556:37 *693:117 2.23611e-05
15 *556:37 *737:147 7.60474e-05
16 *556:37 *739:80 2.4393e-05
17 *556:37 *826:29 0.00254898
18 *556:37 *840:19 0.0048393
19 *556:41 *826:29 0.00456009
20 *556:43 *809:11 0.0334684
21 gpio_analog_pol[34] *556:52 0
22 gpio_analog_sel[34] gpio_inp_dis[34] 6.75356e-05
23 *921:gpio_in[10] *556:37 0.0012514
24 *921:gpio_in[41] *556:11 0.00162262
25 *292:27 *556:43 0.00738578
26 *293:15 *556:11 0
27 *322:235 *556:37 0.000683279
28 *325:145 *556:37 0
29 *325:157 *556:41 0.014519
30 *386:45 *556:41 0.0188294
31 *396:9 gpio_inp_dis[34] 0.00364461
32 *397:33 *556:37 0.00211949
33 *397:33 *556:41 6.36083e-05
34 *397:53 *556:37 3.56151e-05
35 *397:79 *556:11 0.0998274
36 *416:11 *556:43 0.012039
37 *419:21 *556:37 0.000198039
38 *419:21 *556:41 0.00269645
39 *419:23 *556:11 0.0291008
40 *419:23 *556:37 0.00130927
41 *444:55 *556:11 0
42 *444:71 *556:11 0.000334568
43 *458:11 *556:43 0
44 *529:9 *556:11 0.0212715
45 *531:16 *556:11 0.0024191
46 *536:25 *556:11 0.00111489
47 *537:14 *556:11 0.0067068
48 *538:25 *556:11 0.00151789
49 *538:33 *556:11 0.00208013
50 *539:151 *556:37 5.69898e-06
51 *541:27 *556:11 0
52 *541:105 *556:37 0.000199699
53 *555:17 *556:43 0.0894418
*RES
1 *921:gpio_inp_dis[34] *556:9 4.0025 
2 *556:9 *556:11 1675.08 
3 *556:11 *556:37 44.3806 
4 *556:37 *556:41 28.9139 
5 *556:41 *556:43 995.625 
6 *556:43 gpio_inp_dis[34] 12.4067 
7 gpio_inp_dis[34] *556:52 0.0556098 
*END

*D_NET *557 0.539378
*CONN
*P gpio_inp_dis[35] O
*I *921:gpio_inp_dis[35] O *D CF_CARAVEL_SOC
*CAP
1 gpio_inp_dis[35] 0.000606228
2 *921:gpio_inp_dis[35] 0.000185253
3 *557:31 0.0347738
4 *557:29 0.0390009
5 *557:19 0.0395948
6 *557:17 0.0349673
7 *557:11 0.00484772
8 *557:9 0.00482722
9 *557:11 *559:11 0.000314678
10 *557:11 *560:11 0.00119742
11 *557:11 *568:11 0.0300488
12 *557:19 *866:17 0.000424651
13 *557:29 *793:25 0.00183022
14 *557:29 *851:15 3.36395e-05
15 *293:15 *557:11 0
16 *293:15 *557:19 0.000864729
17 *293:25 *557:29 0.000365515
18 *341:18 *557:19 0.0208889
19 *408:21 *557:29 0.00175864
20 *428:11 *557:29 0.000118481
21 *441:15 *557:19 0.00392967
22 *441:19 *557:19 0.00346271
23 *442:15 *557:19 0.0913159
24 *443:31 *557:19 0.0366851
25 *457:21 *557:29 0.000775065
26 *458:23 *557:19 0.0698504
27 *463:15 *557:19 0.00231289
28 *466:11 *557:31 0.0415184
29 *467:15 *557:19 0.0154768
30 *467:15 *557:29 0.000359933
31 *471:27 *557:19 0.00621919
32 *529:9 *557:11 0.00581623
33 *534:11 *557:19 0.0270659
34 *545:9 *557:17 0.000155661
35 *547:25 *557:31 0
36 *548:21 *557:29 0.00110594
37 *550:21 *557:29 0.000352934
38 *556:11 *557:11 0.0163268
*RES
1 *921:gpio_inp_dis[35] *557:9 3.4925 
2 *557:9 *557:11 271.62 
3 *557:11 *557:17 7.675 
4 *557:17 *557:19 1713.38 
5 *557:19 *557:29 17.772 
6 *557:29 *557:31 843.135 
7 *557:31 gpio_inp_dis[35] 1.71157 
*END

*D_NET *558 0.684952
*CONN
*P gpio_inp_dis[36] O
*I *921:gpio_inp_dis[36] O *D CF_CARAVEL_SOC
*CAP
1 gpio_inp_dis[36] 0.00602383
2 *921:gpio_inp_dis[36] 0.00135452
3 *558:25 0.0172864
4 *558:23 0.0115303
5 *558:13 0.0298441
6 *558:11 0.0309309
7 gpio_inp_dis[36] gpio_vtrip_sel[35] 0
8 gpio_inp_dis[36] *820:9 0.00167746
9 gpio_inp_dis[36] *832:17 0
10 *558:13 *827:19 0.0217731
11 *558:13 *828:15 0.00457766
12 *558:23 *825:21 4.09093e-05
13 *558:25 *824:11 0.00511504
14 *558:25 *824:21 0.00198024
15 *558:25 *855:23 0.0213277
16 *558:25 *859:23 1.20478e-05
17 *558:25 *861:27 0.00138295
18 gpio_analog_pol[36] gpio_inp_dis[36] 0
19 gpio_dm0[36] gpio_inp_dis[36] 0
20 *294:25 *558:23 0.000844169
21 *297:14 *558:13 0.0206268
22 *364:37 *558:25 0.000853073
23 *364:39 *558:13 0.0129204
24 *413:11 *558:25 0.0143081
25 *418:11 *558:25 0.00345512
26 *468:11 *558:25 0.0613769
27 *472:11 *558:23 0.000844169
28 *482:15 *558:13 0.197064
29 *483:23 *558:13 0.194402
30 *543:23 *558:25 0.00890839
31 *555:13 *558:13 0.014492
*RES
1 *921:gpio_inp_dis[36] *558:11 20.6675 
2 *558:11 *558:13 2016.29 
3 *558:13 *558:23 5.31737 
4 *558:23 *558:25 694.215 
5 *558:25 gpio_inp_dis[36] 12.8886 
*END

*D_NET *559 0.640963
*CONN
*P gpio_inp_dis[37] O
*I *921:gpio_inp_dis[37] O *D CF_CARAVEL_SOC
*CAP
1 gpio_inp_dis[37] 0.000299596
2 *921:gpio_inp_dis[37] 0.000196358
3 *559:38 0
4 *559:31 0.0201759
5 *559:29 0.0243869
6 *559:19 0.0344141
7 *559:17 0.0303212
8 *559:11 0.00271106
9 *559:9 0.00248964
10 *559:11 *560:11 0.0067064
11 *559:17 *697:113 0.00105085
12 *559:17 *740:85 0.00104949
13 *559:19 *847:16 0.00358942
14 *559:29 *852:25 0.000663782
15 *559:29 *860:15 0.000100225
16 gpio_analog_pol[37] gpio_inp_dis[37] 6.60751e-05
17 *209:15 *559:19 0.0247674
18 *238:25 *559:29 0.00223864
19 *249:25 *559:29 0.00510976
20 *293:15 *559:11 0
21 *294:15 *559:19 0.198264
22 *338:71 *559:19 0.0178467
23 *339:23 *559:29 0.000359989
24 *386:207 *559:19 0.00368268
25 *429:19 *559:29 0.00123446
26 *459:13 *559:31 0
27 *461:21 *559:29 0.00214597
28 *466:11 *559:31 0.0454202
29 *474:15 *559:19 0.00209878
30 *529:9 *559:11 0.00169629
31 *542:15 *559:29 0
32 *547:23 *559:29 5.9286e-06
33 *554:13 *559:19 0.207179
34 *554:23 *559:29 0.000377893
35 *557:11 *559:11 0.000314678
*RES
1 *921:gpio_inp_dis[37] *559:9 4.0025 
2 *559:9 *559:11 65.31 
3 *559:11 *559:17 17.11 
4 *559:17 *559:19 1964.19 
5 *559:19 *559:29 18.5658 
6 *559:29 *559:31 531.015 
7 *559:31 gpio_inp_dis[37] 1.1308 
8 gpio_inp_dis[37] *559:38 0.04 
*END

*D_NET *560 0.396226
*CONN
*P gpio_inp_dis[38] O
*I *921:gpio_inp_dis[38] O *D CF_CARAVEL_SOC
*CAP
1 gpio_inp_dis[38] 0.000486852
2 *921:gpio_inp_dis[38] 0.000137841
3 *560:27 0.028889
4 *560:25 0.0286003
5 *560:19 0.00772175
6 *560:17 0.00961925
7 *560:11 0.00397897
8 *560:9 0.00202116
9 *560:9 *741:124 0
10 *560:11 *561:16 0.000180378
11 *560:11 *568:11 0.00497724
12 *560:27 *785:27 0.0255263
13 *560:27 *786:23 0.0234886
14 *560:27 *829:35 0.00673307
15 *560:27 *859:11 0.0189553
16 gpio_analog_pol[38] gpio_inp_dis[38] 0
17 gpio_analog_sel[42] *560:25 0.000306077
18 gpio_holdover[42] *560:25 0
19 gpio_ib_mode_sel[42] *560:27 0.000202805
20 *252:15 *560:27 0.0496212
21 *284:15 *560:19 0.0255864
22 *293:15 *560:11 0
23 *300:19 *560:19 0.0132315
24 *300:29 *560:27 0.025214
25 *301:17 *560:19 0.0106472
26 *335:25 *560:19 0.000457069
27 *345:15 *560:19 0.0283939
28 *433:10 *560:27 0.0591858
29 *478:9 *560:27 0.00045217
30 *529:9 *560:11 0.00146254
31 *546:13 *560:19 0.0122457
32 *557:11 *560:11 0.00119742
33 *559:11 *560:11 0.0067064
*RES
1 *921:gpio_inp_dis[38] *560:9 3.4025 
2 *560:9 *560:11 85.665 
3 *560:11 *560:17 32.665 
4 *560:17 *560:19 452.745 
5 *560:19 *560:25 6.3025 
6 *560:25 *560:27 174.605 
7 *560:27 gpio_inp_dis[38] 6.9575 
*END

*D_NET *561 0.370191
*CONN
*P gpio_inp_dis[39] O
*I *921:gpio_inp_dis[39] O *D CF_CARAVEL_SOC
*CAP
1 gpio_inp_dis[39] 0.000606456
2 *921:gpio_inp_dis[39] 0.00319184
3 *561:18 0.0243755
4 *561:16 0.0269609
5 *561:16 *567:14 0.00107541
6 *561:16 *568:11 0.000816909
7 *561:16 *740:81 0.00533131
8 *561:18 *563:14 0.104233
9 *561:18 *566:13 0.0356692
10 *561:18 *783:15 0.0206218
11 *561:18 *804:23 0.026194
12 *561:18 *844:13 0.00015452
13 gpio_analog_pol[39] gpio_inp_dis[39] 0
14 gpio_analog_sel[43] *561:16 0.00158628
15 gpio_dm2[42] *561:18 0.000662832
16 *250:23 *561:18 0.0286791
17 *300:19 *561:18 0.00401694
18 *335:25 *561:18 0.00254117
19 *433:10 *561:18 0.0120849
20 *477:11 *561:18 0.00081251
21 *478:9 *561:18 0.0666656
22 *529:9 *561:16 0.00373107
23 *560:11 *561:16 0.000180378
*RES
1 *921:gpio_inp_dis[39] *561:16 40.1981 
2 *561:16 *561:18 192.784 
3 *561:18 gpio_inp_dis[39] 8.8475 
*END

*D_NET *562 0.408042
*CONN
*P gpio_inp_dis[3] O
*I *921:gpio_inp_dis[3] O *D CF_CARAVEL_SOC
*CAP
1 gpio_inp_dis[3] 0.00501013
2 *921:gpio_inp_dis[3] 0.00193901
3 *562:123 0.0165733
4 *562:121 0.0115632
5 *562:119 0.00636311
6 *562:117 0.00667129
7 *562:109 0.00136324
8 *562:107 0.00196222
9 *562:91 0.00198731
10 *562:89 0.00282764
11 *562:73 0.00312649
12 *562:65 0.00277584
13 *562:57 0.0026096
14 *562:49 0.00270492
15 *562:41 0.00301861
16 *562:33 0.0028429
17 *562:25 0.00325545
18 *562:25 *826:47 0.000269827
19 *562:33 *696:163 0
20 *562:57 *696:125 1.19928e-05
21 *562:57 *696:145 3.60648e-06
22 *562:65 *696:125 0.00102332
23 *562:65 *826:77 0.00860598
24 *562:73 *826:79 0.00398168
25 *562:89 *696:103 0.000293619
26 *562:89 *740:145 0.00151149
27 *562:89 *741:160 0.00389825
28 *562:91 *741:160 0.000954851
29 *562:107 *826:117 0.00647262
30 *562:117 *696:93 0
31 *562:119 *572:26 9.99369e-05
32 *562:119 *696:93 0.000132257
33 *562:123 *727:15 0.0135669
34 gpio_analog_en[3] gpio_inp_dis[3] 0
35 gpio_analog_pol[3] gpio_inp_dis[3] 0.00159798
36 gpio_analog_sel[43] *562:119 0.00300343
37 gpio_dm0[3] gpio_inp_dis[3] 0
38 *90:11 *562:123 0.000469668
39 *98:9 gpio_inp_dis[3] 0.000208514
40 *118:33 *562:119 0.00937675
41 *118:115 *562:41 0
42 *118:133 *562:25 0.000264523
43 *118:145 *562:25 0.00145638
44 *144:11 *562:123 0.00176265
45 *223:11 *562:123 0.00519747
46 *247:11 *562:123 0.00151795
47 *308:11 *562:123 0.000222998
48 *336:41 *562:65 7.20493e-06
49 *336:41 *562:73 0.000196391
50 *338:33 *562:73 0.00019569
51 *386:137 *562:25 4.81484e-06
52 *386:137 *562:33 0.0110066
53 *386:157 *562:57 0.000506774
54 *397:109 *562:65 2.60003e-05
55 *397:133 *562:89 0.00731863
56 *397:149 *562:107 2.27756e-05
57 *397:171 *562:117 7.18452e-06
58 *408:61 *562:89 1.74488e-05
59 *408:63 *562:91 1.91597e-05
60 *408:95 *562:117 3.68278e-05
61 *408:97 *562:119 0.0359315
62 *419:77 *562:25 4.14953e-05
63 *419:77 *562:33 0.0110778
64 *419:85 *562:41 0.00236429
65 *419:93 *562:49 0.0101969
66 *419:117 *562:65 3.82072e-05
67 *419:133 *562:89 6.12355e-05
68 *419:137 *562:91 0.00264963
69 *419:157 *562:91 0.00338451
70 *419:157 *562:107 1.88904e-05
71 *419:159 *562:109 0.00853641
72 *419:175 *562:117 8.38931e-05
73 *430:27 *562:123 0.0602524
74 *444:53 *562:89 0
75 *445:19 *562:123 0.0290518
76 *529:9 *562:119 0
77 *530:25 *562:41 0
78 *530:25 *562:49 1.7635e-05
79 *530:29 *562:57 0.00512568
80 *530:41 *562:57 2.82887e-05
81 *530:55 *562:91 0.00776353
82 *530:75 *562:107 0.000110953
83 *530:77 *562:109 2.0514e-05
84 *532:14 *562:49 0
85 *533:52 *562:65 1.95781e-05
86 *533:68 *562:89 3.1847e-05
87 *533:92 *562:107 7.22242e-05
88 *533:94 *562:109 1.19928e-05
89 *535:33 *562:65 0.00862665
90 *535:33 *562:73 0.000524238
91 *535:65 *562:89 0.00378395
92 *535:65 *562:91 0.000297598
93 *535:93 *562:107 0.00188071
94 *535:95 *562:109 2.0514e-05
95 *536:33 *562:89 0
96 *536:63 *562:117 3.02513e-05
97 *536:63 *562:119 0.0175348
98 *537:32 *562:107 0.00106802
99 *539:35 *562:41 0.000391354
100 *540:24 *562:25 0.000912905
101 *540:24 *562:33 0.00126664
102 *540:24 *562:49 0.00101939
103 *540:24 *562:65 0.000814146
104 *551:25 *562:25 0.00417878
105 *551:33 *562:33 3.88971e-05
106 *551:41 *562:41 3.82741e-05
107 *551:49 *562:49 0.0101016
108 *551:77 *562:57 0.0016085
109 *551:79 *562:89 0.000109733
110 *551:93 *562:89 5.05716e-06
111 *551:109 *562:107 0.00653762
112 *551:111 *562:109 0.00849644
*RES
1 *921:gpio_inp_dis[3] *562:25 36.0362 
2 *562:25 *562:33 19.6754 
3 *562:33 *562:41 42.0775 
4 *562:41 *562:49 18.0583 
5 *562:49 *562:57 49.6675 
6 *562:57 *562:65 16.2959 
7 *562:65 *562:73 42.385 
8 *562:73 *562:89 40.7456 
9 *562:89 *562:91 70.485 
10 *562:91 *562:107 17.2355 
11 *562:107 *562:109 77.385 
12 *562:109 *562:117 6.5125 
13 *562:117 *562:119 53.1772 
14 *562:119 *562:121 0.5 
15 *562:121 *562:123 709.005 
16 *562:123 gpio_inp_dis[3] 10.8278 
*END

*D_NET *563 0.305839
*CONN
*P gpio_inp_dis[40] O
*I *921:gpio_inp_dis[40] O *D CF_CARAVEL_SOC
*CAP
1 gpio_inp_dis[40] 0.000514731
2 *921:gpio_inp_dis[40] 0.00255302
3 *563:14 0.0200371
4 *563:12 0.0220754
5 *563:12 *567:14 0.000600658
6 *563:12 *568:11 0.000543577
7 *563:12 *740:81 0.00259952
8 *563:14 *564:13 0.0870009
9 *563:14 *566:13 0.00319589
10 *563:14 *695:67 0.00245228
11 *563:14 *804:23 0.000662187
12 *563:14 *844:13 0.0227916
13 gpio_analog_pol[40] gpio_inp_dis[40] 0.000204119
14 gpio_analog_sel[43] *563:12 0.000724042
15 *250:23 *563:14 0.000606955
16 *335:25 *563:14 0.0165005
17 *476:13 *563:14 0.00961289
18 *477:11 *563:14 0.00740274
19 *529:9 *563:12 0.00152829
20 *561:18 *563:14 0.104233
*RES
1 *921:gpio_inp_dis[40] *563:12 35.4912 
2 *563:12 *563:14 166.914 
3 *563:14 gpio_inp_dis[40] 8.7875 
*END

*D_NET *564 0.239444
*CONN
*P gpio_inp_dis[41] O
*I *921:gpio_inp_dis[41] O *D CF_CARAVEL_SOC
*CAP
1 gpio_inp_dis[41] 0.00070122
2 *921:gpio_inp_dis[41] 0.00216614
3 *564:13 0.0167914
4 *564:11 0.0182564
5 *564:13 *566:13 0.00195537
6 *564:13 *844:13 0.00126144
7 gpio_analog_pol[41] gpio_inp_dis[41] 0
8 *284:15 *564:13 0.0104084
9 *300:19 *564:13 0.00944731
10 *301:17 *564:13 0.070677
11 *477:11 *564:13 0.0199337
12 *541:19 *564:13 0.000324125
13 *546:13 *564:13 0.00029927
14 *552:13 *564:13 0.000221199
15 *563:14 *564:13 0.0870009
*RES
1 *921:gpio_inp_dis[41] *564:11 30.515 
2 *564:11 *564:13 140.053 
3 *564:13 gpio_inp_dis[41] 10.1075 
*END

*D_NET *565 0.193233
*CONN
*P gpio_inp_dis[42] O
*I *921:gpio_inp_dis[42] O *D CF_CARAVEL_SOC
*CAP
1 gpio_inp_dis[42] 0.000579126
2 *921:gpio_inp_dis[42] 0.00208509
3 *565:13 0.0150658
4 *565:11 0.0165718
5 *565:13 *740:87 0.00168711
6 *565:13 *843:11 0.00585934
7 gpio_analog_pol[42] gpio_inp_dis[42] 0.00024287
8 gpio_ib_mode_sel[42] gpio_inp_dis[42] 6.13406e-05
9 *248:19 *565:13 0.00450965
10 *301:17 *565:13 0.0722726
11 *302:21 *565:13 0.0506743
12 *325:23 *565:13 0.00948405
13 *546:13 *565:13 0.00527286
14 *552:13 *565:13 0.00886712
*RES
1 *921:gpio_inp_dis[42] *565:11 29.495 
2 *565:11 *565:13 109.754 
3 *565:13 gpio_inp_dis[42] 10.1075 
*END

*D_NET *566 0.0961379
*CONN
*P gpio_inp_dis[43] O
*I *921:gpio_inp_dis[43] O *D CF_CARAVEL_SOC
*CAP
1 gpio_inp_dis[43] 0.00047146
2 *921:gpio_inp_dis[43] 0.00145702
3 *566:13 0.0168227
4 *566:11 0.0178082
5 *566:11 *837:9 0.000956324
6 *566:11 *866:15 0.00213955
7 *566:13 *804:23 0.00237389
8 gpio_analog_pol[43] gpio_inp_dis[43] 0
9 gpio_analog_sel[43] *566:13 6.00928e-05
10 *250:23 *566:13 0.00218842
11 *252:15 *566:13 0.00952332
12 *301:17 *566:13 0.00151644
13 *561:18 *566:13 0.0356692
14 *563:14 *566:13 0.00319589
15 *564:13 *566:13 0.00195537
*RES
1 *921:gpio_inp_dis[43] *566:11 32.045 
2 *566:11 *566:13 79.2224 
3 *566:13 gpio_inp_dis[43] 7.3325 
*END

*D_NET *567 0.409328
*CONN
*P gpio_inp_dis[4] O
*I *921:gpio_inp_dis[4] O *D CF_CARAVEL_SOC
*CAP
1 gpio_inp_dis[4] 0.00369746
2 *921:gpio_inp_dis[4] 0.000322354
3 *567:18 0.0334549
4 *567:16 0.0297575
5 *567:14 0.0144673
6 *567:12 0.0147897
7 *567:14 *568:11 0.110309
8 *567:14 *572:16 0.095285
9 *567:14 *740:81 0.00389008
10 *567:14 *826:127 0
11 gpio_analog_pol[4] gpio_inp_dis[4] 0.000755519
12 *93:11 *567:18 0.0171957
13 *130:11 *567:18 0.00191397
14 *144:19 *567:18 0.00710395
15 *184:9 gpio_inp_dis[4] 0.00409133
16 *207:19 *567:18 0
17 *223:19 *567:18 0
18 *246:11 *567:18 0
19 *254:11 *567:18 0.00525961
20 *338:69 *567:12 0.00152386
21 *342:11 *567:18 0.00361357
22 *444:37 *567:14 0.00138437
23 *529:9 *567:12 0.000752952
24 *529:9 *567:14 0.00572781
25 *530:113 *567:18 0.0356699
26 *531:14 *567:14 0.00258852
27 *536:33 *567:14 0.00156182
28 *537:12 *567:14 0.00225049
29 *540:24 *567:12 0.000423989
30 *541:27 *567:12 0.000397833
31 *541:27 *567:14 0.00903638
32 *556:11 *567:14 0.000426537
33 *561:16 *567:14 0.00107541
34 *563:12 *567:14 0.000600658
*RES
1 *921:gpio_inp_dis[4] *567:12 5.74683 
2 *567:12 *567:14 1008.2 
3 *567:14 *567:16 2 
4 *567:16 *567:18 883.042 
5 *567:18 gpio_inp_dis[4] 9.6979 
*END

*D_NET *568 0.412964
*CONN
*P gpio_inp_dis[5] O
*I *921:gpio_inp_dis[5] O *D CF_CARAVEL_SOC
*CAP
1 gpio_inp_dis[5] 0.00334012
2 *921:gpio_inp_dis[5] 8.70365e-05
3 *568:15 0.0338531
4 *568:13 0.0305129
5 *568:11 0.0206093
6 *568:9 0.0206963
7 gpio_inp_dis[5] *782:47 8.63324e-05
8 *568:11 *569:16 0.00262123
9 *568:11 *740:81 0.00422257
10 *568:11 *826:127 0
11 gpio_analog_en[5] gpio_inp_dis[5] 0
12 gpio_analog_pol[5] gpio_inp_dis[5] 0.00261849
13 gpio_dm0[5] gpio_inp_dis[5] 4.02448e-06
14 *129:11 *568:15 0.00393045
15 *132:11 *568:15 0.0335448
16 *137:9 gpio_inp_dis[5] 0.000175663
17 *176:11 *568:15 0.000105649
18 *182:17 gpio_inp_dis[5] 0.000168018
19 *260:19 *568:15 0
20 *266:11 *568:15 0.00563162
21 *281:11 gpio_inp_dis[5] 0.000124378
22 *293:15 *568:11 0
23 *312:19 *568:15 0.0139677
24 *375:43 *568:15 0.00146972
25 *419:197 *568:15 0.050467
26 *444:37 *568:11 0.00146583
27 *529:9 *568:11 0.00590133
28 *531:14 *568:11 0.00281484
29 *532:36 *568:15 0.000148153
30 *535:121 *568:15 0
31 *536:25 *568:11 0.000661069
32 *536:33 *568:11 0.00164098
33 *537:12 *568:11 0.00244604
34 *538:25 *568:11 0.00255234
35 *556:11 *568:11 0.0204014
36 *557:11 *568:11 0.0300488
37 *560:11 *568:11 0.00497724
38 *561:16 *568:11 0.000816909
39 *563:12 *568:11 0.000543577
40 *567:14 *568:11 0.110309
*RES
1 *921:gpio_inp_dis[5] *568:9 3.1475 
2 *568:9 *568:11 1007.85 
3 *568:11 *568:13 2 
4 *568:13 *568:15 1049.05 
5 *568:15 gpio_inp_dis[5] 11.6606 
*END

*D_NET *569 0.503064
*CONN
*P gpio_inp_dis[6] O
*I *921:gpio_inp_dis[6] O *D CF_CARAVEL_SOC
*CAP
1 gpio_inp_dis[6] 0.00511295
2 *921:gpio_inp_dis[6] 0.00267628
3 *569:22 0.0230762
4 *569:20 0.0179632
5 *569:18 0.0153194
6 *569:16 0.0179957
7 gpio_inp_dis[6] *782:29 0.00022055
8 *569:16 *570:12 0.00860327
9 *569:16 *572:14 0.000148029
10 *569:18 *696:95 0.0316371
11 *569:18 *696:145 0.00128892
12 *569:18 *740:123 0
13 *569:18 *826:47 0.00581536
14 *569:18 *826:127 0.0303172
15 *569:22 *570:26 0.109349
16 *569:22 *572:28 0.00291102
17 *569:22 *661:19 0.0883695
18 *569:22 *698:23 0.012143
19 gpio_analog_en[6] gpio_inp_dis[6] 0
20 gpio_analog_pol[6] gpio_inp_dis[6] 0.00356533
21 gpio_dm0[6] gpio_inp_dis[6] 0
22 *92:11 *569:22 0.00743137
23 *118:33 *569:18 0.0038138
24 *118:39 *569:18 0.00237431
25 *118:115 *569:18 1.90662e-05
26 *118:133 *569:16 0
27 *219:11 gpio_inp_dis[6] 0
28 *281:11 gpio_inp_dis[6] 4.88425e-05
29 *336:31 *569:18 0.00500807
30 *337:33 gpio_inp_dis[6] 1.19971e-05
31 *338:35 *569:18 0.0239918
32 *386:157 *569:18 0
33 *397:135 *569:18 0
34 *443:19 *569:22 0.00612397
35 *444:37 *569:18 0.000606579
36 *529:9 *569:16 0.00505098
37 *530:25 *569:16 0
38 *532:16 *569:18 0.00183934
39 *532:32 *569:18 0.0426786
40 *533:52 *569:18 0
41 *533:56 *569:18 0
42 *536:35 *569:18 0.0129797
43 *536:63 *569:18 0.0027253
44 *539:11 *569:18 0.00272658
45 *540:24 *569:16 0.00319115
46 *540:34 *569:18 0.00067866
47 *541:27 *569:16 0.00263047
48 *568:11 *569:16 0.00262123
*RES
1 *921:gpio_inp_dis[6] *569:16 24.1887 
2 *569:16 *569:18 861.57 
3 *569:18 *569:20 2 
4 *569:20 *569:22 1217.6 
5 *569:22 gpio_inp_dis[6] 13.7736 
*END

*D_NET *570 0.596851
*CONN
*P gpio_inp_dis[7] O
*I *921:gpio_inp_dis[7] O *D CF_CARAVEL_SOC
*CAP
1 gpio_inp_dis[7] 0.00524317
2 *921:gpio_inp_dis[7] 0.00220181
3 *570:26 0.0466054
4 *570:24 0.0413622
5 *570:22 0.0127335
6 *570:20 0.0144217
7 *570:14 0.00551186
8 *570:12 0.00602547
9 *570:12 *572:14 0.00283916
10 *570:12 *696:163 0.000166744
11 *570:14 *571:17 0.000159087
12 *570:14 *571:19 0.0141034
13 *570:22 *760:31 0.0702759
14 *570:22 *868:11 0.0145118
15 *570:26 *572:26 0.000132036
16 *570:26 *572:28 0.000743799
17 *570:26 *661:19 0.000270319
18 *570:26 *698:23 0.000874353
19 *570:26 *745:21 0.0037463
20 gpio_analog_pol[7] gpio_inp_dis[7] 0.00142713
21 *92:11 *570:26 0.0192469
22 *102:19 *570:26 0
23 *118:133 *570:12 0
24 *140:57 *570:26 0.00141188
25 *293:15 *570:14 7.86045e-05
26 *322:161 *570:14 0.00289549
27 *322:165 *570:14 0.000437555
28 *335:13 *570:26 0.0319636
29 *397:79 *570:14 0.00598043
30 *435:23 *570:22 0.0116325
31 *443:11 *570:26 0.11586
32 *443:19 *570:26 0.0088227
33 *529:9 *570:14 0.000391981
34 *531:16 *570:14 0.00886387
35 *536:25 *570:14 0.00149567
36 *540:24 *570:12 0.00234721
37 *542:11 *570:22 0.00612412
38 *544:13 *570:22 0.00326895
39 *553:13 *570:22 0.00887016
40 *556:11 *570:14 0.00585226
41 *569:16 *570:12 0.00860327
42 *569:22 *570:26 0.109349
*RES
1 *921:gpio_inp_dis[7] *570:12 18.0637 
2 *570:12 *570:14 216.42 
3 *570:14 *570:20 26.545 
4 *570:20 *570:22 646.98 
5 *570:22 *570:24 2 
6 *570:24 *570:26 1907.38 
7 *570:26 gpio_inp_dis[7] 12.0843 
*END

*D_NET *571 0.612442
*CONN
*P gpio_inp_dis[8] O
*I *921:gpio_inp_dis[8] O *D CF_CARAVEL_SOC
*CAP
1 gpio_inp_dis[8] 0.00181003
2 *921:gpio_inp_dis[8] 0.0013481
3 *571:39 0.0415838
4 *571:37 0.0397738
5 *571:35 0.00325043
6 *571:31 0.0171049
7 *571:29 0.0138544
8 *571:27 0.0125435
9 *571:25 0.0135791
10 *571:19 0.00341136
11 *571:17 0.00372388
12 *571:17 *840:19 0.00338063
13 *571:19 *840:19 0.000117568
14 *571:27 *749:27 0.0462924
15 gpio_analog_pol[8] gpio_inp_dis[8] 0.0003881
16 gpio_dm1[0] *571:31 0.0014482
17 gpio_dm2[1] *571:31 0.00149219
18 gpio_holdover[7] *571:39 7.58539e-05
19 *119:15 *571:27 0.000823902
20 *167:19 *571:27 0.017719
21 *206:43 *571:39 0.000863625
22 *208:21 *571:27 0.0761672
23 *220:11 *571:39 0.000385508
24 *261:11 *571:39 0.037539
25 *283:11 *571:39 0
26 *284:11 *571:31 0
27 *289:23 *571:27 0.000313966
28 *293:15 *571:19 0.00543316
29 *309:13 *571:31 0.000662777
30 *314:19 *571:31 0
31 *322:149 *571:25 0
32 *322:161 *571:19 0.00289841
33 *322:161 *571:25 0
34 *322:165 *571:19 0.000622848
35 *322:167 *571:17 0.000422499
36 *327:63 *571:39 0.0719193
37 *336:11 *571:31 0
38 *347:11 *571:39 0.00971434
39 *351:11 *571:31 0.00405043
40 *391:51 *571:39 0.00356909
41 *436:27 *571:39 0.0165593
42 *474:11 *571:31 0.0628473
43 *479:11 *571:31 0.0709448
44 *480:11 *571:31 0.000239297
45 *529:9 *571:17 0.00632351
46 *539:31 *571:25 0.00150556
47 *539:55 *571:17 0.000429479
48 *540:24 *571:17 0.0010467
49 *570:14 *571:17 0.000159087
50 *570:14 *571:19 0.0141034
*RES
1 *921:gpio_inp_dis[8] *571:17 15.3716 
2 *571:17 *571:19 127.41 
3 *571:19 *571:25 22.975 
4 *571:25 *571:27 725.295 
5 *571:27 *571:29 2 
6 *571:29 *571:31 802.845 
7 *571:31 *571:35 48.68 
8 *571:35 *571:37 2 
9 *571:37 *571:39 1273.19 
10 *571:39 gpio_inp_dis[8] 4.44123 
*END

*D_NET *572 0.668879
*CONN
*P gpio_inp_dis[9] O
*I *921:gpio_inp_dis[9] O *D CF_CARAVEL_SOC
*CAP
1 gpio_inp_dis[9] 0.00506115
2 *921:gpio_inp_dis[9] 0.000633702
3 *572:28 0.0767266
4 *572:26 0.0718872
5 *572:16 0.0121743
6 *572:14 0.0125863
7 *572:14 *696:163 0.000976347
8 *572:16 *740:81 0.00539128
9 *572:16 *826:127 0
10 *572:28 *661:19 0.00125105
11 *572:28 *672:15 0.0130417
12 *572:28 *683:15 0.00870844
13 *572:28 *698:23 0.0073296
14 gpio_analog_en[9] gpio_inp_dis[9] 0
15 gpio_analog_pol[9] gpio_inp_dis[9] 0.000269429
16 gpio_dm0[0] *572:28 0
17 gpio_dm0[9] gpio_inp_dis[9] 0
18 *92:11 *572:28 0.0605028
19 *102:11 *572:28 0.0421033
20 *102:19 *572:28 0.00183138
21 *106:19 *572:28 0.00782226
22 *110:19 *572:28 0.0799169
23 *119:11 *572:28 0.0103364
24 *125:15 *572:16 0.0796592
25 *140:41 *572:28 0.000114662
26 *226:11 *572:28 0.00887968
27 *335:13 *572:26 0.000134296
28 *350:11 *572:28 0
29 *443:19 *572:28 0.0234659
30 *444:37 *572:16 0.00137739
31 *444:55 *572:16 0.00325273
32 *483:19 *572:28 0.0111042
33 *529:9 *572:16 0.0039746
34 *529:9 *572:26 0
35 *531:14 *572:16 0.00158295
36 *536:33 *572:16 0.00155483
37 *537:12 *572:16 0.00225049
38 *540:24 *572:14 0.000808966
39 *541:27 *572:16 0.01001
40 *562:119 *572:26 9.99369e-05
41 *567:14 *572:16 0.095285
42 *569:16 *572:14 0.000148029
43 *569:22 *572:28 0.00291102
44 *570:12 *572:14 0.00283916
45 *570:26 *572:26 0.000132036
46 *570:26 *572:28 0.000743799
*RES
1 *921:gpio_inp_dis[9] *572:14 9.1131 
2 *572:14 *572:16 861.225 
3 *572:16 *572:26 4.92423 
4 *572:26 *572:28 375.235 
5 *572:28 gpio_inp_dis[9] 11.4396 
*END

*D_NET *661 0.481513
*CONN
*P gpio_oeb[0] O
*I *921:gpio_oeb[0] O *D CF_CARAVEL_SOC
*CAP
1 gpio_oeb[0] 0.00521283
2 *921:gpio_oeb[0] 0.00093647
3 *661:19 0.02073
4 *661:17 0.0155172
5 *661:15 0.0263136
6 *661:13 0.0272501
7 *661:15 *672:11 0.120515
8 *661:15 *687:11 4.89546e-05
9 *661:19 *672:15 0.00876208
10 *661:19 *698:23 0.0454011
11 *661:19 *743:15 0.0329673
12 *661:19 *745:21 0.00339746
13 gpio_ib_mode_sel[0] gpio_oeb[0] 0
14 *92:11 *661:19 0.00746498
15 *116:61 *661:13 6.16289e-05
16 *116:63 *661:13 5.91985e-05
17 *117:39 *661:13 0.00239146
18 *117:39 *661:15 0.0646724
19 *140:57 *661:19 0.00141022
20 *160:23 *661:13 0.00127725
21 *160:23 *661:15 0.000350189
22 *205:53 *661:15 0.000871028
23 *247:9 gpio_oeb[0] 0.00032051
24 *443:19 *661:19 0.005692
25 *569:22 *661:19 0.0883695
26 *570:26 *661:19 0.000270319
27 *572:28 *661:19 0.00125105
*RES
1 *921:gpio_oeb[0] *661:13 11.0405 
2 *661:13 *661:15 184.132 
3 *661:15 *661:17 0.5 
4 *661:17 *661:19 1043.56 
5 *661:19 gpio_oeb[0] 11.3585 
*END

*D_NET *662 0.45457
*CONN
*P gpio_oeb[10] O
*I *920:count_oeb[2] O *D counter_macro
*CAP
1 gpio_oeb[10] 0.000108646
2 *920:count_oeb[2] 1.23933e-05
3 *662:11 0.0731501
4 *662:9 0.0730415
5 *662:7 0.0449928
6 *662:5 0.0450051
7 *398:23 *662:11 0.218259
*RES
1 *920:count_oeb[2] *662:5 0.225 
2 *662:5 *662:7 809.475 
3 *662:7 *662:9 0.5 
4 *662:9 *662:11 321.213 
5 *662:11 gpio_oeb[10] 0.312233 
*END

*D_NET *663 0.342231
*CONN
*P gpio_oeb[11] O
*I *920:count_oeb[3] O *D counter_macro
*CAP
1 gpio_oeb[11] 1.5206e-05
2 *920:count_oeb[3] 1.23933e-05
3 *663:11 0.116666
4 *663:9 0.116651
5 *663:7 0.0544373
6 *663:5 0.0544497
7 *663:11 *723:21 0
8 gpio_ib_mode_sel[11] *663:11 0
9 *274:239 *663:11 0
10 *399:23 *663:11 0
*RES
1 *920:count_oeb[3] *663:5 0.225 
2 *663:5 *663:7 979.815 
3 *663:7 *663:9 0.5 
4 *663:9 *663:11 319.64 
5 *663:11 gpio_oeb[11] 0.0437 
*END

*D_NET *664 0.48648
*CONN
*P gpio_oeb[12] O
*I *920:count_oeb[4] O *D counter_macro
*CAP
1 gpio_oeb[12] 0.00254655
2 *920:count_oeb[4] 1.23933e-05
3 *664:11 0.0726846
4 *664:9 0.0701381
5 *664:7 0.063647
6 *664:5 0.0636594
7 *326:35 *664:11 0
8 *400:23 gpio_oeb[12] 0.000800464
9 *400:23 *664:11 0.212991
*RES
1 *920:count_oeb[4] *664:5 0.225 
2 *664:5 *664:7 1145.56 
3 *664:7 *664:9 0.5 
4 *664:9 *664:11 312.901 
5 *664:11 gpio_oeb[12] 5.79183 
*END

*D_NET *665 0.394912
*CONN
*P gpio_oeb[13] O
*I *920:count_oeb[5] O *D counter_macro
*CAP
1 gpio_oeb[13] 9.8068e-05
2 *920:count_oeb[5] 1.23933e-05
3 *665:11 0.114744
4 *665:9 0.114646
5 *665:7 0.0822042
6 *665:5 0.0822166
7 gpio_ib_mode_sel[13] *665:11 0.000551824
8 *140:329 *665:11 0.00043893
9 *401:15 *665:11 0
*RES
1 *920:count_oeb[5] *665:5 0.225 
2 *665:5 *665:7 1481.66 
3 *665:7 *665:9 0.5 
4 *665:9 *665:11 316.493 
5 *665:11 gpio_oeb[13] 0.281833 
*END

*D_NET *666 0.562556
*CONN
*P gpio_oeb[14] O
*I *920:count_oeb[6] O *D counter_macro
*CAP
1 gpio_oeb[14] 0.00275961
2 *920:count_oeb[6] 1.23933e-05
3 *666:11 0.0800948
4 *666:9 0.0773352
5 *666:7 0.100593
6 *666:5 0.100605
7 *666:11 *798:23 0.00484242
8 gpio_ib_mode_sel[14] gpio_oeb[14] 0.0004147
9 *281:31 *666:11 0.195899
*RES
1 *920:count_oeb[6] *666:5 0.225 
2 *666:5 *666:7 1814.18 
3 *666:7 *666:9 0.5 
4 *666:9 *666:11 309.754 
5 *666:11 gpio_oeb[14] 5.8577 
*END

*D_NET *667 0.417201
*CONN
*P gpio_oeb[15] O
*I *920:count_oeb[7] O *D counter_macro
*CAP
1 gpio_oeb[15] 8.17048e-05
2 *920:count_oeb[7] 1.23933e-05
3 *667:15 0.0986529
4 *667:13 0.0985712
5 *667:11 0.101944
6 *667:9 0.101944
7 *667:7 0.00799128
8 *667:5 0.00800367
9 *667:7 *806:19 0
10 *667:11 *668:11 0
11 gpio_ib_mode_sel[15] gpio_oeb[15] 0
12 *140:131 *667:15 0
13 *403:19 *667:15 0
14 *537:134 *667:15 0
*RES
1 *920:count_oeb[7] *667:5 0.225 
2 *667:5 *667:7 143.415 
3 *667:7 *667:9 0.5 
4 *667:9 *667:11 282.631 
5 *667:11 *667:13 0.5 
6 *667:13 *667:15 1781.03 
7 *667:15 gpio_oeb[15] 1.35 
*END

*D_NET *668 0.369747
*CONN
*P gpio_oeb[16] O
*I *920:count_oeb[8] O *D counter_macro
*CAP
1 gpio_oeb[16] 0.0984081
2 *920:count_oeb[8] 1.23933e-05
3 *668:13 0.0984081
4 *668:11 0.0781809
5 *668:9 0.0781809
6 *668:7 0.00827218
7 *668:5 0.00828458
8 *668:11 *669:11 0
9 gpio_ib_mode_sel[16] gpio_oeb[16] 0
10 *667:11 *668:11 0
*RES
1 *920:count_oeb[8] *668:5 0.225 
2 *668:5 *668:7 148.515 
3 *668:7 *668:9 0.5 
4 *668:9 *668:11 216.557 
5 *668:11 *668:13 0.5 
6 *668:13 gpio_oeb[16] 1776.89 
*END

*D_NET *669 0.345117
*CONN
*P gpio_oeb[17] O
*I *920:count_oeb[9] O *D counter_macro
*CAP
1 gpio_oeb[17] 0.0981463
2 *920:count_oeb[9] 1.23933e-05
3 *669:13 0.0981463
4 *669:11 0.0658358
5 *669:9 0.0658358
6 *669:7 0.00856408
7 *669:5 0.00857647
8 *669:11 *671:11 0
9 gpio_ib_mode_sel[17] gpio_oeb[17] 0
10 *190:19 *669:7 0
11 *668:11 *669:11 0
*RES
1 *920:count_oeb[9] *669:5 0.225 
2 *669:5 *669:7 153.615 
3 *669:7 *669:9 0.5 
4 *669:9 *669:11 182.413 
5 *669:11 *669:13 0.5 
6 *669:13 gpio_oeb[17] 1771.79 
*END

*D_NET *670 0.314023
*CONN
*P gpio_oeb[18] O
*I *920:count_oeb[10] O *D counter_macro
*CAP
1 gpio_oeb[18] 0.00297258
2 *920:count_oeb[10] 1.23933e-05
3 *670:13 0.00297258
4 *670:11 0.0448476
5 *670:9 0.0448476
6 *670:7 0.0730987
7 *670:5 0.0731111
8 *670:11 *673:13 0
9 gpio_ib_mode_sel[18] gpio_oeb[18] 0
10 *146:25 *670:7 0.0721605
11 *234:19 *670:7 0
12 *542:55 *670:7 0
*RES
1 *920:count_oeb[10] *670:5 0.225 
2 *670:5 *670:7 1871.81 
3 *670:7 *670:9 0.5 
4 *670:9 *670:11 124.496 
5 *670:11 *670:13 0.5 
6 *670:13 gpio_oeb[18] 53.6025 
*END

*D_NET *671 0.256488
*CONN
*P gpio_oeb[19] O
*I *920:count_oeb[11] O *D counter_macro
*CAP
1 gpio_oeb[19] 0.0978717
2 *920:count_oeb[11] 1.23933e-05
3 *671:13 0.0978717
4 *671:11 0.0211847
5 *671:9 0.0211847
6 *671:7 0.00715324
7 *671:5 0.00716564
8 *671:11 *685:21 0
9 gpio_ib_mode_sel[19] gpio_oeb[19] 0
10 *278:19 *671:7 0.00404425
11 *669:11 *671:11 0
*RES
1 *920:count_oeb[11] *671:5 0.225 
2 *671:5 *671:7 158.715 
3 *671:7 *671:9 0.5 
4 *671:9 *671:11 58.4212 
5 *671:11 *671:13 0.5 
6 *671:13 gpio_oeb[19] 1766.69 
*END

*D_NET *672 0.45268
*CONN
*P gpio_oeb[1] O
*I *921:gpio_oeb[1] O *D CF_CARAVEL_SOC
*CAP
1 gpio_oeb[1] 0.00559932
2 *921:gpio_oeb[1] 0.000415512
3 *672:15 0.0240149
4 *672:13 0.0184156
5 *672:11 0.0209225
6 *672:9 0.021338
7 *672:11 *683:11 0.117813
8 *672:11 *687:11 0.00153389
9 *672:15 *683:15 0.0356557
10 *672:15 *698:23 0.0300732
11 *672:15 *743:15 0.0329688
12 gpio_ib_mode_sel[1] gpio_oeb[1] 0
13 *116:55 *672:11 0.000523903
14 *140:41 *672:15 0.00107494
15 *160:21 *672:9 0
16 *205:53 *672:11 1.19292e-05
17 *483:19 *672:15 0
18 *572:28 *672:15 0.0130417
19 *661:15 *672:11 0.120515
20 *661:19 *672:15 0.00876208
*RES
1 *921:gpio_oeb[1] *672:9 6.965 
2 *672:9 *672:11 183.52 
3 *672:11 *672:13 0.5 
4 *672:13 *672:15 872.205 
5 *672:15 gpio_oeb[1] 11.546 
*END

*D_NET *673 0.231289
*CONN
*P gpio_oeb[20] O
*I *920:count_oeb[12] O *D counter_macro
*CAP
1 gpio_oeb[20] 9.87705e-05
2 *920:count_oeb[12] 1.23933e-05
3 *673:15 0.00330818
4 *673:13 0.0119731
5 *673:7 0.112324
6 *673:5 0.103573
7 gpio_ib_mode_sel[20] gpio_oeb[20] 0
8 gpio_ib_mode_sel[20] *673:15 0
9 *454:9 *673:7 0
10 *670:11 *673:13 0
*RES
1 *920:count_oeb[12] *673:5 0.225 
2 *673:5 *673:7 1866.7 
3 *673:7 *673:13 25.2187 
4 *673:13 *673:15 57.735 
5 *673:15 gpio_oeb[20] 1.35 
*END

*D_NET *674 0.220958
*CONN
*P gpio_oeb[21] O
*I *920:count_oeb[13] O *D counter_macro
*CAP
1 gpio_oeb[21] 9.87705e-05
2 *920:count_oeb[13] 1.23933e-05
3 *674:15 0.0945349
4 *674:13 0.0980137
5 *674:7 0.0159316
6 *674:5 0.0123665
7 *674:13 *680:13 0
8 gpio_ib_mode_sel[21] gpio_oeb[21] 0
9 gpio_ib_mode_sel[21] *674:15 0
*RES
1 *920:count_oeb[13] *674:5 0.225 
2 *674:5 *674:7 220.935 
3 *674:7 *674:13 11.0016 
4 *674:13 *674:15 1703.51 
5 *674:15 gpio_oeb[21] 1.35 
*END

*D_NET *675 0.299438
*CONN
*P gpio_oeb[22] O
*I *920:count_oeb[14] O *D counter_macro
*CAP
1 gpio_oeb[22] 0.087919
2 *920:count_oeb[14] 1.23933e-05
3 *675:13 0.0979952
4 *675:7 0.0136247
5 *675:5 0.00356086
6 gpio_oeb[22] *706:7 0.0663492
7 *675:13 *758:13 0.029977
8 gpio_ib_mode_sel[22] gpio_oeb[22] 0
9 *279:15 *675:13 0
10 *539:421 gpio_oeb[22] 0
*RES
1 *920:count_oeb[14] *675:5 0.225 
2 *675:5 *675:7 61.305 
3 *675:7 *675:13 45.1459 
4 *675:13 gpio_oeb[22] 1864.1 
*END

*D_NET *676 0.27449
*CONN
*P gpio_oeb[23] O
*I *920:count_oeb[15] O *D counter_macro
*CAP
1 gpio_oeb[23] 0.0020935
2 *920:count_oeb[15] 1.23933e-05
3 *676:15 0.100477
4 *676:13 0.0983831
5 *676:11 0.0277669
6 *676:9 0.0277669
7 *676:7 0.00316179
8 *676:5 0.00317418
9 *676:11 *758:13 0
10 *278:15 *676:11 0.00433226
11 *322:349 *676:15 0.00732225
*RES
1 *920:count_oeb[15] *676:5 0.225 
2 *676:5 *676:7 56.205 
3 *676:7 *676:9 0.5 
4 *676:9 *676:11 78.2901 
5 *676:11 *676:13 0.5 
6 *676:13 *676:15 1834.11 
7 *676:15 gpio_oeb[23] 36.0975 
*END

*D_NET *677 0.462725
*CONN
*P gpio_oeb[24] O
*I *921:gpio_oeb[24] O *D CF_CARAVEL_SOC
*CAP
1 gpio_oeb[24] 0.00930424
2 *921:gpio_oeb[24] 1.22321e-05
3 *677:15 0.0930599
4 *677:13 0.0837556
5 *677:11 0.10194
6 *677:9 0.10194
7 *677:7 0.0307543
8 *677:5 0.0307665
9 gpio_oeb[24] gpio_vtrip_sel[24] 0
10 gpio_ib_mode_sel[24] gpio_oeb[24] 0
11 *322:341 *677:15 0.0111936
12 *413:26 gpio_oeb[24] 0
13 *538:259 *677:7 0
*RES
1 *921:gpio_oeb[24] *677:5 0.225 
2 *677:5 *677:7 548.355 
3 *677:7 *677:9 0.5 
4 *677:9 *677:11 281.874 
5 *677:11 *677:13 0.5 
6 *677:13 *677:15 1560.7 
7 *677:15 gpio_oeb[24] 22.4824 
*END

*D_NET *678 0.389417
*CONN
*P gpio_oeb[25] O
*I *921:gpio_oeb[25] O *D CF_CARAVEL_SOC
*CAP
1 gpio_oeb[25] 0.00261788
2 *921:gpio_oeb[25] 8.11047e-05
3 *678:13 0.113185
4 *678:11 0.110567
5 *678:9 0.0808993
6 *678:7 0.0809804
7 gpio_ib_mode_sel[25] gpio_oeb[25] 0.000480318
8 *404:11 gpio_oeb[25] 0
9 *410:11 gpio_oeb[25] 0
10 *539:329 *678:13 0.000606213
*RES
1 *921:gpio_oeb[25] *678:7 1.35 
2 *678:7 *678:9 1453.09 
3 *678:9 *678:11 0.5 
4 *678:11 *678:13 304.423 
5 *678:13 gpio_oeb[25] 23.8778 
*END

*D_NET *679 0.477882
*CONN
*P gpio_oeb[26] O
*I *921:gpio_oeb[26] O *D CF_CARAVEL_SOC
*CAP
1 gpio_oeb[26] 0.0100225
2 *921:gpio_oeb[26] 8.25989e-05
3 *679:17 0.0638546
4 *679:15 0.0538321
5 *679:13 0.0649777
6 *679:11 0.0649777
7 *679:9 0.0199149
8 *679:7 0.0199975
9 gpio_oeb[26] gpio_vtrip_sel[26] 0
10 gpio_oeb[26] *795:23 0.00029778
11 *679:13 *720:9 0
12 *679:13 *807:17 0.00768285
13 gpio_dm0[16] *679:9 0
14 gpio_ib_mode_sel[26] gpio_oeb[26] 5.65365e-05
15 *102:23 *679:13 0.148898
16 *147:17 *679:13 0.0133137
17 *280:27 *679:17 0
18 *286:39 *679:9 0
19 *324:15 *679:13 0
20 *399:23 gpio_oeb[26] 0.0099737
*RES
1 *921:gpio_oeb[26] *679:7 1.35 
2 *679:7 *679:9 341.805 
3 *679:9 *679:11 0.5 
4 *679:11 *679:13 282.457 
5 *679:13 *679:15 0.5 
6 *679:15 *679:17 970.635 
7 *679:17 gpio_oeb[26] 29.8936 
*END

*D_NET *680 0.368897
*CONN
*P gpio_oeb[27] O
*I *921:gpio_oeb[27] O *D CF_CARAVEL_SOC
*CAP
1 gpio_oeb[27] 0.00711555
2 *921:gpio_oeb[27] 8.11047e-05
3 *680:17 0.0384252
4 *680:15 0.0313096
5 *680:13 0.107019
6 *680:11 0.107019
7 *680:9 0.0315278
8 *680:7 0.0316089
9 gpio_ib_mode_sel[27] gpio_oeb[27] 0.000638336
10 *322:333 *680:17 0.00448085
11 *398:23 gpio_oeb[27] 0.009673
12 *674:13 *680:13 0
*RES
1 *921:gpio_oeb[27] *680:7 1.35 
2 *680:7 *680:9 562.635 
3 *680:9 *680:11 0.5 
4 *680:11 *680:13 295.392 
5 *680:13 *680:15 0.5 
6 *680:15 *680:17 583.545 
7 *680:17 gpio_oeb[27] 21.7958 
*END

*D_NET *681 0.346236
*CONN
*P gpio_oeb[28] O
*I *921:gpio_oeb[28] O *D CF_CARAVEL_SOC
*CAP
1 gpio_oeb[28] 0.0026406
2 *921:gpio_oeb[28] 0.00263331
3 *681:21 0.117675
4 *681:19 0.115034
5 *681:17 0.0525034
6 *681:15 0.0551367
7 gpio_ib_mode_sel[28] gpio_oeb[28] 0
8 gpio_ib_mode_sel[28] *681:21 0
9 *197:15 gpio_oeb[28] 0
10 *197:15 *681:21 0
11 *202:27 *681:15 0.00046263
12 *316:15 *681:15 0.00015107
13 *538:241 *681:17 0
*RES
1 *921:gpio_oeb[28] *681:15 41.3839 
2 *681:15 *681:17 946.665 
3 *681:17 *681:19 0.5 
4 *681:19 *681:21 315.115 
5 *681:21 gpio_oeb[28] 4.94697 
*END

*D_NET *682 0.331184
*CONN
*P gpio_oeb[29] O
*I *921:gpio_oeb[29] O *D CF_CARAVEL_SOC
*CAP
1 gpio_oeb[29] 0.000923101
2 *921:gpio_oeb[29] 1.22321e-05
3 *682:11 0.119305
4 *682:9 0.118382
5 *682:7 0.0459689
6 *682:5 0.0459811
7 gpio_oeb[29] *810:11 0.000106754
8 gpio_ib_mode_sel[29] gpio_oeb[29] 0.000232252
9 gpio_ib_mode_sel[29] *682:11 0
10 *446:11 gpio_oeb[29] 0.000272003
11 *538:219 *682:7 0
*RES
1 *921:gpio_oeb[29] *682:5 0.225 
2 *682:5 *682:7 822.735 
3 *682:7 *682:9 0.5 
4 *682:9 *682:11 322.661 
5 *682:11 gpio_oeb[29] 5.99217 
*END

*D_NET *683 0.436052
*CONN
*P gpio_oeb[2] O
*I *921:gpio_oeb[2] O *D CF_CARAVEL_SOC
*CAP
1 gpio_oeb[2] 0.00588766
2 *921:gpio_oeb[2] 0.000384145
3 *683:15 0.0255956
4 *683:13 0.019708
5 *683:11 0.0234568
6 *683:9 0.023841
7 *683:11 *687:11 0.0855135
8 *683:11 *688:11 0.00141903
9 *683:11 *693:19 0.000470165
10 *683:11 *744:11 0.0108729
11 *95:17 *683:11 0
12 *102:19 *683:15 0.00404304
13 *110:11 *683:15 0
14 *116:55 *683:11 0.0269737
15 *119:11 *683:15 0.0017422
16 *139:17 *683:11 0
17 *140:41 *683:15 0.00107327
18 *150:11 *683:15 0.00182663
19 *160:15 *683:11 0.00599261
20 *205:53 *683:11 0
21 *206:17 *683:15 0.000599183
22 *288:53 *683:15 0.00119063
23 *392:31 *683:11 0.0247169
24 *483:19 *683:15 0.00856808
25 *572:28 *683:15 0.00870844
26 *672:11 *683:11 0.117813
27 *672:15 *683:15 0.0356557
*RES
1 *921:gpio_oeb[2] *683:9 6.455 
2 *683:9 *683:11 179.441 
3 *683:11 *683:13 0.5 
4 *683:13 *683:15 701.355 
5 *683:15 gpio_oeb[2] 11.698 
*END

*D_NET *684 0.316883
*CONN
*P gpio_oeb[30] O
*I *921:gpio_oeb[30] O *D CF_CARAVEL_SOC
*CAP
1 gpio_oeb[30] 0.00260223
2 *921:gpio_oeb[30] 8.11047e-05
3 *684:21 0.050509
4 *684:19 0.0479067
5 *684:17 0.0271964
6 *684:15 0.0271964
7 *684:13 0.0705222
8 *684:11 0.0705222
9 *684:9 0.00976419
10 *684:7 0.0098453
11 *684:21 *768:17 0
12 *684:21 *813:17 0
13 gpio_ib_mode_sel[30] gpio_oeb[30] 0.000615084
14 *323:15 *684:21 0
15 *402:11 gpio_oeb[30] 0.000122088
*RES
1 *921:gpio_oeb[30] *684:7 1.35 
2 *684:7 *684:9 169.425 
3 *684:9 *684:11 0.5 
4 *684:11 *684:13 196.105 
5 *684:13 *684:15 0.5 
6 *684:15 *684:17 489.705 
7 *684:17 *684:19 0.5 
8 *684:19 *684:21 128.079 
9 *684:21 gpio_oeb[30] 5.26617 
*END

*D_NET *685 0.30563
*CONN
*P gpio_oeb[31] O
*I *921:gpio_oeb[31] O *D CF_CARAVEL_SOC
*CAP
1 gpio_oeb[31] 0.00279584
2 *921:gpio_oeb[31] 0.00267301
3 *685:21 0.12246
4 *685:19 0.119664
5 *685:17 0.0240273
6 *685:15 0.0267003
7 gpio_ib_mode_sel[31] gpio_oeb[31] 0
8 *202:27 *685:15 0.00070228
9 *316:15 *685:15 0.000230355
10 *538:195 *685:17 0.0063772
11 *671:11 *685:21 0
*RES
1 *921:gpio_oeb[31] *685:15 41.7335 
2 *685:15 *685:17 460.125 
3 *685:17 *685:19 0.5 
4 *685:19 *685:21 327.351 
5 *685:21 gpio_oeb[31] 5.03817 
*END

*D_NET *686 0.389944
*CONN
*P gpio_oeb[32] O
*I *921:gpio_oeb[32] O *D CF_CARAVEL_SOC
*CAP
1 gpio_oeb[32] 6.12827e-05
2 *921:gpio_oeb[32] 0.00163383
3 *686:11 0.0508297
4 *686:9 0.0524022
5 *686:11 *801:15 0.0331186
6 *686:11 *802:15 0
7 *686:11 *803:15 0.000660328
8 gpio_ib_mode_sel[32] *686:11 0.00113078
9 *230:25 *686:11 0.0201261
10 *244:15 *686:11 0
11 *277:23 *686:11 0.143278
12 *286:39 *686:11 0.0151912
13 *403:15 *686:11 0.0715118
*RES
1 *921:gpio_oeb[32] *686:9 24.98 
2 *686:9 *686:11 336.713 
3 *686:11 gpio_oeb[32] 0.160233 
*END

*D_NET *687 0.540827
*CONN
*P gpio_oeb[33] O
*I *921:gpio_oeb[33] O *D CF_CARAVEL_SOC
*CAP
1 gpio_oeb[33] 0.00534141
2 *921:gpio_oeb[33] 0.000315207
3 *687:19 0.00969094
4 *687:17 0.00567394
5 *687:11 0.0417888
6 *687:9 0.0407796
7 gpio_oeb[33] gpio_vtrip_sel[33] 0.00345097
8 gpio_oeb[33] *736:37 0.00055029
9 *687:11 *688:11 0.213691
10 *687:11 *693:19 0.0193172
11 *687:17 *688:11 0.000611566
12 *687:19 *732:10 0.0123498
13 *687:19 *766:11 0.00254021
14 *687:19 *787:11 0.000230205
15 gpio_ib_mode_sel[33] gpio_oeb[33] 0.000623394
16 *115:33 *687:17 0.0018315
17 *116:63 *687:17 0.000258401
18 *117:39 *687:17 2.83174e-05
19 *160:15 *687:11 0.0204282
20 *160:23 *687:11 0.0691758
21 *160:23 *687:17 0.000906136
22 *284:57 gpio_oeb[33] 0
23 *291:25 *687:17 0.000425954
24 *357:19 *687:19 0
25 *393:21 *687:17 0.000359299
26 *543:31 *687:19 0.00336197
27 *661:15 *687:11 4.89546e-05
28 *672:11 *687:11 0.00153389
29 *683:11 *687:11 0.0855135
*RES
1 *921:gpio_oeb[33] *687:9 5.255 
2 *687:9 *687:11 324.379 
3 *687:11 *687:17 5.46913 
4 *687:17 *687:19 142.905 
5 *687:19 gpio_oeb[33] 12.4801 
*END

*D_NET *688 0.720954
*CONN
*P gpio_oeb[34] O
*I *921:gpio_oeb[34] O *D CF_CARAVEL_SOC
*CAP
1 gpio_oeb[34] 0.0042892
2 *921:gpio_oeb[34] 0.00030951
3 *688:15 0.00878764
4 *688:13 0.00449844
5 *688:11 0.0401796
6 *688:9 0.0404891
7 *688:11 *693:19 0.0260199
8 *688:11 *705:33 1.19249e-05
9 *688:11 *716:11 0.0441665
10 *688:11 *736:21 0.00312408
11 *688:11 *737:9 0.00085322
12 *688:11 *744:11 0.20147
13 *688:15 *733:10 0.026621
14 *688:15 *753:11 0.0270542
15 gpio_ib_mode_sel[34] gpio_oeb[34] 0.0022294
16 *115:15 *688:11 0.00312634
17 *115:33 *688:11 0.00182874
18 *160:15 *688:11 0.000488743
19 *163:23 *688:11 0.00315335
20 *163:33 *688:11 0.00303675
21 *291:15 *688:11 0.00343868
22 *291:25 *688:11 0.000556447
23 *365:11 *688:15 0
24 *392:9 gpio_oeb[34] 0.0011595
25 *393:23 *688:11 0.0481872
26 *420:11 *688:15 0.00574193
27 *424:18 gpio_oeb[34] 1.53305e-05
28 *437:31 *688:11 0.00439499
29 *683:11 *688:11 0.00141903
30 *687:11 *688:11 0.213691
31 *687:17 *688:11 0.000611566
*RES
1 *921:gpio_oeb[34] *688:9 5.435 
2 *688:9 *688:11 335.887 
3 *688:11 *688:13 0.5 
4 *688:13 *688:15 302.025 
5 *688:15 gpio_oeb[34] 9.94363 
*END

*D_NET *689 0.584882
*CONN
*P gpio_oeb[35] O
*I *921:gpio_oeb[35] O *D CF_CARAVEL_SOC
*CAP
1 gpio_oeb[35] 0.00392073
2 *921:gpio_oeb[35] 0.000808987
3 *689:15 0.0124678
4 *689:13 0.00854702
5 *689:11 0.04299
6 *689:9 0.0437989
7 gpio_oeb[35] gpio_vtrip_sel[35] 0.000686267
8 *689:11 *691:11 0.00143898
9 *689:11 *705:33 0.0253684
10 *689:11 *745:11 0.118903
11 *689:11 *764:21 0.0106634
12 *689:11 *782:15 0.00407774
13 *689:15 *734:15 0.0395202
14 *689:15 *762:11 0.000436027
15 *689:15 *833:11 0.0393446
16 gpio_ib_mode_sel[35] gpio_oeb[35] 0.0017193
17 *98:15 *689:11 0.0182272
18 *99:15 *689:11 0.0182229
19 *101:15 *689:11 0.0300854
20 *114:23 *689:11 0.11878
21 *141:29 *689:11 0.0119767
22 *142:15 *689:11 0.00630106
23 *193:61 *689:11 0.000357169
24 *286:39 *689:11 0.00148729
25 *407:25 *689:11 0.0240365
26 *440:19 *689:15 0.000717091
*RES
1 *921:gpio_oeb[35] *689:9 12.575 
2 *689:9 *689:11 340.956 
3 *689:11 *689:13 0.5 
4 *689:13 *689:15 470.835 
5 *689:15 gpio_oeb[35] 9.12537 
*END

*D_NET *690 0.680808
*CONN
*P gpio_oeb[36] O
*I *921:gpio_oeb[36] O *D CF_CARAVEL_SOC
*CAP
1 gpio_oeb[36] 0.00168319
2 *921:gpio_oeb[36] 0.000205553
3 *690:30 0
4 *690:23 0.0138555
5 *690:21 0.0156211
6 *690:11 0.0311791
7 *690:9 0.0279358
8 *690:11 *699:6 0.0194385
9 *690:11 *733:6 0.0215003
10 *690:11 *739:6 0.00331895
11 *690:11 *740:11 0.000495794
12 *690:11 *741:6 0.00398274
13 *690:21 *733:6 0.000151216
14 *690:21 *735:21 0.00292467
15 *690:21 *736:21 0.000886311
16 *690:23 *772:11 0.0341799
17 *690:23 *820:11 0.0261219
18 gpio_ib_mode_sel[36] gpio_oeb[36] 0.0025765
19 *162:15 *690:11 0.217971
20 *162:25 *690:21 0.00445217
21 *163:33 *690:21 6.72405e-05
22 *204:33 *690:11 0.217422
23 *204:43 *690:21 0.000445884
24 *392:19 *690:23 0.0166226
25 *449:13 *690:21 0
26 *450:13 *690:21 0.000169455
27 *456:15 *690:11 1.5781e-05
28 *464:11 *690:23 0.0112239
29 *541:111 *690:23 0.00636155
*RES
1 *921:gpio_oeb[36] *690:9 3.4925 
2 *690:9 *690:11 2004.56 
3 *690:11 *690:21 15.7766 
4 *690:21 *690:23 624.345 
5 *690:23 gpio_oeb[36] 4.68507 
6 gpio_oeb[36] *690:30 0.0616216 
*END

*D_NET *691 0.740673
*CONN
*P gpio_oeb[37] O
*I *921:gpio_oeb[37] O *D CF_CARAVEL_SOC
*CAP
1 gpio_oeb[37] 0.00154238
2 *921:gpio_oeb[37] 0.000718741
3 *691:15 0.0181777
4 *691:13 0.0166354
5 *691:11 0.0330344
6 *691:9 0.0337532
7 *691:11 *705:33 0.0402202
8 *691:11 *745:11 0.214259
9 *691:11 *782:15 0
10 *691:11 *832:37 0.00270792
11 *691:11 *832:39 6.1626e-05
12 *691:15 *789:19 0.0350291
13 *691:15 *812:11 0.0556506
14 gpio_ib_mode_sel[32] *691:11 4.12303e-05
15 gpio_ib_mode_sel[37] gpio_oeb[37] 0.00103096
16 *117:39 *691:11 9.87802e-06
17 *141:29 *691:11 0.0138309
18 *193:61 *691:11 0.000825799
19 *203:15 *691:11 0.236529
20 *205:53 *691:11 0.000436557
21 *205:57 *691:15 0.000711942
22 *286:39 *691:11 0.00192154
23 *289:35 *691:15 0.00736041
24 *404:11 *691:15 0.0126997
25 *407:25 *691:11 0.0120306
26 *427:18 gpio_oeb[37] 1.53305e-05
27 *689:11 *691:11 0.00143898
*RES
1 *921:gpio_oeb[37] *691:9 11.045 
2 *691:9 *691:11 354.358 
3 *691:11 *691:13 0.5 
4 *691:13 *691:15 793.665 
5 *691:15 gpio_oeb[37] 4.05363 
*END

*D_NET *692 0.715674
*CONN
*P gpio_oeb[38] O
*I *921:gpio_oeb[38] O *D CF_CARAVEL_SOC
*CAP
1 gpio_oeb[38] 0.000232697
2 *921:gpio_oeb[38] 0.00788726
3 *692:35 0.039694
4 *692:33 0.0395411
5 *692:27 0.0108677
6 *692:25 0.0107879
7 *692:23 0.0295468
8 *692:21 0.0297508
9 *692:15 0.00969421
10 *692:13 0.0173774
11 *692:13 *698:13 0.00804777
12 *692:13 *740:21 0.000224158
13 *692:13 *833:23 0.00321097
14 *692:27 *697:115 0.0058911
15 *692:27 *698:27 0.00547431
16 *692:27 *848:11 0.0481329
17 *692:27 *857:11 0.000855005
18 *692:27 *860:11 0.000582536
19 *692:27 *863:11 0.00014594
20 *692:27 *867:11 0.0243241
21 *692:33 gpio_oeb[43] 0
22 *692:35 gpio_out[42] 0.000715599
23 *692:35 *693:193 0.0202047
24 *692:35 *695:75 0.0372741
25 *692:35 *697:115 0.0227208
26 *692:35 *740:171 0.00495985
27 *692:35 *742:120 0.00132662
28 *692:35 *848:11 0.0106034
29 *692:35 *857:11 0.0278855
30 *692:35 *863:11 0.0305321
31 gpio_analog_en[38] *692:35 0.000203306
32 gpio_dm1[39] *692:35 0.0265869
33 gpio_ib_mode_sel[38] gpio_oeb[38] 0
34 gpio_ib_mode_sel[43] *692:33 0
35 *120:15 *692:35 0.0258803
36 *159:15 *692:13 0.00579479
37 *161:15 *692:13 0.0110501
38 *165:11 *692:15 0.00789618
39 *165:11 *692:23 0
40 *169:11 *692:23 0
41 *183:17 *692:13 0
42 *195:11 *692:15 0.0297988
43 *202:25 *692:13 3.32753e-05
44 *204:31 *692:13 0.00013827
45 *207:31 *692:35 0.00919495
46 *222:19 *692:23 0
47 *241:11 *692:23 0
48 *251:15 *692:27 0
49 *251:15 *692:35 0.000146384
50 *252:15 *692:35 0.0122729
51 *267:23 *692:23 0.0071713
52 *274:125 *692:13 0.000132277
53 *277:11 *692:15 0.0437323
54 *284:23 *692:35 0.0276827
55 *313:11 *692:23 0.0117137
56 *385:15 *692:35 0.00170015
57 *387:23 *692:35 0.0152116
58 *445:11 *692:23 0.00104614
59 *531:28 *692:23 0.020194
60 *538:43 *692:35 0.00216644
61 *549:13 *692:27 0.00743573
*RES
1 *921:gpio_oeb[38] *692:13 39.3742 
2 *692:13 *692:15 506.152 
3 *692:15 *692:21 6.865 
4 *692:21 *692:23 797.745 
5 *692:23 *692:25 2 
6 *692:25 *692:27 515.88 
7 *692:27 *692:33 3.4975 
8 *692:33 *692:35 207.467 
9 *692:35 gpio_oeb[38] 3.8975 
*END

*D_NET *693 0.954303
*CONN
*P gpio_oeb[39] O
*I *921:gpio_oeb[39] O *D CF_CARAVEL_SOC
*CAP
1 gpio_oeb[39] 0.000278648
2 *921:gpio_oeb[39] 0.000113412
3 *693:193 0.00872112
4 *693:191 0.0111526
5 *693:187 0.00670394
6 *693:175 0.00574592
7 *693:163 0.0116734
8 *693:137 0.011255
9 *693:125 0.00571141
10 *693:117 0.00577162
11 *693:109 0.00303875
12 *693:95 0.00700506
13 *693:93 0.00536026
14 *693:91 0.0301757
15 *693:89 0.0306148
16 *693:83 0.00465239
17 *693:81 0.00425754
18 *693:79 0.00319197
19 *693:77 0.00387007
20 *693:71 0.00318532
21 *693:69 0.00301146
22 *693:65 0.00211004
23 *693:61 0.00264219
24 *693:57 0.00252423
25 *693:47 0.00448552
26 *693:45 0.00354231
27 *693:41 0.00227852
28 *693:37 0.00347079
29 *693:31 0.00306423
30 *693:29 0.00137156
31 *693:27 0.00602381
32 *693:25 0.00668777
33 *693:19 0.0403651
34 *693:17 0.0400516
35 *693:11 0.00188774
36 *693:9 0.00165068
37 *693:11 *699:6 0.000212565
38 *693:11 *741:6 0.00164635
39 *693:11 *742:6 0.000130654
40 *693:19 *716:11 0.0043044
41 *693:27 *731:16 0.000568371
42 *693:27 *808:25 0
43 *693:27 *833:23 0.00253506
44 *693:31 *818:11 0.00185967
45 *693:41 gpio_vtrip_sel[33] 0.000227078
46 *693:79 *763:11 0.000204014
47 *693:91 *823:15 0.00308037
48 *693:91 *873:49 0
49 *693:95 *781:21 0.000191232
50 *693:95 *829:29 8.35118e-05
51 *693:95 *855:21 0.000190715
52 *693:95 *873:37 0.00168707
53 *693:109 *737:103 0.00703819
54 *693:109 *739:58 0
55 *693:125 *826:29 0.00134905
56 *693:125 *873:21 0
57 *693:137 *840:19 0.00039641
58 *693:163 *737:151 0
59 *693:163 *739:92 0.000103301
60 *693:163 *815:47 0.000124221
61 *693:163 *852:11 0.000228141
62 *693:175 *739:112 0.000399702
63 *693:187 gpio_out[39] 0.00555473
64 *693:187 *739:116 0.00100689
65 *693:191 *826:29 0
66 *693:191 *839:181 0
67 *693:193 *848:11 0.00873824
68 *693:193 *867:11 0.00933906
69 gpio_dm1[39] *693:193 0.00426625
70 gpio_ib_mode_sel[39] gpio_oeb[39] 0
71 *921:gpio_in[16] *693:137 0
72 *921:gpio_in[17] *693:175 0
73 *921:gpio_in[6] *693:117 0
74 *97:15 *693:11 0.00364682
75 *116:55 *693:19 0.00106719
76 *118:179 *693:175 0.00031484
77 *118:185 *693:137 0.000184583
78 *118:187 *693:117 0.000760197
79 *118:187 *693:137 2.0514e-05
80 *118:201 *693:109 0.00041442
81 *160:15 *693:19 0.0936706
82 *204:33 *693:11 0.00886266
83 *207:31 *693:193 0.00801088
84 *238:27 *693:65 0.00352664
85 *252:15 *693:193 0.000886415
86 *293:15 *693:137 0.00239185
87 *293:15 *693:175 0.000460154
88 *322:211 *693:175 0.00040961
89 *322:235 *693:163 0.000121592
90 *322:271 *693:109 0.00628798
91 *322:273 *693:95 0.000124501
92 *322:307 *693:37 0.00103813
93 *322:315 *693:27 0.000331611
94 *325:101 *693:187 0
95 *325:117 *693:163 0
96 *325:133 *693:125 9.39388e-06
97 *325:133 *693:163 0
98 *325:145 *693:117 0.000842917
99 *325:153 *693:117 6.69608e-06
100 *338:77 *693:109 0
101 *339:23 *693:163 0.000679035
102 *364:39 *693:163 0.00026255
103 *369:11 *693:31 0.00883521
104 *381:11 *693:41 0.000129207
105 *383:11 *693:79 0.00184243
106 *385:15 *693:193 0.0391798
107 *386:69 *693:163 0
108 *386:89 *693:163 0.000505537
109 *386:89 *693:187 0
110 *393:23 *693:19 0.202004
111 *397:33 *693:117 0.000123038
112 *397:77 *693:187 0.0030893
113 *398:19 *693:91 0.0136893
114 *404:11 *693:65 0
115 *409:11 *693:71 0.0121822
116 *412:11 *693:91 0.00502036
117 *419:23 *693:117 0.00274794
118 *422:11 *693:91 0.000986305
119 *444:71 *693:175 0.000190905
120 *446:19 *693:79 0
121 *446:19 *693:83 0
122 *447:17 *693:41 0
123 *455:21 *693:31 0.000241711
124 *455:21 *693:79 0.00830811
125 *455:21 *693:83 0.00178311
126 *457:11 *693:91 0
127 *466:11 *693:47 0.00244302
128 *466:11 *693:57 0
129 *470:11 *693:83 0.00307598
130 *472:11 *693:163 0.0012344
131 *472:15 *693:71 0.0121836
132 *472:55 *693:187 0
133 *539:97 *693:175 0
134 *539:97 *693:187 0.00829976
135 *539:151 *693:109 0.000483466
136 *539:151 *693:117 0.000156528
137 *539:155 *693:95 0.0118811
138 *539:183 *693:31 0.0084063
139 *539:187 *693:27 0.00645664
140 *541:77 *693:137 0.00206572
141 *541:89 *693:125 0.0134451
142 *541:107 *693:95 0.000582928
143 *541:131 *693:19 0.025816
144 *544:33 *693:25 0
145 *546:25 *693:91 0
146 *547:25 *693:57 0.00298722
147 *548:23 *693:41 0.00188846
148 *549:13 *693:193 0.0085601
149 *556:37 *693:117 2.23611e-05
150 *683:11 *693:19 0.000470165
151 *687:11 *693:19 0.0193172
152 *688:11 *693:19 0.0260199
153 *692:35 *693:193 0.0202047
*RES
1 *921:gpio_oeb[39] *693:9 3.4925 
2 *693:9 *693:11 81.525 
3 *693:11 *693:17 9.205 
4 *693:17 *693:19 1925.2 
5 *693:19 *693:25 13.795 
6 *693:25 *693:27 120.855 
7 *693:27 *693:29 2 
8 *693:29 *693:31 98.025 
9 *693:31 *693:37 31.705 
10 *693:37 *693:41 44.945 
11 *693:41 *693:45 9.35 
12 *693:45 *693:47 71.25 
13 *693:47 *693:57 43.05 
14 *693:57 *693:61 17.63 
15 *693:61 *693:65 42.905 
16 *693:65 *693:69 9.695 
17 *693:69 *693:71 140.865 
18 *693:71 *693:77 14.455 
19 *693:77 *693:79 92.1075 
20 *693:79 *693:81 0.795 
21 *693:81 *693:83 106.238 
22 *693:83 *693:89 10.315 
23 *693:89 *693:91 635.565 
24 *693:91 *693:93 2 
25 *693:93 *693:95 130.515 
26 *693:95 *693:109 29.251 
27 *693:109 *693:117 43.9075 
28 *693:117 *693:125 32.6797 
29 *693:125 *693:137 41.2825 
30 *693:137 *693:163 35.5597 
31 *693:163 *693:175 38.58 
32 *693:175 *693:187 27.8303 
33 *693:187 *693:191 37.835 
34 *693:191 *693:193 61.8589 
35 *693:193 gpio_oeb[39] 4.3475 
*END

*D_NET *694 0.429133
*CONN
*P gpio_oeb[3] O
*I *921:gpio_oeb[3] O *D CF_CARAVEL_SOC
*CAP
1 gpio_oeb[3] 0.00559986
2 *921:gpio_oeb[3] 0
3 *694:10 0.0145549
4 *694:8 0.00895503
5 *694:6 0.0231284
6 *694:4 0.0231284
7 *694:6 *699:6 0.111934
8 *694:6 *727:11 0.0243311
9 *694:6 *738:11 0.00300116
10 *694:6 *740:11 0.0970651
11 *694:6 *741:6 0.00153735
12 *694:6 *743:11 0.00306985
13 *694:10 *727:15 4.36573e-06
14 *694:10 *738:15 0.0469806
15 gpio_ib_mode_sel[3] gpio_oeb[3] 0
16 *90:11 *694:10 0.00444331
17 *157:37 *694:6 0.000524676
18 *161:15 *694:6 0.00314181
19 *162:15 *694:6 0.0218772
20 *183:17 *694:6 0.000399697
21 *241:11 gpio_oeb[3] 0.000117502
22 *247:11 *694:10 0.0268972
23 *267:23 gpio_oeb[3] 0.000117477
24 *274:61 *694:10 0.000392548
25 *315:25 *694:6 0.00290256
26 *333:17 *694:6 0.000109076
27 *391:33 *694:10 0.00196126
28 *436:23 *694:6 0.00295901
*RES
1 *921:gpio_oeb[3] *694:4 0.5 
2 *694:4 *694:6 176.324 
3 *694:6 *694:8 0.5 
4 *694:8 *694:10 523.875 
5 *694:10 gpio_oeb[3] 11.052 
*END

*D_NET *695 0.449219
*CONN
*P gpio_oeb[40] O
*I *921:gpio_oeb[40] O *D CF_CARAVEL_SOC
*CAP
1 gpio_oeb[40] 0.000109386
2 *921:gpio_oeb[40] 0.00379746
3 *695:75 0.0181492
4 *695:73 0.0185488
5 *695:67 0.00180995
6 *695:65 0.00130101
7 *695:63 0.00619388
8 *695:61 0.0117972
9 *695:55 0.0362121
10 *695:53 0.0333098
11 *695:35 0.0155192
12 *695:33 0.013417
13 *695:27 0.00650728
14 *695:25 0.00970599
15 *695:25 *696:21 0
16 *695:25 *740:21 0.00342629
17 *695:25 *742:32 0.000837001
18 *695:25 *789:23 0
19 *695:27 *740:23 0.00842823
20 *695:33 *740:29 0.000252571
21 *695:35 *696:31 0.00149694
22 *695:35 *740:57 0.00744956
23 *695:35 *741:72 0
24 *695:53 *696:31 0.000830909
25 *695:53 *696:39 0.000164898
26 *695:53 *741:72 0
27 *695:53 *741:82 0.000872228
28 *695:53 *742:96 0.000727389
29 *695:55 *696:43 0
30 *695:55 *741:98 0.0037265
31 *695:55 *741:112 0
32 *695:55 *742:96 4.68341e-05
33 *695:61 *696:61 0
34 *695:61 *742:118 0
35 *695:63 *696:61 0
36 *695:63 *697:103 0.00599703
37 *695:67 *844:13 0.0101729
38 *695:75 *742:120 0.026972
39 *120:15 *695:75 0.0943356
40 *251:15 *695:75 0.0192381
41 *300:19 *695:67 0.0101718
42 *533:136 *695:53 0.00028069
43 *533:136 *695:55 0.000160228
44 *533:156 *695:35 0
45 *533:156 *695:53 0.000943256
46 *533:180 *695:35 0
47 *536:81 *695:55 0.00328465
48 *536:119 *695:35 0.00379909
49 *536:119 *695:53 0.00169763
50 *537:80 *695:63 0.000400867
51 *537:86 *695:53 0.000996665
52 *537:86 *695:55 0
53 *537:108 *695:35 0
54 *537:116 *695:27 0.00105663
55 *538:79 *695:55 0.00366654
56 *538:109 *695:55 0.0216222
57 *538:145 *695:25 5.94831e-05
58 *563:14 *695:67 0.00245228
59 *692:35 *695:75 0.0372741
*RES
1 *921:gpio_oeb[40] *695:25 37.1711 
2 *695:25 *695:27 160.755 
3 *695:27 *695:33 2.64033 
4 *695:33 *695:35 50.6084 
5 *695:35 *695:53 14.6692 
6 *695:53 *695:55 105.379 
7 *695:55 *695:61 15.8669 
8 *695:61 *695:63 128.753 
9 *695:63 *695:65 2 
10 *695:65 *695:67 93.6 
11 *695:67 *695:73 9.6175 
12 *695:73 *695:75 142.908 
13 *695:75 gpio_oeb[40] 2.1575 
*END

*D_NET *696 0.361774
*CONN
*P gpio_oeb[41] O
*I *921:gpio_oeb[41] O *D CF_CARAVEL_SOC
*CAP
1 gpio_oeb[41] 0.00201494
2 *921:gpio_oeb[41] 0.00356992
3 *696:163 0.0047015
4 *696:147 0.00422745
5 *696:145 0.0037042
6 *696:125 0.00426646
7 *696:117 0.00379282
8 *696:103 0.00267218
9 *696:95 0.0057801
10 *696:93 0.00678466
11 *696:71 0.00324222
12 *696:69 0.00125515
13 *696:67 0.00381048
14 *696:65 0.00424416
15 *696:61 0.00691634
16 *696:43 0.0263601
17 *696:41 0.0198774
18 *696:39 0.0111749
19 *696:31 0.0257502
20 *696:29 0.0150579
21 *696:23 0.0052583
22 *696:21 0.00834555
23 *696:21 *742:32 6.88908e-05
24 *696:23 *697:11 0.0126049
25 *696:31 *740:57 0.00743149
26 *696:31 *741:72 0.000729712
27 *696:39 *741:72 0.000296902
28 *696:43 *697:85 0.00223102
29 *696:43 *697:93 0
30 *696:43 *741:112 0.00148917
31 *696:67 *741:124 0.000358897
32 *696:93 *826:119 0.000557195
33 *696:95 *740:95 0.00242475
34 *696:103 *740:145 7.68414e-06
35 *696:103 *740:155 0.00310838
36 *696:125 *740:169 0
37 *696:125 *826:63 4.82919e-05
38 *696:125 *826:77 1.88904e-05
39 *696:163 *826:47 0.000583754
40 *118:39 *696:95 0.00256867
41 *118:57 *696:95 0.00193115
42 *118:69 *696:95 0.000349231
43 *118:75 *696:95 0.00639741
44 *118:93 *696:103 0.000106873
45 *118:93 *696:117 0.00095299
46 *118:133 *696:163 0.000253888
47 *125:15 *696:95 0.000147751
48 *322:61 *696:93 0.0016947
49 *322:149 *696:145 4.13249e-05
50 *325:57 *696:103 0
51 *338:33 *696:117 0.000771062
52 *386:139 *696:147 0.00974443
53 *386:153 *696:145 0.000152609
54 *386:157 *696:125 0
55 *386:157 *696:145 0
56 *386:161 *696:125 0.00140028
57 *397:109 *696:117 4.33071e-05
58 *397:109 *696:125 6.06593e-05
59 *397:109 *696:145 8.3907e-05
60 *408:95 *696:93 0.000275553
61 *419:93 *696:145 3.37406e-06
62 *419:93 *696:147 0.00177453
63 *419:117 *696:145 1.43805e-05
64 *444:23 *696:95 1.03423e-05
65 *444:37 *696:95 0.000751877
66 *444:53 *696:95 0.00130876
67 *530:25 *696:145 0.00074333
68 *530:29 *696:125 5.83121e-06
69 *530:41 *696:117 7.08673e-05
70 *530:41 *696:145 1.61696e-05
71 *530:43 *696:103 2.72392e-05
72 *530:77 *696:93 0
73 *532:16 *696:95 0.00369483
74 *533:36 *696:125 2.30292e-05
75 *533:36 *696:145 0.00183391
76 *533:52 *696:103 0.000458069
77 *533:52 *696:117 0.00207123
78 *533:52 *696:125 3.34179e-05
79 *533:110 *696:71 0.0104953
80 *533:122 *696:61 0.000194387
81 *533:180 *696:23 0.000578935
82 *535:33 *696:103 0.000903432
83 *535:33 *696:145 0.000104132
84 *535:113 *696:71 0.000126741
85 *536:65 *696:61 0
86 *536:79 *696:61 0.00188301
87 *536:89 *696:39 0.0241065
88 *536:119 *696:31 0.00370795
89 *537:48 *696:93 0.000204021
90 *537:56 *696:93 0.00499917
91 *537:58 *696:71 0.010194
92 *537:80 *696:61 5.35797e-05
93 *537:80 *696:67 0.00103723
94 *537:84 *696:65 5.58964e-05
95 *537:108 *696:31 0.00143522
96 *537:118 *696:21 0
97 *539:11 *696:145 9.4087e-05
98 *539:17 *696:145 0
99 *539:31 *696:145 0.00473564
100 *539:35 *696:147 0.00340876
101 *539:49 *696:163 0.000123403
102 *539:53 *696:163 4.14843e-05
103 *540:24 *696:117 0.000260155
104 *540:24 *696:145 0.000543242
105 *540:24 *696:163 0.000867859
106 *540:32 *696:95 0.00180604
107 *551:33 *696:163 0
108 *551:41 *696:147 0.00161452
109 *551:77 *696:125 1.03323e-05
110 *551:79 *696:103 0.0026885
111 *551:121 *696:71 0.00223932
112 *551:121 *696:93 0.000650849
113 *562:33 *696:163 0
114 *562:57 *696:125 1.19928e-05
115 *562:57 *696:145 3.60648e-06
116 *562:65 *696:125 0.00102332
117 *562:89 *696:103 0.000293619
118 *562:117 *696:93 0
119 *562:119 *696:93 0.000132257
120 *569:18 *696:95 0.0316371
121 *569:18 *696:145 0.00128892
122 *570:12 *696:163 0.000166744
123 *572:14 *696:163 0.000976347
124 *695:25 *696:21 0
125 *695:35 *696:31 0.00149694
126 *695:53 *696:31 0.000830909
127 *695:53 *696:39 0.000164898
128 *695:55 *696:43 0
129 *695:61 *696:61 0
130 *695:63 *696:61 0
*RES
1 *921:gpio_oeb[41] *696:21 39.6912 
2 *696:21 *696:23 139.335 
3 *696:23 *696:29 2.349 
4 *696:29 *696:31 59.4827 
5 *696:31 *696:39 49.8899 
6 *696:39 *696:41 0.5 
7 *696:41 *696:43 62.054 
8 *696:43 *696:61 49.0313 
9 *696:61 *696:65 1.70333 
10 *696:65 *696:67 70.3575 
11 *696:67 *696:69 2 
12 *696:69 *696:71 94.635 
13 *696:71 *696:93 34.2815 
14 *696:93 *696:95 285.42 
15 *696:95 *696:103 49.015 
16 *696:103 *696:117 19.3951 
17 *696:117 *696:125 46.2425 
18 *696:125 *696:145 46.1375 
19 *696:145 *696:147 88.08 
20 *696:147 *696:163 28.6728 
21 *696:163 gpio_oeb[41] 27.4125 
*END

*D_NET *697 0.354672
*CONN
*P gpio_oeb[42] O
*I *921:gpio_oeb[42] O *D CF_CARAVEL_SOC
*CAP
1 gpio_oeb[42] 0.000292751
2 *921:gpio_oeb[42] 0.00107904
3 *697:115 0.00917284
4 *697:113 0.0110248
5 *697:109 0.00409495
6 *697:103 0.00308575
7 *697:101 0.0054511
8 *697:95 0.00894044
9 *697:93 0.0211073
10 *697:85 0.0196184
11 *697:81 0.012219
12 *697:73 0.0132108
13 *697:47 0.0064067
14 *697:39 0.00753466
15 *697:37 0.00815779
16 *697:11 0.0130637
17 *697:9 0.0112407
18 *697:11 *740:31 0
19 *697:37 *740:57 0.00100901
20 *697:37 *742:48 0.000121406
21 *697:37 *742:72 3.32811e-05
22 *697:39 *741:26 0
23 *697:47 *741:40 0.00378845
24 *697:47 *742:72 0.0017486
25 *697:73 *741:40 0.00088633
26 *697:73 *741:82 0.00014103
27 *697:73 *742:72 0.00512476
28 *697:73 *742:96 0.0011817
29 *697:81 *741:82 0.0108254
30 *697:81 *742:96 0.000107484
31 *697:85 *742:96 9.96046e-05
32 *697:95 *742:108 0.00192307
33 *697:109 *740:81 0.0113567
34 *697:113 *740:85 0.000641299
35 *697:115 gpio_out[42] 0.0120507
36 *697:115 *698:27 0.0249116
37 *697:115 *741:128 0.0219126
38 *697:115 *742:120 0.00173348
39 *697:115 *848:11 0.00935994
40 *697:115 *857:11 0.000709867
41 *697:115 *863:11 0.000650658
42 *697:115 *867:11 0.00121499
43 gpio_analog_sel[43] *697:109 0.00280618
44 gpio_dm0[43] *697:115 0.00205802
45 *118:33 *697:109 0.00171827
46 *125:15 *697:109 0.00195497
47 *207:31 *697:115 0.00432217
48 *252:15 *697:115 0.0027007
49 *322:39 *697:109 0.000297864
50 *529:9 *697:109 1.94009e-05
51 *533:114 *697:103 0.0050393
52 *533:120 *697:101 0
53 *533:122 *697:93 0
54 *533:156 *697:73 0.00239087
55 *533:172 *697:37 0
56 *533:180 *697:11 0.00137361
57 *536:63 *697:109 0.00247475
58 *536:119 *697:73 0.00184232
59 *536:121 *697:47 0
60 *536:143 *697:37 3.4493e-05
61 *537:80 *697:103 0.000265869
62 *537:86 *697:73 0.000572829
63 *537:86 *697:81 0
64 *537:108 *697:73 0.00260376
65 *537:116 *697:37 0.00023629
66 *538:121 *697:73 0.00190816
67 *538:129 *697:73 0.000903886
68 *549:13 *697:115 0.00141998
69 *559:17 *697:113 0.00105085
70 *692:27 *697:115 0.0058911
71 *692:35 *697:115 0.0227208
72 *695:63 *697:103 0.00599703
73 *696:23 *697:11 0.0126049
74 *696:43 *697:85 0.00223102
75 *696:43 *697:93 0
*RES
1 *921:gpio_oeb[42] *697:9 17.82 
2 *697:9 *697:11 236.88 
3 *697:11 *697:37 22.055 
4 *697:37 *697:39 95.475 
5 *697:39 *697:47 49.9131 
6 *697:47 *697:73 26.7722 
7 *697:73 *697:81 40.8645 
8 *697:81 *697:85 12.3779 
9 *697:85 *697:93 48.6685 
10 *697:93 *697:95 83.235 
11 *697:95 *697:101 12.3417 
12 *697:101 *697:103 66.915 
13 *697:103 *697:109 17.7023 
14 *697:109 *697:113 36.815 
15 *697:113 *697:115 72.5217 
16 *697:115 gpio_oeb[42] 4.6175 
*END

*D_NET *698 0.398051
*CONN
*P gpio_oeb[43] O
*I *921:gpio_oeb[43] O *D CF_CARAVEL_SOC
*CAP
1 gpio_oeb[43] 0.000354758
2 *921:gpio_oeb[43] 0.00528746
3 *698:27 0.0145335
4 *698:25 0.0141787
5 *698:23 0.0212521
6 *698:21 0.0250951
7 *698:15 0.0168753
8 *698:13 0.0183198
9 *698:13 *789:23 0.000516001
10 *698:21 gpio_vtrip_sel[3] 3.9804e-05
11 *698:27 *741:128 0.00578294
12 *698:27 *742:120 0.00219621
13 *698:27 *848:11 0.00561452
14 *698:27 *867:11 0.0116238
15 gpio_dm0[43] *698:27 0.000446481
16 *92:11 *698:23 0.000746853
17 *106:9 *698:21 0.000131664
18 *120:15 *698:27 0.00229809
19 *159:15 *698:13 0.00525694
20 *196:11 *698:15 0.029414
21 *204:31 *698:13 0
22 *230:11 *698:15 0
23 *252:15 *698:27 0.0220265
24 *274:125 *698:13 0.000126737
25 *283:11 *698:15 0.0455925
26 *337:39 *698:13 0.000715468
27 *443:19 *698:23 0.00294998
28 *483:19 *698:23 0
29 *538:53 *698:27 0.0107983
30 *549:13 *698:27 0.00162243
31 *569:22 *698:23 0.012143
32 *570:26 *698:23 0.000874353
33 *572:28 *698:23 0.0073296
34 *661:19 *698:23 0.0454011
35 *672:15 *698:23 0.0300732
36 *692:13 *698:13 0.00804777
37 *692:27 *698:27 0.00547431
38 *692:33 gpio_oeb[43] 0
39 *697:115 *698:27 0.0249116
*RES
1 *921:gpio_oeb[43] *698:13 20.5979 
2 *698:13 *698:15 527.445 
3 *698:15 *698:21 8.43787 
4 *698:21 *698:23 775.815 
5 *698:23 *698:25 0.5 
6 *698:25 *698:27 81.6696 
7 *698:27 gpio_oeb[43] 5.2475 
*END

*D_NET *699 0.380928
*CONN
*P gpio_oeb[4] O
*I *921:gpio_oeb[4] O *D CF_CARAVEL_SOC
*CAP
1 gpio_oeb[4] 0.00651985
2 *921:gpio_oeb[4] 0
3 *699:10 0.0149281
4 *699:8 0.00840829
5 *699:6 0.0202722
6 *699:4 0.0202722
7 gpio_oeb[4] gpio_vtrip_sel[4] 0
8 *699:6 *700:6 0.0022253
9 *699:6 *741:6 0.0951777
10 *699:6 *742:6 0.000316824
11 *699:10 *700:10 0.0097237
12 *699:10 *744:15 0.0183256
13 gpio_ib_mode_sel[4] gpio_oeb[4] 0
14 *183:17 *699:6 0.00551574
15 *204:33 *699:6 0.0257524
16 *206:21 *699:10 0.00421564
17 *314:19 *699:10 0
18 *337:19 *699:10 0
19 *352:11 *699:10 0.00556473
20 *480:11 *699:10 0.00979539
21 *534:15 *699:10 0.0023294
22 *690:11 *699:6 0.0194385
23 *693:11 *699:6 0.000212565
24 *694:6 *699:6 0.111934
*RES
1 *921:gpio_oeb[4] *699:4 0.5 
2 *699:4 *699:6 170.148 
3 *699:6 *699:8 0.5 
4 *699:8 *699:10 358.635 
5 *699:10 gpio_oeb[4] 12.5264 
*END

*D_NET *700 0.307966
*CONN
*P gpio_oeb[5] O
*I *921:gpio_oeb[5] O *D CF_CARAVEL_SOC
*CAP
1 gpio_oeb[5] 0.00666153
2 *921:gpio_oeb[5] 0
3 *700:10 0.010727
4 *700:8 0.00406544
5 *700:6 0.0199774
6 *700:4 0.0199774
7 *700:6 *701:11 0.10567
8 *700:6 *742:6 0.0929824
9 *700:10 *744:15 3.99774e-05
10 gpio_ib_mode_sel[5] gpio_oeb[5] 0.000353657
11 *97:15 *700:6 0.013605
12 *139:17 *700:6 0.000345022
13 *183:17 *700:6 0.0103648
14 *314:19 *700:10 0.00620052
15 *337:19 *700:10 0.0014907
16 *351:11 *700:10 0.00355625
17 *699:6 *700:6 0.0022253
18 *699:10 *700:10 0.0097237
*RES
1 *921:gpio_oeb[5] *700:4 0.5 
2 *700:4 *700:6 166.069 
3 *700:6 *700:8 0.5 
4 *700:8 *700:10 189.315 
5 *700:10 gpio_oeb[5] 12.7645 
*END

*D_NET *701 0.212403
*CONN
*P gpio_oeb[6] O
*I *921:gpio_oeb[6] O *D CF_CARAVEL_SOC
*CAP
1 gpio_oeb[6] 0.00714647
2 *921:gpio_oeb[6] 0.000110185
3 *701:11 0.0375173
4 *701:9 0.030481
5 *701:11 *744:11 0.0177885
6 gpio_ib_mode_sel[6] gpio_oeb[6] 0.00275408
7 *139:17 *701:11 0.00844598
8 *241:17 gpio_oeb[6] 0
9 *280:19 gpio_oeb[6] 0.000307182
10 *316:11 gpio_oeb[6] 0.00218222
11 *483:11 gpio_oeb[6] 0
12 *700:6 *701:11 0.10567
*RES
1 *921:gpio_oeb[6] *701:9 2.375 
2 *701:9 *701:11 160.621 
3 *701:11 gpio_oeb[6] 38.8497 
*END

*D_NET *702 0.198405
*CONN
*P gpio_oeb[7] O
*I *921:gpio_oeb[7] O *D CF_CARAVEL_SOC
*CAP
1 gpio_oeb[7] 0.000120987
2 *921:gpio_oeb[7] 8.11047e-05
3 *702:13 0.0626777
4 *702:11 0.0625567
5 *702:9 0.0357228
6 *702:7 0.0358039
7 *702:13 *834:15 0
8 gpio_ib_mode_sel[7] *702:13 0.000781785
9 *140:179 *702:13 0.000659567
*RES
1 *921:gpio_oeb[7] *702:7 1.35 
2 *702:7 *702:9 638.115 
3 *702:9 *702:11 0.5 
4 *702:11 *702:13 169.137 
5 *702:13 gpio_oeb[7] 0.3477 
*END

*D_NET *703 0.290509
*CONN
*P gpio_oeb[8] O
*I *920:count_oeb[0] O *D counter_macro
*CAP
1 gpio_oeb[8] 4.16513e-05
2 *920:count_oeb[0] 1.23933e-05
3 *703:11 0.11897
4 *703:9 0.118929
5 *703:7 0.0262716
6 *703:5 0.026284
7 *703:11 *835:15 0
8 gpio_ib_mode_sel[8] *703:11 0
*RES
1 *920:count_oeb[0] *703:5 0.225 
2 *703:5 *703:7 472.365 
3 *703:7 *703:9 0.5 
4 *703:9 *703:11 324.359 
5 *703:11 gpio_oeb[8] 0.1197 
*END

*D_NET *704 0.313919
*CONN
*P gpio_oeb[9] O
*I *920:count_oeb[1] O *D counter_macro
*CAP
1 gpio_oeb[9] 0.00136048
2 *920:count_oeb[1] 1.23933e-05
3 *704:11 0.115883
4 *704:9 0.114522
5 *704:7 0.035468
6 *704:5 0.0354804
7 *704:11 *836:15 0
8 gpio_ib_mode_sel[9] gpio_oeb[9] 0.000570331
9 gpio_ib_mode_sel[9] *704:11 0.0106223
10 *268:11 gpio_oeb[9] 0
11 *311:11 gpio_oeb[9] 0
*RES
1 *920:count_oeb[1] *704:5 0.225 
2 *704:5 *704:7 638.115 
3 *704:7 *704:9 0.5 
4 *704:9 *704:11 320.213 
5 *704:11 gpio_oeb[9] 6.03743 
*END

*D_NET *705 0.9403
*CONN
*P gpio_out[0] O
*I *921:gpio_out[0] O *D CF_CARAVEL_SOC
*CAP
1 gpio_out[0] 0.00502581
2 *921:gpio_out[0] 0.11004
3 *705:39 0.0207373
4 *705:37 0.0157115
5 *705:35 0.0237874
6 *705:33 0.133827
7 gpio_out[0] gpio_vtrip_sel[0] 0
8 *705:33 *736:21 4.20804e-05
9 *705:33 *745:11 0.00127986
10 *705:33 *764:21 0.000911508
11 *705:33 *831:31 0.0148191
12 *705:33 *832:39 0.0454352
13 *705:39 *716:15 0.0791438
14 gpio_dm2[0] gpio_out[0] 0
15 gpio_holdover[0] gpio_out[0] 0
16 *104:31 *705:35 0
17 *114:23 *705:33 0.0166597
18 *117:39 *705:33 0.0342262
19 *193:37 *705:35 0.0707351
20 *193:61 *705:33 8.44688e-05
21 *203:15 *705:33 0.0462829
22 *205:53 *705:33 0.0454053
23 *205:53 *705:35 0.0165174
24 *226:11 *705:39 0.00113242
25 *246:9 gpio_out[0] 0
26 *247:11 *705:39 0
27 *283:15 *705:35 0.00570324
28 *286:39 *705:33 0.0324894
29 *308:11 *705:39 0.0128017
30 *322:317 *705:33 0
31 *392:23 *705:33 0.0335994
32 *407:25 *705:33 0.00460743
33 *442:11 *705:39 0.0948378
34 *445:19 *705:39 0.00885592
35 *688:11 *705:33 1.19249e-05
36 *689:11 *705:33 0.0253684
37 *691:11 *705:33 0.0402202
*RES
1 *921:gpio_out[0] *705:33 38.4826 
2 *705:33 *705:35 670.095 
3 *705:35 *705:37 2 
4 *705:37 *705:39 1056.7 
5 *705:39 gpio_out[0] 10.715 
*END

*D_NET *706 0.378281
*CONN
*P gpio_out[10] O
*I *920:count[2] O *D counter_macro
*CAP
1 gpio_out[10] 4.87034e-05
2 *920:count[2] 1.23933e-05
3 *706:11 0.12669
4 *706:9 0.126642
5 *706:7 0.0289959
6 *706:5 0.0290083
7 *706:11 *794:15 0
8 gpio_dm2[10] *706:11 0
9 gpio_holdover[10] *706:11 0
10 gpio_oeb[22] *706:7 0.0663492
11 *537:188 *706:11 0.00053468
*RES
1 *920:count[2] *706:5 0.225 
2 *706:5 *706:7 798.765 
3 *706:7 *706:9 0.5 
4 *706:9 *706:11 346.384 
5 *706:11 gpio_out[10] 0.139967 
*END

*D_NET *707 0.496966
*CONN
*P gpio_out[11] O
*I *920:count[3] O *D counter_macro
*CAP
1 gpio_out[11] 0.00285279
2 *920:count[3] 1.23933e-05
3 *707:11 0.079262
4 *707:9 0.0764092
5 *707:7 0.0535273
6 *707:5 0.0535397
7 *707:7 gpio_out[22] 0
8 gpio_holdover[11] gpio_out[11] 0.000274019
9 *355:15 gpio_out[11] 0
10 *355:15 *707:11 0.231089
*RES
1 *920:count[3] *707:5 0.225 
2 *707:5 *707:7 964.515 
3 *707:7 *707:9 0.5 
4 *707:9 *707:11 339.645 
5 *707:11 gpio_out[11] 5.8881 
*END

*D_NET *708 0.566694
*CONN
*P gpio_out[12] O
*I *920:count[4] O *D counter_macro
*CAP
1 gpio_out[12] 0.0022078
2 *920:count[4] 1.23933e-05
3 *708:11 0.0780575
4 *708:9 0.0758497
5 *708:7 0.0403262
6 *708:5 0.0403386
7 gpio_out[12] *796:15 0
8 *708:11 *796:15 0
9 gpio_analog_sel[22] *708:7 0.0980891
10 gpio_holdover[12] gpio_out[12] 0.00171587
11 gpio_holdover[12] *708:11 0.230097
*RES
1 *920:count[4] *708:5 0.225 
2 *708:5 *708:7 1135.36 
3 *708:7 *708:9 0.5 
4 *708:9 *708:11 338.072 
5 *708:11 gpio_out[12] 5.53343 
*END

*D_NET *709 0.444168
*CONN
*P gpio_out[13] O
*I *920:count[5] O *D counter_macro
*CAP
1 gpio_out[13] 0.129116
2 *920:count[5] 1.23933e-05
3 *709:14 0
4 *709:9 0.129116
5 *709:7 0.0545571
6 *709:5 0.0545695
7 gpio_out[13] *797:23 0
8 gpio_analog_pol[22] *709:7 0
9 gpio_dm2[13] gpio_out[13] 0
10 gpio_holdover[13] gpio_out[13] 0
11 *357:23 gpio_out[13] 0
12 *543:47 *709:7 0.0767975
*RES
1 *920:count[5] *709:5 0.225 
2 *709:5 *709:7 1471.45 
3 *709:7 *709:9 0.5 
4 *709:9 gpio_out[13] 341.664 
5 gpio_out[13] *709:14 0.0616216 
*END

*D_NET *710 0.583401
*CONN
*P gpio_out[14] O
*I *920:count[6] O *D counter_macro
*CAP
1 gpio_out[14] 0.00253042
2 *920:count[6] 1.23933e-05
3 *710:11 0.0773541
4 *710:9 0.0748237
5 *710:7 0.0998928
6 *710:5 0.0999052
7 gpio_analog_en[22] *710:7 0
8 gpio_dm1[22] *710:7 0
9 *105:31 *710:11 0
10 *358:23 gpio_out[14] 0.000803084
11 *358:23 *710:11 0.22808
*RES
1 *920:count[6] *710:5 0.225 
2 *710:5 *710:7 1802.95 
3 *710:7 *710:9 0.5 
4 *710:9 *710:11 334.926 
5 *710:11 gpio_out[14] 5.77157 
*END

*D_NET *711 0.437241
*CONN
*P gpio_out[15] O
*I *920:count[7] O *D counter_macro
*CAP
1 gpio_out[15] 8.17048e-05
2 *920:count[7] 1.23933e-05
3 *711:15 0.00516348
4 *711:13 0.00508177
5 *711:11 0.111724
6 *711:9 0.111724
7 *711:7 0.101721
8 *711:5 0.101733
9 *711:11 *712:11 0
10 gpio_holdover[15] gpio_out[15] 0
*RES
1 *920:count[7] *711:5 0.225 
2 *711:5 *711:7 1835.59 
3 *711:7 *711:9 0.5 
4 *711:9 *711:11 309.725 
5 *711:11 *711:13 0.5 
6 *711:13 *711:15 88.845 
7 *711:15 gpio_out[15] 1.35 
*END

*D_NET *712 0.389183
*CONN
*P gpio_out[16] O
*I *920:count[8] O *D counter_macro
*CAP
1 gpio_out[16] 0.00524126
2 *920:count[8] 1.23933e-05
3 *712:13 0.00524126
4 *712:11 0.0879019
5 *712:9 0.0879019
6 *712:7 0.101436
7 *712:5 0.101448
8 gpio_holdover[16] gpio_out[16] 0
9 *455:5 *712:7 0
10 *711:11 *712:11 0
*RES
1 *920:count[8] *712:5 0.225 
2 *712:5 *712:7 1830.49 
3 *712:7 *712:9 0.5 
4 *712:9 *712:11 243.709 
5 *712:11 *712:13 0.5 
6 *712:13 gpio_out[16] 94.9125 
*END

*D_NET *713 0.364852
*CONN
*P gpio_out[17] O
*I *920:count[9] O *D counter_macro
*CAP
1 gpio_out[17] 0.0932389
2 *920:count[9] 1.23933e-05
3 *713:13 0.0932389
4 *713:11 0.0757079
5 *713:9 0.0757079
6 *713:7 0.013467
7 *713:5 0.0134794
8 gpio_holdover[17] gpio_out[17] 0
9 *192:15 *713:11 0
*RES
1 *920:count[9] *713:5 0.225 
2 *713:5 *713:7 241.845 
3 *713:7 *713:9 0.5 
4 *713:9 *713:11 209.565 
5 *713:11 *713:13 0.5 
6 *713:13 gpio_out[17] 1683.56 
*END

*D_NET *714 0.323192
*CONN
*P gpio_out[18] O
*I *920:count[10] O *D counter_macro
*CAP
1 gpio_out[18] 0.0995552
2 *920:count[10] 1.23933e-05
3 *714:13 0.0995552
4 *714:11 0.0548799
5 *714:9 0.0548799
6 *714:7 0.00714854
7 *714:5 0.00716093
8 gpio_holdover[18] gpio_out[18] 0
*RES
1 *920:count[10] *714:5 0.225 
2 *714:5 *714:7 128.115 
3 *714:7 *714:9 0.5 
4 *714:9 *714:11 151.648 
5 *714:11 *714:13 0.5 
6 *714:13 gpio_out[18] 1797.29 
*END

*D_NET *715 0.280521
*CONN
*P gpio_out[19] O
*I *920:count[11] O *D counter_macro
*CAP
1 gpio_out[19] 0.106841
2 *920:count[11] 0
3 *715:8 0.106841
4 *715:6 0.0272501
5 *715:4 0.0272501
6 *715:6 *719:8 0.00320708
7 gpio_holdover[19] gpio_out[19] 0
8 *454:13 *715:6 0.00913235
*RES
1 *920:count[11] *715:4 0.5 
2 *715:4 *715:6 85.6026 
3 *715:6 *715:8 0.5 
4 *715:8 gpio_out[19] 1927.34 
*END

*D_NET *716 0.772661
*CONN
*P gpio_out[1] O
*I *921:gpio_out[1] O *D CF_CARAVEL_SOC
*CAP
1 gpio_out[1] 0.00494814
2 *921:gpio_out[1] 0.000379348
3 *716:15 0.018842
4 *716:13 0.0138938
5 *716:11 0.0315633
6 *716:9 0.0319427
7 gpio_out[1] gpio_vtrip_sel[1] 0.000673901
8 *716:9 *808:27 0
9 *716:11 *744:11 0.00438759
10 *716:15 *727:15 0.0222657
11 *716:15 *788:55 0.00816916
12 gpio_dm2[1] gpio_out[1] 0
13 gpio_holdover[1] gpio_out[1] 0
14 *115:15 *716:11 0.000709488
15 *163:23 *716:11 0.233438
16 *247:11 *716:15 0
17 *288:9 gpio_out[1] 0
18 *291:15 *716:11 0.00110946
19 *308:11 *716:15 0.0134806
20 *393:23 *716:11 0.22697
21 *445:19 *716:15 0.0319197
22 *541:131 *716:11 0.000353226
23 *688:11 *716:11 0.0441665
24 *693:19 *716:11 0.0043044
25 *705:39 *716:15 0.0791438
*RES
1 *921:gpio_out[1] *716:9 7.0625 
2 *716:9 *716:11 2183.96 
3 *716:11 *716:13 2 
4 *716:13 *716:15 881.513 
5 *716:15 gpio_out[1] 10.8848 
*END

*D_NET *717 0.250196
*CONN
*P gpio_out[20] O
*I *920:count[12] O *D counter_macro
*CAP
1 gpio_out[20] 9.87705e-05
2 *920:count[12] 1.23933e-05
3 *717:15 0.00445381
4 *717:13 0.00435504
5 *717:11 0.018327
6 *717:9 0.018327
7 *717:7 0.102305
8 *717:5 0.102317
9 gpio_holdover[20] gpio_out[20] 0
10 gpio_holdover[20] *717:15 0
*RES
1 *920:count[12] *717:5 0.225 
2 *717:5 *717:7 1845.8 
3 *717:7 *717:9 0.5 
4 *717:9 *717:11 51.3709 
5 *717:11 *717:13 0.5 
6 *717:13 *717:15 78.645 
7 *717:15 gpio_out[20] 1.35 
*END

*D_NET *718 0.225634
*CONN
*P gpio_out[21] O
*I *920:count[13] O *D counter_macro
*CAP
1 gpio_out[21] 0.00217016
2 *920:count[13] 1.23933e-05
3 *718:13 0.00818983
4 *718:7 0.110634
5 *718:5 0.104627
6 gpio_holdover[21] gpio_out[21] 0
*RES
1 *920:count[13] *718:5 0.225 
2 *718:5 *718:7 1887.61 
3 *718:7 *718:13 18.2267 
4 *718:13 gpio_out[21] 38.175 
*END

*D_NET *719 0.234517
*CONN
*P gpio_out[22] O
*I *920:count[14] O *D counter_macro
*CAP
1 gpio_out[22] 0.1068
2 *920:count[14] 0.00306808
3 *719:8 0.109868
4 *454:13 *719:8 0.0115749
5 *539:423 gpio_out[22] 0
6 *707:7 gpio_out[22] 0
7 *715:6 *719:8 0.00320708
*RES
1 *920:count[14] *719:8 17.9645 
2 *719:8 gpio_out[22] 1926.83 
*END

*D_NET *720 0.267196
*CONN
*P gpio_out[23] O
*I *920:count[15] O *D counter_macro
*CAP
1 gpio_out[23] 0.00208701
2 *920:count[15] 6.29795e-05
3 *720:13 0.106639
4 *720:11 0.104552
5 *720:9 0.00839166
6 *720:7 0.00845464
7 *720:9 *807:17 0.00491991
8 gpio_holdover[23] gpio_out[23] 0
9 *103:15 *720:9 0.0023407
10 *147:17 *720:9 0
11 *322:363 *720:13 0
12 *455:11 *720:9 0.00172457
13 *539:269 *720:9 0.000619048
14 *542:51 *720:9 0.00336933
15 *543:45 *720:9 0.0240359
16 *679:13 *720:9 0
*RES
1 *920:count[15] *720:7 1.5725 
2 *720:7 *720:9 51.1087 
3 *720:9 *720:11 0.5 
4 *720:11 *720:13 1889.19 
5 *720:13 gpio_out[23] 36.0975 
*END

*D_NET *721 0.325656
*CONN
*P gpio_out[24] O
*I *921:gpio_out[24] O *D CF_CARAVEL_SOC
*CAP
1 gpio_out[24] 0.000284948
2 *921:gpio_out[24] 7.44918e-05
3 *721:13 0.0367868
4 *721:11 0.0365019
5 *721:9 0.11763
6 *721:7 0.117704
7 *721:13 gpio_vtrip_sel[24] 5.92809e-05
8 *721:13 *756:10 0.0166139
9 gpio_ib_mode_sel[24] *721:13 0
*RES
1 *921:gpio_out[24] *721:7 1.35 
2 *721:7 *721:9 2117.62 
3 *721:9 *721:11 0.5 
4 *721:11 *721:13 118.737 
5 *721:13 gpio_out[24] 0.8189 
*END

*D_NET *722 0.285947
*CONN
*P gpio_out[25] O
*I *921:gpio_out[25] O *D CF_CARAVEL_SOC
*CAP
1 gpio_out[25] 0.00884706
2 *921:gpio_out[25] 7.44918e-05
3 *722:17 0.0595333
4 *722:15 0.0506862
5 *722:13 0.0351662
6 *722:11 0.0351662
7 *722:9 0.0215938
8 *722:7 0.0216683
9 gpio_out[25] gpio_vtrip_sel[25] 0
10 gpio_holdover[25] gpio_out[25] 0.0011941
11 *189:19 *722:9 0.044232
12 *192:19 *722:17 0
13 *321:71 *722:9 0
14 *322:375 *722:17 0
15 *326:35 gpio_out[25] 0
16 *400:23 gpio_out[25] 0.00756907
17 *539:289 *722:13 0.000216558
*RES
1 *921:gpio_out[25] *722:7 1.35 
2 *722:7 *722:9 568.245 
3 *722:9 *722:11 0.5 
4 *722:11 *722:13 97.1685 
5 *722:13 *722:15 0.5 
6 *722:15 *722:17 914.025 
7 *722:17 gpio_out[25] 26.903 
*END

*D_NET *723 0.245636
*CONN
*P gpio_out[26] O
*I *921:gpio_out[26] O *D CF_CARAVEL_SOC
*CAP
1 gpio_out[26] 0.000129802
2 *921:gpio_out[26] 0.00264799
3 *723:21 0.0403545
4 *723:19 0.0402247
5 *723:17 0.071084
6 *723:15 0.0759091
7 *723:11 0.00747311
8 *723:11 *761:19 0
9 *723:21 gpio_vtrip_sel[26] 0
10 gpio_holdover[26] *723:21 0.00493855
11 *202:27 *723:15 0.00287393
12 *327:67 *723:21 0
13 *663:11 *723:21 0
*RES
1 *921:gpio_out[26] *723:11 42.245 
2 *723:11 *723:15 17.9597 
3 *723:15 *723:17 1281.22 
4 *723:17 *723:19 0.5 
5 *723:19 *723:21 109.706 
6 *723:21 gpio_out[26] 0.373033 
*END

*D_NET *724 0.232616
*CONN
*P gpio_out[27] O
*I *921:gpio_out[27] O *D CF_CARAVEL_SOC
*CAP
1 gpio_out[27] 0.00356766
2 *921:gpio_out[27] 7.44918e-05
3 *724:13 0.0496271
4 *724:11 0.0460594
5 *724:9 0.0625382
6 *724:7 0.0626127
7 gpio_holdover[27] gpio_out[27] 0.00354442
8 *240:15 gpio_out[27] 0.000999964
9 *366:11 gpio_out[27] 0
10 *545:15 gpio_out[27] 0.00359233
*RES
1 *921:gpio_out[27] *724:7 1.35 
2 *724:7 *724:9 1121.59 
3 *724:9 *724:11 0.5 
4 *724:11 *724:13 124.67 
5 *724:13 gpio_out[27] 47.6344 
*END

*D_NET *725 0.214404
*CONN
*P gpio_out[28] O
*I *921:gpio_out[28] O *D CF_CARAVEL_SOC
*CAP
1 gpio_out[28] 0.000240873
2 *921:gpio_out[28] 0.00506456
3 *725:19 0.0483836
4 *725:17 0.0481428
5 *725:15 0.0530094
6 *725:13 0.0530094
7 *725:11 0.00506456
8 *725:11 *730:17 0
9 *725:15 *761:19 0
10 *725:19 gpio_vtrip_sel[28] 0
11 *202:27 *725:11 0.00110912
12 *329:70 *725:19 0
13 *361:33 *725:11 0.000379214
*RES
1 *921:gpio_out[28] *725:11 49.5779 
2 *725:11 *725:13 0.5 
3 *725:13 *725:15 955.335 
4 *725:15 *725:17 0.5 
5 *725:17 *725:19 128.06 
6 *725:19 gpio_out[28] 0.692233 
*END

*D_NET *726 0.19927
*CONN
*P gpio_out[29] O
*I *921:gpio_out[29] O *D CF_CARAVEL_SOC
*CAP
1 gpio_out[29] 0.000161537
2 *921:gpio_out[29] 0.00351271
3 *726:21 0.0521667
4 *726:19 0.0520051
5 *726:17 0.0439555
6 *726:15 0.0474682
7 *726:15 *728:17 0
8 *726:21 gpio_vtrip_sel[29] 0
9 gpio_holdover[29] *726:21 0
10 *198:31 *726:21 0
11 *202:27 *726:15 0
12 *284:65 *726:21 0
*RES
1 *921:gpio_out[29] *726:15 47.3723 
2 *726:15 *726:17 792.135 
3 *726:17 *726:19 0.5 
4 *726:19 *726:21 137.674 
5 *726:21 gpio_out[29] 0.464233 
*END

*D_NET *727 0.734555
*CONN
*P gpio_out[2] O
*I *921:gpio_out[2] O *D CF_CARAVEL_SOC
*CAP
1 gpio_out[2] 0.00438722
2 *921:gpio_out[2] 0.000140592
3 *727:15 0.0161607
4 *727:13 0.0117734
5 *727:11 0.0303244
6 *727:9 0.030465
7 *727:11 *731:6 0.0182216
8 *727:11 *733:6 0.00183462
9 *727:11 *734:11 0.000575435
10 *727:11 *738:11 0.232097
11 *727:11 *739:6 0.0022837
12 *727:11 *740:11 0.00363665
13 *727:15 *738:15 0.0483365
14 *727:15 *788:55 0.00816686
15 gpio_dm2[2] gpio_out[2] 0
16 gpio_holdover[2] gpio_out[2] 0.00173876
17 *90:11 *727:15 0.00869226
18 *162:15 *727:11 0.234718
19 *247:11 *727:15 0
20 *308:11 *727:15 0.00176265
21 *326:9 gpio_out[2] 0.00101503
22 *436:23 *727:11 0.00107573
23 *445:19 *727:15 0.0169796
24 *562:123 *727:15 0.0135669
25 *694:6 *727:11 0.0243311
26 *694:10 *727:15 4.36573e-06
27 *716:15 *727:15 0.0222657
*RES
1 *921:gpio_out[2] *727:9 3.4925 
2 *727:9 *727:11 2159.8 
3 *727:11 *727:13 2 
4 *727:13 *727:15 710.153 
5 *727:15 gpio_out[2] 10.3312 
*END

*D_NET *728 0.188265
*CONN
*P gpio_out[30] O
*I *921:gpio_out[30] O *D CF_CARAVEL_SOC
*CAP
1 gpio_out[30] 0.000101813
2 *921:gpio_out[30] 0.00330886
3 *728:21 0.0519246
4 *728:19 0.0518228
5 *728:17 0.0352975
6 *728:15 0.0386063
7 gpio_holdover[30] *728:21 0.00470332
8 *200:15 *728:21 0
9 *202:27 *728:15 0.00249966
10 *726:15 *728:17 0
*RES
1 *921:gpio_out[30] *728:15 44.3555 
2 *728:15 *728:17 636.075 
3 *728:17 *728:19 0.5 
4 *728:19 *728:21 140.296 
5 *728:21 gpio_out[30] 0.236233 
*END

*D_NET *729 0.174652
*CONN
*P gpio_out[31] O
*I *921:gpio_out[31] O *D CF_CARAVEL_SOC
*CAP
1 gpio_out[31] 0.000358581
2 *921:gpio_out[31] 0.00290204
3 *729:21 0.0420652
4 *729:19 0.0417066
5 *729:17 0.0261094
6 *729:15 0.0290115
7 *729:21 gpio_vtrip_sel[31] 0
8 gpio_holdover[31] *729:21 0
9 gpio_ib_mode_sel[31] *729:21 0
10 *202:27 *729:15 0.00118158
11 *245:15 *729:21 0.0313174
12 *333:27 *729:21 0
*RES
1 *921:gpio_out[31] *729:15 42.4327 
2 *729:15 *729:17 470.835 
3 *729:17 *729:19 0.5 
4 *729:19 *729:21 146.414 
5 *729:21 gpio_out[31] 0.783433 
*END

*D_NET *730 0.201174
*CONN
*P gpio_out[32] O
*I *921:gpio_out[32] O *D CF_CARAVEL_SOC
*CAP
1 gpio_out[32] 7.23371e-05
2 *921:gpio_out[32] 0.00221809
3 *730:19 0.0281649
4 *730:17 0.0302913
5 *730:13 0.00441684
6 *730:13 *732:6 0.00594979
7 *730:13 *737:9 0.0107132
8 *730:19 *754:21 0.000746607
9 *730:19 *761:15 0
10 gpio_holdover[32] *730:19 0.000257419
11 *148:13 *730:19 0
12 *202:27 *730:19 0
13 *290:15 *730:19 0
14 *361:17 *730:19 0.00456674
15 *361:33 *730:19 0.0101283
16 *394:15 *730:19 0.0871876
17 *440:29 *730:19 0.0164609
18 *725:11 *730:17 0
*RES
1 *921:gpio_out[32] *730:13 18.7661 
2 *730:13 *730:17 35.285 
3 *730:17 *730:19 135.926 
4 *730:19 gpio_out[32] 0.160233 
*END

*D_NET *731 0.290535
*CONN
*P gpio_out[33] O
*I *921:gpio_out[33] O *D CF_CARAVEL_SOC
*CAP
1 gpio_out[33] 0.000471063
2 *921:gpio_out[33] 0
3 *731:18 0.00535288
4 *731:16 0.0142111
5 *731:6 0.0225213
6 *731:4 0.013192
7 *731:6 *733:6 0.0832144
8 *731:6 *734:11 0.0832201
9 *731:16 *734:11 7.9419e-06
10 *731:16 *833:21 0.00627576
11 *731:16 *833:23 0.00799759
12 gpio_holdover[33] gpio_out[33] 0.000466233
13 *159:15 *731:16 0.00207717
14 *161:15 *731:16 0.00441296
15 *162:15 *731:6 0.0199428
16 *204:33 *731:6 0.000203813
17 *204:43 *731:16 0
18 *322:315 *731:16 0.000101386
19 *337:39 *731:16 0.00208766
20 *378:11 *731:18 0
21 *379:18 gpio_out[33] 2.60489e-05
22 *466:11 *731:18 0.00586178
23 *539:187 *731:16 0.000101386
24 *693:27 *731:16 0.000568371
25 *727:11 *731:6 0.0182216
*RES
1 *921:gpio_out[33] *731:4 0.5 
2 *731:4 *731:6 126.098 
3 *731:6 *731:16 34.3025 
4 *731:16 *731:18 119.445 
5 *731:18 gpio_out[33] 1.58363 
*END

*D_NET *732 0.266401
*CONN
*P gpio_out[34] O
*I *921:gpio_out[34] O *D CF_CARAVEL_SOC
*CAP
1 gpio_out[34] 0.00542914
2 *921:gpio_out[34] 0
3 *732:10 0.00996804
4 *732:8 0.00453891
5 *732:6 0.0219949
6 *732:4 0.0219949
7 *732:6 *733:6 0.00567907
8 *732:6 *735:11 0.000112775
9 *732:6 *735:21 0.0120753
10 *732:6 *737:9 0.0204035
11 *732:6 *739:6 0.0849064
12 *732:10 *787:11 0.025752
13 gpio_dm2[34] gpio_out[34] 0.00141071
14 gpio_holdover[34] gpio_out[34] 0
15 *204:33 *732:6 0.00201669
16 *394:9 gpio_out[34] 0.00273041
17 *418:11 *732:10 0.00297962
18 *456:15 *732:6 0.00223697
19 *468:11 *732:10 0.00334541
20 *472:37 *732:6 0.0026449
21 *472:41 *732:6 0.0120812
22 *543:31 *732:10 0.00580042
23 *687:19 *732:10 0.0123498
24 *730:13 *732:6 0.00594979
*RES
1 *921:gpio_out[34] *732:4 0.5 
2 *732:4 *732:6 148.822 
3 *732:6 *732:8 0.5 
4 *732:8 *732:10 287.745 
5 *732:10 gpio_out[34] 12.425 
*END

*D_NET *733 0.363874
*CONN
*P gpio_out[35] O
*I *921:gpio_out[35] O *D CF_CARAVEL_SOC
*CAP
1 gpio_out[35] 0.0048715
2 *921:gpio_out[35] 0
3 *733:10 0.0211293
4 *733:8 0.0162578
5 *733:6 0.018724
6 *733:4 0.018724
7 gpio_out[35] *759:9 0.000212727
8 gpio_out[35] *761:9 0
9 *733:6 *734:11 0.00831087
10 *733:6 *735:21 0.000348446
11 *733:6 *739:6 0.0876663
12 *733:10 *736:37 0.000785364
13 *733:10 *753:11 0.00586055
14 *733:10 *832:19 0
15 gpio_holdover[35] gpio_out[35] 0.000651999
16 *162:15 *733:6 0.00322097
17 *204:33 *733:6 0.021023
18 *204:43 *733:6 0.0041517
19 *365:11 *733:10 0
20 *420:11 *733:10 0.00689338
21 *469:11 *733:10 0.00339393
22 *472:37 *733:6 0.0026472
23 *688:15 *733:10 0.026621
24 *690:11 *733:6 0.0215003
25 *690:21 *733:6 0.000151216
26 *727:11 *733:6 0.00183462
27 *731:6 *733:6 0.0832144
28 *732:6 *733:6 0.00567907
*RES
1 *921:gpio_out[35] *733:4 0.5 
2 *733:4 *733:6 155.756 
3 *733:6 *733:8 0.5 
4 *733:8 *733:10 447.375 
5 *733:10 gpio_out[35] 9.85497 
*END

*D_NET *734 0.402668
*CONN
*P gpio_out[36] O
*I *921:gpio_out[36] O *D CF_CARAVEL_SOC
*CAP
1 gpio_out[36] 0.00410322
2 *921:gpio_out[36] 0.000276496
3 *734:15 0.0154095
4 *734:13 0.0113063
5 *734:11 0.0263935
6 *734:9 0.02667
7 gpio_out[36] *817:9 0
8 gpio_out[36] *818:9 0.00032792
9 *734:11 *738:11 0.0218313
10 *734:11 *739:6 0.00101438
11 *734:11 *743:11 0.0194189
12 *734:11 *808:25 0.00236784
13 *734:11 *833:21 0.00050866
14 *734:15 *736:39 0.0408594
15 *734:15 *762:11 0.00701789
16 *734:15 *833:11 0.00641313
17 gpio_holdover[36] gpio_out[36] 0.000954717
18 *118:211 *734:15 0.00171914
19 *161:15 *734:11 0.0382515
20 *162:15 *734:11 0.00053697
21 *204:43 *734:11 0.00468267
22 *413:17 *734:11 0.000405984
23 *436:23 *734:11 0.0405641
24 *689:15 *734:15 0.0395202
25 *727:11 *734:11 0.000575435
26 *731:6 *734:11 0.0832201
27 *731:16 *734:11 7.9419e-06
28 *733:6 *734:11 0.00831087
*RES
1 *921:gpio_out[36] *734:9 2.375 
2 *734:9 *734:11 160.621 
3 *734:11 *734:13 0.5 
4 *734:13 *734:15 608.025 
5 *734:15 gpio_out[36] 9.0367 
*END

*D_NET *735 0.388575
*CONN
*P gpio_out[37] O
*I *921:gpio_out[37] O *D CF_CARAVEL_SOC
*CAP
1 gpio_out[37] 0.00468304
2 *921:gpio_out[37] 0.000112604
3 *735:23 0.0159269
4 *735:21 0.0145277
5 *735:11 0.0327069
6 *735:9 0.0295358
7 gpio_out[37] *823:15 0
8 *735:11 *736:11 0.0909213
9 *735:11 *739:6 0.0223276
10 *735:21 *736:21 0.000226208
11 *735:21 *737:9 0.00109951
12 *735:21 *737:15 0.000415016
13 *735:23 *815:11 0.000280267
14 gpio_dm2[37] gpio_out[37] 0.00342604
15 gpio_holdover[34] *735:23 0.00219743
16 gpio_holdover[37] gpio_out[37] 0
17 *204:33 *735:11 0.000574792
18 *247:19 *735:23 0.000123568
19 *374:11 *735:23 0.00270491
20 *421:11 *735:23 0.00707242
21 *436:19 *735:23 0.0692524
22 *456:15 *735:11 0.000270103
23 *467:11 *735:23 0.0618229
24 *472:41 *735:21 0.00710147
25 *544:29 *735:21 0.00136886
26 *552:25 *735:23 0.00443641
27 *690:21 *735:21 0.00292467
28 *732:6 *735:11 0.000112775
29 *732:6 *735:21 0.0120753
30 *733:6 *735:21 0.000348446
*RES
1 *921:gpio_out[37] *735:9 3.1475 
2 *735:9 *735:11 845.01 
3 *735:11 *735:21 23.9408 
4 *735:21 *735:23 774.285 
5 *735:23 gpio_out[37] 10.7986 
*END

*D_NET *736 0.608317
*CONN
*P gpio_out[38] O
*I *921:gpio_out[38] O *D CF_CARAVEL_SOC
*CAP
1 gpio_out[38] 0.000161001
2 *921:gpio_out[38] 0.000155048
3 *736:43 0.0123771
4 *736:41 0.012216
5 *736:39 0.0405357
6 *736:37 0.0413493
7 *736:23 0.00301528
8 *736:21 0.00709274
9 *736:11 0.0172253
10 *736:9 0.0124893
11 *736:11 *739:6 0.0210652
12 *736:21 *737:9 0.0101101
13 *736:21 *737:15 0.000206637
14 *736:23 *768:11 0.00597973
15 *736:37 gpio_vtrip_sel[33] 0.00055029
16 *736:39 *762:11 0.0271717
17 *736:43 *848:21 0.0111914
18 gpio_analog_en[38] *736:43 6.13812e-05
19 gpio_holdover[38] gpio_out[38] 1.99912e-05
20 gpio_oeb[33] *736:37 0.00055029
21 *118:211 *736:39 0.0323989
22 *162:25 *736:21 0.00166151
23 *163:33 *736:21 0.000400335
24 *204:33 *736:11 0.0935846
25 *251:15 *736:43 0.0084249
26 *284:23 *736:43 0.00123065
27 *284:35 *736:43 0.0165156
28 *284:49 *736:43 4.79305e-05
29 *335:33 *736:43 0.00867529
30 *365:11 *736:37 0
31 *368:11 *736:23 0.0116747
32 *373:11 *736:23 0.00234945
33 *384:15 *736:43 0.0589203
34 *387:11 *736:39 0
35 *387:21 *736:43 0.00458723
36 *387:23 *736:43 0.00133643
37 *411:11 *736:39 0
38 *428:23 *736:43 0.00395823
39 *437:29 *736:21 0.000857944
40 *456:27 *736:23 0.0013252
41 *544:17 *736:39 0
42 *688:11 *736:21 0.00312408
43 *690:21 *736:21 0.000886311
44 *705:33 *736:21 4.20804e-05
45 *733:10 *736:37 0.000785364
46 *734:15 *736:39 0.0408594
47 *735:11 *736:11 0.0909213
48 *735:21 *736:21 0.000226208
*RES
1 *921:gpio_out[38] *736:9 3.4925 
2 *736:9 *736:11 860.535 
3 *736:11 *736:21 27.9982 
4 *736:21 *736:23 130.283 
5 *736:23 *736:37 17.5895 
6 *736:37 *736:39 1173.1 
7 *736:39 *736:41 0.5 
8 *736:41 *736:43 90.6427 
9 *736:43 gpio_out[38] 2.8475 
*END

*D_NET *737 0.65592
*CONN
*P gpio_out[39] O
*I *921:gpio_out[39] O *D CF_CARAVEL_SOC
*CAP
1 gpio_out[39] 0.0332724
2 *921:gpio_out[39] 6.24322e-05
3 *737:171 0.0403899
4 *737:151 0.0113709
5 *737:147 0.0101264
6 *737:127 0.00878475
7 *737:103 0.00980914
8 *737:89 0.00897898
9 *737:87 0.00277654
10 *737:81 0.0100402
11 *737:79 0.0104476
12 *737:73 0.0158671
13 *737:71 0.015036
14 *737:65 0.00657795
15 *737:63 0.0079069
16 *737:57 0.00254267
17 *737:55 0.00249076
18 *737:41 0.00484195
19 *737:39 0.0090442
20 *737:17 0.00922734
21 *737:15 0.00365152
22 *737:9 0.0328552
23 *737:7 0.032743
24 gpio_out[39] *739:116 0
25 gpio_out[39] *826:29 0.00102075
26 *737:9 *739:6 0.00378362
27 *737:9 *744:11 0.0254949
28 *737:39 *756:6 0.000533208
29 *737:39 *765:11 0
30 *737:39 *816:25 4.2145e-05
31 *737:55 *832:25 8.34853e-05
32 *737:57 *763:11 0.00597415
33 *737:65 *766:11 0.00164831
34 *737:71 *757:9 1.39253e-05
35 *737:73 *749:11 0.0292157
36 *737:73 *771:11 0.000516994
37 *737:73 *808:11 0
38 *737:81 *921:porb_l 0.000800143
39 *737:81 *815:11 0.000217691
40 *737:103 *815:25 0.00197846
41 *737:103 *826:29 0.000806602
42 *737:103 *873:37 0.007992
43 *737:127 *739:58 0.000425414
44 *737:127 *815:25 0.00108571
45 *737:127 *839:209 0.000596016
46 *737:127 *839:217 0.00214151
47 *737:127 *846:37 8.07749e-05
48 *737:127 *873:25 0
49 *737:147 *739:80 0
50 *737:147 *739:92 0.000864891
51 *737:147 *826:29 0.00167331
52 *737:147 *840:19 0.00186369
53 *737:151 *826:29 0.00123458
54 *737:171 *784:13 0.00227536
55 *737:171 *826:29 0.000158823
56 *737:171 *843:11 0.00086965
57 *737:171 *854:11 0.000410166
58 *737:171 *861:11 0.000444928
59 gpio_analog_sel[33] *737:39 0.000155688
60 gpio_holdover[33] *737:39 0.000244951
61 gpio_holdover[34] *737:63 0.00213604
62 gpio_ib_mode_sel[35] *737:71 0.000322506
63 *921:gpio_in[0] *737:127 0.000156081
64 *921:gpio_in[6] *737:127 0
65 *118:159 gpio_out[39] 0.00245662
66 *118:187 *737:147 0.000408636
67 *118:201 *737:127 0.000279766
68 *120:15 gpio_out[39] 0.000548656
69 *206:51 *737:17 0
70 *206:51 *737:39 0.00115727
71 *248:19 *737:171 0.000312479
72 *248:35 *737:65 0
73 *293:27 *737:81 0
74 *322:181 gpio_out[39] 0.00477176
75 *322:211 gpio_out[39] 0.00255236
76 *322:235 *737:147 2.65152e-05
77 *322:255 *737:147 0
78 *322:271 *737:103 0.000194705
79 *325:85 gpio_out[39] 0.000735128
80 *325:101 gpio_out[39] 0.000342812
81 *325:103 *737:171 0.000334902
82 *325:133 *737:151 0.012648
83 *335:55 *737:103 0.00591601
84 *338:69 gpio_out[39] 0.00024223
85 *338:81 *737:103 0.000360894
86 *362:11 *737:39 0.000366882
87 *366:9 *737:55 1.2782e-05
88 *375:25 *737:39 0.000874613
89 *383:11 *737:57 0.00134686
90 *386:69 *737:147 0.00054934
91 *386:89 gpio_out[39] 0.00576245
92 *386:103 gpio_out[39] 0.00245662
93 *387:9 *737:39 9.54817e-06
94 *387:11 *737:89 0.0104779
95 *388:9 *737:39 1.84453e-05
96 *388:11 *737:73 0.00299682
97 *394:9 *737:63 0
98 *395:17 *737:63 0.00123985
99 *397:33 *737:127 0.00036132
100 *397:53 *737:147 0.00174116
101 *397:77 gpio_out[39] 0.000411263
102 *402:11 *737:41 0
103 *412:9 *737:79 0
104 *412:11 *737:55 0.000695764
105 *413:9 *737:79 0
106 *418:11 *737:65 0.000516703
107 *419:13 *737:81 0.00269371
108 *419:45 gpio_out[39] 0.000470385
109 *425:11 *737:73 0.00733681
110 *430:23 *737:127 0.000110612
111 *436:17 *737:81 0.00138218
112 *437:19 *737:55 0
113 *444:69 gpio_out[39] 0.00572461
114 *449:29 *737:73 0
115 *453:41 *737:65 0
116 *455:21 *737:57 0.00597645
117 *465:11 *737:41 0.00754479
118 *469:15 *737:127 0.00121041
119 *471:11 *737:73 0
120 *472:25 *737:39 0.00385626
121 *472:27 *737:39 0.0012296
122 *472:41 *737:9 0.0288489
123 *472:55 gpio_out[39] 0.00582375
124 *539:69 gpio_out[39] 0.00525267
125 *539:117 *737:147 0.000570024
126 *539:151 *737:103 0.000283372
127 *539:159 *737:89 0.0104757
128 *541:37 gpio_out[39] 0.000735128
129 *541:77 *737:147 0.000378918
130 *541:89 *737:147 0.0130714
131 *541:127 *737:17 0.0047227
132 *541:127 *737:39 0
133 *542:47 *737:17 0.00193058
134 *543:31 *737:65 0.016108
135 *550:11 *737:127 0.000110612
136 *552:25 *737:81 0.0243689
137 *556:37 *737:147 7.60474e-05
138 *688:11 *737:9 0.00085322
139 *693:109 *737:103 0.00703819
140 *693:163 *737:151 0
141 *693:187 gpio_out[39] 0.00555473
142 *730:13 *737:9 0.0107132
143 *732:6 *737:9 0.0204035
144 *735:21 *737:9 0.00109951
145 *735:21 *737:15 0.000415016
146 *736:21 *737:9 0.0101101
147 *736:21 *737:15 0.000206637
*RES
1 *921:gpio_out[39] *737:7 1.5725 
2 *737:7 *737:9 165.049 
3 *737:9 *737:15 1.27393 
4 *737:15 *737:17 91.29 
5 *737:17 *737:39 47.0051 
6 *737:39 *737:41 87.315 
7 *737:41 *737:55 11.9869 
8 *737:55 *737:57 66.405 
9 *737:57 *737:63 5.81587 
10 *737:63 *737:65 179.625 
11 *737:65 *737:71 1.62067 
12 *737:71 *737:73 412.185 
13 *737:73 *737:79 3.25213 
14 *737:79 *737:81 270.915 
15 *737:81 *737:87 2.4364 
16 *737:87 *737:89 120.975 
17 *737:89 *737:103 34.5491 
18 *737:103 *737:127 40.5293 
19 *737:127 *737:147 37.493 
20 *737:147 *737:151 19.1251 
21 *737:151 *737:171 49.3656 
22 *737:171 gpio_out[39] 36.2749 
*END

*D_NET *738 0.707706
*CONN
*P gpio_out[3] O
*I *921:gpio_out[3] O *D CF_CARAVEL_SOC
*CAP
1 gpio_out[3] 0.00482406
2 *921:gpio_out[3] 8.1637e-05
3 *738:15 0.0127211
4 *738:13 0.00789709
5 *738:11 0.0299708
6 *738:9 0.0300525
7 *738:11 *739:6 0.00210858
8 *738:11 *740:11 0.0272062
9 *738:11 *743:11 0.228812
10 gpio_holdover[3] gpio_out[3] 0
11 *90:11 *738:15 0.00516721
12 *104:9 gpio_out[3] 0.00195411
13 *161:15 *738:11 0.000382792
14 *162:15 *738:11 1.91597e-05
15 *247:11 *738:15 0.000573738
16 *391:33 *738:15 0.00175396
17 *436:23 *738:11 0.00193477
18 *694:6 *738:11 0.00300116
19 *694:10 *738:15 0.0469806
20 *727:11 *738:11 0.232097
21 *727:15 *738:15 0.0483365
22 *734:11 *738:11 0.0218313
*RES
1 *921:gpio_out[3] *738:9 2.8025 
2 *738:9 *738:11 2136 
3 *738:11 *738:13 2 
4 *738:13 *738:15 539.047 
5 *738:15 gpio_out[3] 10.4313 
*END

*D_NET *739 0.70006
*CONN
*P gpio_out[40] O
*I *921:gpio_out[40] O *D CF_CARAVEL_SOC
*CAP
1 gpio_out[40] 0.00251481
2 *921:gpio_out[40] 0
3 *739:130 0.00847847
4 *739:128 0.0101565
5 *739:120 0.00695384
6 *739:116 0.00783103
7 *739:112 0.00774287
8 *739:92 0.00782301
9 *739:80 0.00735908
10 *739:68 0.00292426
11 *739:58 0.00404207
12 *739:46 0.00645844
13 *739:44 0.014843
14 *739:30 0.0397637
15 *739:28 0.031287
16 *739:18 0.0310355
17 *739:16 0.0328545
18 *739:6 0.0257206
19 *739:4 0.020667
20 gpio_out[40] *860:11 0.000368732
21 gpio_out[40] *865:11 0.000337977
22 gpio_out[40] *867:11 0.000337977
23 *739:6 *743:11 0.00155851
24 *739:68 *873:25 0
25 *739:80 *826:29 0.00150471
26 *739:92 *826:29 0.00134604
27 *739:112 *847:16 0.000571375
28 *739:128 *784:13 0.0240167
29 *739:128 *825:23 0.0240167
30 gpio_dm1[39] gpio_out[40] 0.00171641
31 gpio_dm1[40] gpio_out[40] 0
32 gpio_dm2[40] gpio_out[40] 0
33 gpio_holdover[40] gpio_out[40] 0
34 gpio_out[39] *739:116 0
35 *921:gpio_in[12] *739:112 8.09735e-05
36 *921:gpio_in[17] *739:112 0.000401204
37 *921:gpio_in[18] *739:112 0.000317469
38 *118:177 *739:112 0.000510985
39 *118:201 *739:58 0
40 *119:23 *739:130 0.0356837
41 *162:15 *739:6 0.00247872
42 *204:33 *739:6 0.00304212
43 *208:29 *739:130 0.0356837
44 *252:15 gpio_out[40] 0.00312027
45 *322:211 *739:112 0.000117276
46 *322:219 *739:92 7.27641e-05
47 *322:219 *739:112 0.000228159
48 *322:235 *739:92 0.000130014
49 *322:255 *739:80 0.013108
50 *325:117 *739:112 0.00124224
51 *325:133 *739:80 4.42839e-05
52 *325:133 *739:92 0.0132366
53 *325:145 *739:80 0.0136171
54 *386:69 *739:80 3.99151e-05
55 *386:89 *739:112 0.000323829
56 *386:89 *739:116 0
57 *397:33 *739:58 0.000359017
58 *397:53 *739:80 0.000368752
59 *397:53 *739:92 0.000372439
60 *397:77 *739:120 0
61 *408:23 *739:68 0.000337995
62 *419:23 *739:80 0.0018327
63 *419:29 *739:120 0
64 *441:19 *739:68 0.00255389
65 *463:15 *739:68 0.00255156
66 *470:15 *739:112 0.000536445
67 *539:97 *739:112 0
68 *539:97 *739:116 0.00861929
69 *539:105 *739:112 0.000248921
70 *539:117 *739:80 0.00183501
71 *539:151 *739:80 0.000416012
72 *541:89 *739:68 0.000635544
73 *541:89 *739:80 1.4548e-05
74 *549:13 gpio_out[40] 0.000368732
75 *556:37 *739:80 2.4393e-05
76 *690:11 *739:6 0.00331895
77 *693:109 *739:58 0
78 *693:163 *739:92 0.000103301
79 *693:175 *739:112 0.000399702
80 *693:187 *739:116 0.00100689
81 *727:11 *739:6 0.0022837
82 *732:6 *739:6 0.0849064
83 *733:6 *739:6 0.0876663
84 *734:11 *739:6 0.00101438
85 *735:11 *739:6 0.0223276
86 *736:11 *739:6 0.0210652
87 *737:9 *739:6 0.00378362
88 *737:127 *739:58 0.000425414
89 *737:147 *739:80 0
90 *737:147 *739:92 0.000864891
91 *738:11 *739:6 0.00210858
*RES
1 *921:gpio_out[40] *739:4 0.5 
2 *739:4 *739:6 153.891 
3 *739:6 *739:16 32.5745 
4 *739:16 *739:18 83.0705 
5 *739:18 *739:28 0.99814 
6 *739:28 *739:30 83.8457 
7 *739:30 *739:44 35.9682 
8 *739:44 *739:46 56.715 
9 *739:46 *739:58 49.5825 
10 *739:58 *739:68 36.2025 
11 *739:68 *739:80 47.541 
12 *739:80 *739:92 36.5427 
13 *739:92 *739:112 46.3689 
14 *739:112 *739:116 19.9991 
15 *739:116 *739:120 39.875 
16 *739:120 *739:128 44.5831 
17 *739:128 *739:130 54.226 
18 *739:130 gpio_out[40] 23.5301 
*END

*D_NET *740 0.785035
*CONN
*P gpio_out[41] O
*I *921:gpio_out[41] O *D CF_CARAVEL_SOC
*CAP
1 gpio_out[41] 0.000213733
2 *921:gpio_out[41] 0.000254807
3 *740:171 0.00352824
4 *740:169 0.00576493
5 *740:165 0.00342709
6 *740:155 0.00373057
7 *740:145 0.00322472
8 *740:141 0.00116149
9 *740:133 0.00131712
10 *740:123 0.00197104
11 *740:121 0.00167272
12 *740:117 0.00165857
13 *740:113 0.00186427
14 *740:95 0.00164129
15 *740:93 0.00327933
16 *740:87 0.00307848
17 *740:85 0.00249999
18 *740:81 0.00806899
19 *740:75 0.0105368
20 *740:73 0.00434482
21 *740:67 0.00372285
22 *740:65 0.00425775
23 *740:59 0.0128164
24 *740:57 0.0191893
25 *740:31 0.0108081
26 *740:29 0.00379697
27 *740:23 0.0070785
28 *740:21 0.01233
29 *740:11 0.0331618
30 *740:9 0.0279848
31 *740:11 *741:6 0.00533107
32 *740:11 *743:11 0.0249369
33 *740:21 *741:24 0
34 *740:21 *742:32 0.000402138
35 *740:21 *789:23 0
36 *740:113 *826:119 4.82863e-05
37 *740:133 *741:160 0.0001537
38 *740:169 *760:29 0
39 *740:169 *847:14 8.57834e-05
40 gpio_analog_sel[42] *740:169 0
41 gpio_analog_sel[43] *740:81 0.00658087
42 *118:11 *740:59 0.00305995
43 *118:19 *740:67 0.0061259
44 *118:19 *740:75 0
45 *118:33 *740:81 0.00523105
46 *118:39 *740:95 0.000756719
47 *125:15 *740:81 0.00386884
48 *161:15 *740:11 0.0434916
49 *162:15 *740:11 0.003359
50 *204:33 *740:11 0.000366456
51 *228:11 *740:59 0.0260378
52 *236:11 *740:75 0.000551985
53 *242:9 *740:73 0
54 *245:9 *740:73 0
55 *245:11 *740:67 0.00212371
56 *248:19 *740:87 0.00698586
57 *251:11 *740:67 0.00129768
58 *251:11 *740:75 0
59 *251:15 *740:171 0.0125545
60 *253:11 *740:75 0.0200087
61 *284:23 *740:171 0.0213402
62 *285:11 *740:59 0.0183737
63 *290:9 *740:65 0
64 *296:11 *740:67 0.016508
65 *322:35 *740:75 0.0162498
66 *322:113 *740:123 0.00126604
67 *322:149 *740:169 0
68 *325:23 *740:87 0.00698818
69 *325:57 *740:155 0.0034642
70 *386:175 *740:133 0.00232906
71 *386:175 *740:141 0.0014373
72 *386:191 *740:117 0.00179316
73 *386:191 *740:121 6.76899e-05
74 *386:191 *740:123 0
75 *386:205 *740:93 0
76 *397:109 *740:165 0.0011209
77 *397:109 *740:169 0
78 *397:133 *740:141 7.96104e-06
79 *397:135 *740:121 8.73389e-06
80 *397:135 *740:123 0.00798743
81 *397:149 *740:117 0.00115601
82 *408:53 *740:141 1.7635e-05
83 *408:53 *740:155 0
84 *408:61 *740:141 0.000733875
85 *419:117 *740:169 0
86 *419:133 *740:133 0.000513817
87 *436:23 *740:11 0.0498878
88 *444:23 *740:95 0.00701451
89 *529:9 *740:81 0.0082677
90 *530:43 *740:141 0.00170939
91 *530:53 *740:133 4.14644e-05
92 *530:53 *740:141 0.00104096
93 *530:55 *740:123 0
94 *530:55 *740:133 0.00287252
95 *532:30 *740:113 6.5525e-05
96 *533:52 *740:155 0.00114163
97 *533:52 *740:165 0.000617194
98 *533:52 *740:169 0
99 *533:56 *740:145 0.00264272
100 *533:56 *740:155 0.000676218
101 *533:68 *740:141 0.000173521
102 *533:70 *740:123 0.00658033
103 *533:94 *740:113 0
104 *535:33 *740:155 0.000671726
105 *535:65 *740:141 6.95177e-05
106 *535:65 *740:145 1.34503e-05
107 *536:143 *740:57 0.00026485
108 *536:149 *740:23 0.00699492
109 *536:149 *740:57 0.000472579
110 *537:24 *740:121 0
111 *537:32 *740:117 0.0018826
112 *537:32 *740:121 1.16578e-05
113 *538:145 *740:31 0.00257943
114 *540:24 *740:165 0.000296006
115 *540:34 *740:113 0.00063824
116 *541:13 *740:155 0.0066494
117 *541:17 *740:169 0.00302018
118 *551:93 *740:141 8.41015e-06
119 *551:95 *740:123 0.000816451
120 *559:17 *740:85 0.00104949
121 *561:16 *740:81 0.00533131
122 *562:89 *740:145 0.00151149
123 *563:12 *740:81 0.00259952
124 *565:13 *740:87 0.00168711
125 *567:14 *740:81 0.00389008
126 *568:11 *740:81 0.00422257
127 *569:18 *740:123 0
128 *572:16 *740:81 0.00539128
129 *690:11 *740:11 0.000495794
130 *692:13 *740:21 0.000224158
131 *692:35 *740:171 0.00495985
132 *694:6 *740:11 0.0970651
133 *695:25 *740:21 0.00342629
134 *695:27 *740:23 0.00842823
135 *695:33 *740:29 0.000252571
136 *695:35 *740:57 0.00744956
137 *696:31 *740:57 0.00743149
138 *696:95 *740:95 0.00242475
139 *696:103 *740:145 7.68414e-06
140 *696:103 *740:155 0.00310838
141 *696:125 *740:169 0
142 *697:11 *740:31 0
143 *697:37 *740:57 0.00100901
144 *697:109 *740:81 0.0113567
145 *697:113 *740:85 0.000641299
146 *727:11 *740:11 0.00363665
147 *738:11 *740:11 0.0272062
*RES
1 *921:gpio_out[41] *740:9 2.375 
2 *740:9 *740:11 172.099 
3 *740:11 *740:21 25.535 
4 *740:21 *740:23 178.605 
5 *740:23 *740:29 1.50413 
6 *740:29 *740:31 65.385 
7 *740:31 *740:57 39.308 
8 *740:57 *740:59 78.7639 
9 *740:59 *740:65 2.58207 
10 *740:65 *740:67 184.215 
11 *740:67 *740:73 1.67893 
12 *740:73 *740:75 222.975 
13 *740:75 *740:81 41.9995 
14 *740:81 *740:85 30.7925 
15 *740:85 *740:87 64.275 
16 *740:87 *740:93 33.685 
17 *740:93 *740:95 63.24 
18 *740:95 *740:113 19.235 
19 *740:113 *740:117 46.7775 
20 *740:117 *740:121 5.9775 
21 *740:121 *740:123 77.385 
22 *740:123 *740:133 33.0025 
23 *740:133 *740:141 37.1275 
24 *740:141 *740:145 24.78 
25 *740:145 *740:155 49.8476 
26 *740:155 *740:165 10.9821 
27 *740:165 *740:169 46.8575 
28 *740:169 *740:171 196.41 
29 *740:171 gpio_out[41] 5.105 
*END

*D_NET *741 0.619636
*CONN
*P gpio_out[42] O
*I *921:gpio_out[42] O *D CF_CARAVEL_SOC
*CAP
1 gpio_out[42] 0.0033553
2 *921:gpio_out[42] 0
3 *741:164 0.00616179
4 *741:160 0.00739673
5 *741:138 0.00774058
6 *741:128 0.00862529
7 *741:124 0.00806979
8 *741:120 0.00654837
9 *741:112 0.0119652
10 *741:98 0.0151496
11 *741:96 0.0211376
12 *741:82 0.0237228
13 *741:72 0.0145913
14 *741:40 0.00698397
15 *741:26 0.0209245
16 *741:24 0.0265124
17 *741:6 0.0270461
18 *741:4 0.0193424
19 gpio_out[42] *848:11 0.000230443
20 gpio_out[42] *867:11 0.00312368
21 *741:6 *742:6 0.109046
22 *741:24 *742:32 0
23 *741:26 *742:48 0
24 *741:40 *742:72 0.00071464
25 *741:72 *742:72 0.0041076
26 *741:82 *742:96 0.00181316
27 *741:82 *742:106 0.000966331
28 *741:96 *742:106 0
29 *741:96 *742:108 0.0021786
30 *741:128 *742:120 0.0324128
31 *741:128 *857:11 0.00708133
32 *741:128 *863:11 0.00772572
33 *741:138 *839:53 2.38469e-05
34 *741:160 *826:93 0.00028405
35 *741:160 *826:95 0.00088577
36 gpio_analog_sel[43] *741:160 0.000549413
37 *118:69 *741:138 0
38 *118:93 *741:164 0
39 *204:33 *741:6 0.00365055
40 *207:31 gpio_out[42] 0.00021271
41 *252:15 gpio_out[42] 0.00735909
42 *322:113 *741:138 7.61005e-05
43 *325:57 *741:164 0
44 *336:31 *741:160 0.00126141
45 *386:189 *741:160 0.00237034
46 *408:63 *741:160 0.000960839
47 *419:133 *741:160 2.00119e-05
48 *444:53 *741:160 0.00161799
49 *530:55 *741:160 0.00104174
50 *533:122 *741:82 8.86012e-05
51 *533:136 *741:82 0
52 *533:156 *741:72 0.000551747
53 *533:164 *741:72 0.000604965
54 *535:65 *741:138 0.000100429
55 *535:65 *741:160 0.00677422
56 *536:25 *741:164 0
57 *536:89 *741:82 0.00314747
58 *536:119 *741:72 0.000160446
59 *536:121 *741:40 0
60 *537:80 *741:120 0
61 *537:86 *741:72 0.00132842
62 *537:108 *741:72 0
63 *538:61 *741:120 0
64 *538:61 *741:124 0.00172818
65 *538:77 *741:120 0
66 *538:79 *741:98 0
67 *538:93 *741:82 0.000296143
68 *538:121 *741:72 0.000301198
69 *538:129 *741:40 0.000197481
70 *538:129 *741:72 0.000254544
71 *540:24 *741:138 0
72 *549:13 gpio_out[42] 0.00285616
73 *551:121 *741:120 0
74 *560:9 *741:124 0
75 *562:89 *741:160 0.00389825
76 *562:91 *741:160 0.000954851
77 *690:11 *741:6 0.00398274
78 *692:35 gpio_out[42] 0.000715599
79 *693:11 *741:6 0.00164635
80 *694:6 *741:6 0.00153735
81 *695:35 *741:72 0
82 *695:53 *741:72 0
83 *695:53 *741:82 0.000872228
84 *695:55 *741:98 0.0037265
85 *695:55 *741:112 0
86 *696:31 *741:72 0.000729712
87 *696:39 *741:72 0.000296902
88 *696:43 *741:112 0.00148917
89 *696:67 *741:124 0.000358897
90 *697:39 *741:26 0
91 *697:47 *741:40 0.00378845
92 *697:73 *741:40 0.00088633
93 *697:73 *741:82 0.00014103
94 *697:81 *741:82 0.0108254
95 *697:115 gpio_out[42] 0.0120507
96 *697:115 *741:128 0.0219126
97 *698:27 *741:128 0.00578294
98 *699:6 *741:6 0.0951777
99 *740:11 *741:6 0.00533107
100 *740:21 *741:24 0
101 *740:133 *741:160 0.0001537
*RES
1 *921:gpio_out[42] *741:4 0.5 
2 *741:4 *741:6 169.448 
3 *741:6 *741:24 35.8377 
4 *741:24 *741:26 341.295 
5 *741:26 *741:40 46.2151 
6 *741:40 *741:72 33.8331 
7 *741:72 *741:82 49.5615 
8 *741:82 *741:96 45.6785 
9 *741:96 *741:98 129.645 
10 *741:98 *741:112 25.4637 
11 *741:112 *741:120 34.0867 
12 *741:120 *741:124 47.015 
13 *741:124 *741:128 49.5403 
14 *741:128 *741:138 44.465 
15 *741:138 *741:160 32.9841 
16 *741:160 *741:164 38.855 
17 *741:164 gpio_out[42] 25.4423 
*END

*D_NET *742 0.529097
*CONN
*P gpio_out[43] O
*I *921:gpio_out[43] O *D CF_CARAVEL_SOC
*CAP
1 gpio_out[43] 0.000119361
2 *921:gpio_out[43] 0
3 *742:120 0.00787728
4 *742:118 0.0186734
5 *742:108 0.0283573
6 *742:106 0.0215185
7 *742:96 0.0184701
8 *742:72 0.0272659
9 *742:48 0.0145827
10 *742:40 0.0148168
11 *742:32 0.0191637
12 *742:6 0.0270335
13 *742:4 0.0209763
14 gpio_holdover[43] gpio_out[43] 0
15 *120:15 *742:120 0.00865825
16 *284:23 *742:120 0.000173544
17 *533:122 *742:106 0.000835529
18 *533:122 *742:108 0
19 *533:136 *742:106 0
20 *533:156 *742:96 0.00260785
21 *533:164 *742:72 0.00169427
22 *533:172 *742:72 0
23 *536:119 *742:96 0
24 *536:149 *742:40 0
25 *537:86 *742:96 0.000506188
26 *537:108 *742:72 0.000337738
27 *538:43 *742:120 0.00556581
28 *538:109 *742:96 0
29 *538:121 *742:72 0.000100269
30 *538:137 *742:72 0.000443122
31 *692:35 *742:120 0.00132662
32 *693:11 *742:6 0.000130654
33 *695:25 *742:32 0.000837001
34 *695:53 *742:96 0.000727389
35 *695:55 *742:96 4.68341e-05
36 *695:61 *742:118 0
37 *695:75 *742:120 0.026972
38 *696:21 *742:32 6.88908e-05
39 *697:37 *742:48 0.000121406
40 *697:37 *742:72 3.32811e-05
41 *697:47 *742:72 0.0017486
42 *697:73 *742:72 0.00512476
43 *697:73 *742:96 0.0011817
44 *697:81 *742:96 0.000107484
45 *697:85 *742:96 9.96046e-05
46 *697:95 *742:108 0.00192307
47 *697:115 *742:120 0.00173348
48 *698:27 *742:120 0.00219621
49 *699:6 *742:6 0.000316824
50 *700:6 *742:6 0.0929824
51 *740:21 *742:32 0.000402138
52 *741:6 *742:6 0.109046
53 *741:24 *742:32 0
54 *741:26 *742:48 0
55 *741:40 *742:72 0.00071464
56 *741:72 *742:72 0.0041076
57 *741:82 *742:96 0.00181316
58 *741:82 *742:106 0.000966331
59 *741:96 *742:106 0
60 *741:96 *742:108 0.0021786
61 *741:128 *742:120 0.0324128
*RES
1 *921:gpio_out[43] *742:4 0.5 
2 *742:4 *742:6 166.127 
3 *742:6 *742:32 44.8124 
4 *742:32 *742:40 40.4985 
5 *742:40 *742:48 29.5717 
6 *742:48 *742:72 46.1579 
7 *742:72 *742:96 49.8293 
8 *742:96 *742:106 15.0828 
9 *742:106 *742:108 53.8359 
10 *742:108 *742:118 28.7587 
11 *742:118 *742:120 64.4518 
12 *742:120 gpio_out[43] 2.2325 
*END

*D_NET *743 0.659254
*CONN
*P gpio_out[4] O
*I *921:gpio_out[4] O *D CF_CARAVEL_SOC
*CAP
1 gpio_out[4] 0.00588542
2 *921:gpio_out[4] 0.000125014
3 *743:15 0.0112702
4 *743:13 0.00538481
5 *743:11 0.0293799
6 *743:9 0.0295049
7 gpio_out[4] gpio_vtrip_sel[4] 0
8 gpio_holdover[4] gpio_out[4] 0
9 *92:11 *743:15 0.00463465
10 *161:15 *743:11 0.000382792
11 *170:17 gpio_out[4] 0.000137425
12 *436:23 *743:11 0.228816
13 *661:19 *743:15 0.0329673
14 *672:15 *743:15 0.0329688
15 *694:6 *743:11 0.00306985
16 *734:11 *743:11 0.0194189
17 *738:11 *743:11 0.228812
18 *739:6 *743:11 0.00155851
19 *740:11 *743:11 0.0249369
*RES
1 *921:gpio_out[4] *743:9 3.0575 
2 *743:9 *743:11 2105.29 
3 *743:11 *743:13 2 
4 *743:13 *743:15 367.943 
5 *743:15 gpio_out[4] 11.7765 
*END

*D_NET *744 0.73162
*CONN
*P gpio_out[5] O
*I *921:gpio_out[5] O *D CF_CARAVEL_SOC
*CAP
1 gpio_out[5] 0.00585716
2 *921:gpio_out[5] 0.000315519
3 *744:15 0.00901147
4 *744:13 0.00315431
5 *744:11 0.070946
6 *744:9 0.0712615
7 gpio_dm2[5] gpio_out[5] 0
8 gpio_holdover[5] gpio_out[5] 0.00120574
9 *95:17 *744:11 0.00285402
10 *107:25 *744:11 1.91843e-05
11 *112:25 *744:11 1.91769e-05
12 *115:15 *744:11 0.0494507
13 *116:53 *744:11 0.000442239
14 *139:17 *744:11 0.000147722
15 *141:21 gpio_out[5] 0.000661351
16 *163:23 *744:11 0.0539583
17 *198:25 *744:11 8.92058e-06
18 *291:15 *744:11 0.0494507
19 *314:19 *744:15 0
20 *352:11 *744:15 0.00351848
21 *393:23 *744:11 0.00435051
22 *437:31 *744:11 0.107901
23 *534:15 *744:15 0.0187058
24 *683:11 *744:11 0.0108729
25 *688:11 *744:11 0.20147
26 *699:10 *744:15 0.0183256
27 *700:10 *744:15 3.99774e-05
28 *701:11 *744:11 0.0177885
29 *716:11 *744:11 0.00438759
30 *737:9 *744:11 0.0254949
*RES
1 *921:gpio_out[5] *744:9 4.925 
2 *744:9 *744:11 350.279 
3 *744:11 *744:13 0.5 
4 *744:13 *744:15 208.695 
5 *744:15 gpio_out[5] 12.3503 
*END

*D_NET *745 0.554608
*CONN
*P gpio_out[6] O
*I *921:gpio_out[6] O *D CF_CARAVEL_SOC
*CAP
1 gpio_out[6] 0.00564319
2 *921:gpio_out[6] 0.000776254
3 *745:21 0.00670105
4 *745:11 0.039641
5 *745:9 0.0393594
6 gpio_out[6] *788:25 0.000247732
7 gpio_holdover[6] gpio_out[6] 0.000413695
8 *92:11 *745:21 0.00049621
9 *99:15 *745:11 0.0121296
10 *101:15 *745:11 0.00374993
11 *102:19 *745:21 0
12 *104:31 *745:11 0.0404783
13 *114:23 *745:11 0.00650087
14 *141:29 *745:11 0.0176595
15 *203:15 *745:11 0.0125215
16 *227:17 *745:11 0.00283065
17 *286:39 *745:11 0.01668
18 *328:59 *745:11 0.00214152
19 *407:25 *745:11 0.00505258
20 *570:26 *745:21 0.0037463
21 *661:19 *745:21 0.00339746
22 *689:11 *745:11 0.118903
23 *691:11 *745:11 0.214259
24 *705:33 *745:11 0.00127986
*RES
1 *921:gpio_out[6] *745:9 11.555 
2 *745:9 *745:11 346.958 
3 *745:11 *745:21 44.2224 
4 *745:21 gpio_out[6] 10.9991 
*END

*D_NET *746 0.330207
*CONN
*P gpio_out[7] O
*I *921:gpio_out[7] O *D CF_CARAVEL_SOC
*CAP
1 gpio_out[7] 3.10732e-05
2 *921:gpio_out[7] 8.13335e-05
3 *746:13 0.129931
4 *746:11 0.1299
5 *746:9 0.0350908
6 *746:7 0.0351721
7 *746:13 *834:15 0
8 gpio_dm2[7] *746:13 0
9 gpio_holdover[7] *746:13 0
*RES
1 *921:gpio_out[7] *746:7 1.35 
2 *746:7 *746:9 627.915 
3 *746:9 *746:11 0.5 
4 *746:11 *746:13 353.726 
5 *746:13 gpio_out[7] 0.0893 
*END

*D_NET *747 0.313672
*CONN
*P gpio_out[8] O
*I *920:count[0] O *D counter_macro
*CAP
1 gpio_out[8] 0.0015313
2 *920:count[0] 1.23933e-05
3 *747:11 0.12605
4 *747:9 0.124518
5 *747:7 0.025381
6 *747:5 0.0253934
7 gpio_analog_sel[8] *747:11 0
8 gpio_dm2[8] gpio_out[8] 6.77636e-05
9 gpio_holdover[8] gpio_out[8] 0.000266839
10 gpio_holdover[8] *747:11 0.0104508
11 *140:221 *747:11 0
12 *268:11 gpio_out[8] 0
13 *311:11 gpio_out[8] 0
*RES
1 *920:count[0] *747:5 0.225 
2 *747:5 *747:7 457.065 
3 *747:7 *747:9 0.5 
4 *747:9 *747:11 346.841 
5 *747:11 gpio_out[8] 7.09797 
*END

*D_NET *748 0.465739
*CONN
*P gpio_out[9] O
*I *920:count[1] O *D counter_macro
*CAP
1 gpio_out[9] 9.8068e-05
2 *920:count[1] 1.23933e-05
3 *748:11 0.0785732
4 *748:9 0.0784751
5 *748:7 0.0348864
6 *748:5 0.0348988
7 *748:11 *836:15 0
8 gpio_holdover[9] *748:11 0.236309
9 *538:289 *748:11 0.00248584
*RES
1 *920:count[1] *748:5 0.225 
2 *748:5 *748:7 628.425 
3 *748:7 *748:9 0.5 
4 *748:9 *748:11 347.957 
5 *748:11 gpio_out[9] 0.281833 
*END

*D_NET *749 0.548718
*CONN
*P gpio_slow_sel[0] O
*I *921:gpio_slow_sel[0] O *D CF_CARAVEL_SOC
*CAP
1 gpio_slow_sel[0] 0.00156317
2 *921:gpio_slow_sel[0] 0.00196417
3 *749:31 0.00936868
4 *749:29 0.00780551
5 *749:27 0.086352
6 *749:25 0.0873776
7 *749:11 0.0192034
8 *749:9 0.0201419
9 *749:9 *830:9 0
10 *749:9 *836:11 0.000229581
11 *749:11 *771:11 0.064454
12 *749:11 *846:39 0
13 *749:25 *771:11 1.52041e-05
14 *749:25 *771:25 0.00116125
15 *749:25 *846:39 0
16 *749:25 *864:15 0
17 *119:15 *749:27 8.88101e-05
18 *119:23 *749:27 0.0192832
19 *120:11 *749:31 0
20 *167:19 *749:27 0.0158862
21 *207:39 *749:27 0.00337883
22 *208:21 *749:27 0.0179195
23 *289:23 *749:27 0.0112595
24 *336:55 *749:27 0.00239755
25 *353:35 *749:31 0.000781334
26 *388:11 *749:25 0.00225605
27 *425:11 *749:11 0.00375098
28 *435:23 *749:27 0
29 *455:25 *749:27 0.0631514
30 *459:23 *749:25 1.88602e-05
31 *462:23 *749:27 0.0111421
32 *464:21 *749:25 3.85204e-05
33 *464:23 *749:27 0.00111359
34 *468:27 *749:25 0.000101824
35 *471:11 *749:11 0
36 *481:15 *749:27 0
37 *529:13 *749:31 0.0163066
38 *541:107 *749:25 4.41506e-05
39 *543:23 *749:11 0.00465434
40 *544:13 *749:27 0
41 *553:13 *749:27 0
42 *571:27 *749:27 0.0462924
43 *737:73 *749:11 0.0292157
*RES
1 *921:gpio_slow_sel[0] *749:9 4.41147 
2 *749:9 *749:11 717.165 
3 *749:11 *749:25 35.1225 
4 *749:25 *749:27 2287.46 
5 *749:27 *749:29 2 
6 *749:29 *749:31 208.312 
7 *749:31 gpio_slow_sel[0] 3.57737 
*END

*D_NET *750 0.678219
*CONN
*P gpio_slow_sel[10] O
*I *921:gpio_slow_sel[10] O *D CF_CARAVEL_SOC
*CAP
1 gpio_slow_sel[10] 0.000149196
2 *921:gpio_slow_sel[10] 0.000734217
3 *750:15 0.141429
4 *750:13 0.14128
5 *750:11 0.0597459
6 *750:9 0.0604802
7 *750:9 *751:9 0
8 *750:9 *792:9 0
9 *750:9 *836:11 0.000229581
10 *750:11 *752:11 0.14982
11 *750:11 *764:11 0.000103095
12 *750:11 *784:9 0
13 *750:11 *786:11 0.0156416
14 *750:11 *794:11 0
15 gpio_dm1[10] *750:15 0
16 *116:69 *750:11 0.0146413
17 *399:19 *750:11 0.0388413
18 *400:17 *750:9 0
19 *400:19 *750:11 0.0326324
20 *401:11 *750:11 0.000120926
21 *403:11 *750:11 0.0059189
22 *405:11 *750:11 0.0155642
23 *406:11 *750:11 0.000406756
24 *407:11 *750:11 0.000378527
25 *454:25 *750:11 0.000103095
*RES
1 *921:gpio_slow_sel[10] *750:9 1.9934 
2 *750:9 *750:11 269.377 
3 *750:11 *750:13 0.5 
4 *750:13 *750:15 386.501 
5 *750:15 gpio_slow_sel[10] 0.428767 
*END

*D_NET *751 0.660776
*CONN
*P gpio_slow_sel[11] O
*I *921:gpio_slow_sel[11] O *D CF_CARAVEL_SOC
*CAP
1 gpio_slow_sel[11] 5.57555e-05
2 *921:gpio_slow_sel[11] 0.00155431
3 *751:15 0.141799
4 *751:13 0.141743
5 *751:11 0.0247605
6 *751:9 0.0263148
7 *751:11 *797:19 0.158232
8 *751:11 *819:11 0.00625772
9 *161:19 *751:11 0.00201817
10 *354:11 *751:11 0.000261416
11 *356:11 *751:11 0.137709
12 *449:29 *751:11 0.0200702
13 *750:9 *751:9 0
*RES
1 *921:gpio_slow_sel[11] *751:9 3.59827 
2 *751:9 *751:11 1761.14 
3 *751:11 *751:13 0.5 
4 *751:13 *751:15 388.278 
5 *751:15 gpio_slow_sel[11] 0.160233 
*END

*D_NET *752 0.703281
*CONN
*P gpio_slow_sel[12] O
*I *921:gpio_slow_sel[12] O *D CF_CARAVEL_SOC
*CAP
1 gpio_slow_sel[12] 0.000252581
2 *921:gpio_slow_sel[12] 0.000688378
3 *752:15 0.15171
4 *752:13 0.151458
5 *752:11 0.0811024
6 *752:9 0.0817907
7 *752:9 *753:9 0
8 *752:9 *836:11 0.000229581
9 *752:11 *756:6 0
10 *752:11 *758:9 0
11 *752:11 *784:9 0
12 *752:11 *794:11 0
13 *752:11 *836:11 0
14 *140:281 *752:15 0.000908647
15 *160:29 *752:11 0.00346423
16 *399:19 *752:11 0.00838859
17 *400:19 *752:11 0.0079399
18 *401:11 *752:11 0.0308744
19 *444:9 *752:15 0
20 *450:13 *752:11 0.0345116
21 *541:125 *752:11 0.000142915
22 *750:11 *752:11 0.14982
*RES
1 *921:gpio_slow_sel[12] *752:9 1.87687 
2 *752:9 *752:11 324.416 
3 *752:11 *752:13 0.5 
4 *752:13 *752:15 386.384 
5 *752:15 gpio_slow_sel[12] 0.6669 
*END

*D_NET *753 1.02271
*CONN
*P gpio_slow_sel[13] O
*I *921:gpio_slow_sel[13] O *D CF_CARAVEL_SOC
*CAP
1 gpio_slow_sel[13] 0.00749155
2 *921:gpio_slow_sel[13] 0.00323499
3 *753:19 0.0673244
4 *753:17 0.0598329
5 *753:15 0.0305839
6 *753:13 0.0305839
7 *753:11 0.00865299
8 *753:9 0.011888
9 *753:9 *754:9 0
10 *753:11 *768:11 0.000608117
11 *753:11 *803:11 0.0454573
12 *753:15 *754:23 0.245024
13 *753:15 *757:15 0.0158541
14 *753:15 *761:15 0.0159708
15 *753:19 *754:27 0.156143
16 *140:81 *753:19 0.000540263
17 *157:39 *753:19 0.0107483
18 *195:31 *753:19 0.00985368
19 *202:27 *753:15 0.0388588
20 *365:11 *753:11 0
21 *399:17 *753:9 3.25711e-05
22 *420:11 *753:11 0.00715317
23 *440:31 *753:15 0.217625
24 *445:9 gpio_slow_sel[13] 0
25 *469:11 *753:11 0.00633514
26 *688:15 *753:11 0.0270542
27 *733:10 *753:11 0.00586055
28 *752:9 *753:9 0
*RES
1 *921:gpio_slow_sel[13] *753:9 7.03853 
2 *753:9 *753:11 519.922 
3 *753:11 *753:13 2 
4 *753:13 *753:15 2215 
5 *753:15 *753:17 2 
6 *753:17 *753:19 1734.49 
7 *753:19 gpio_slow_sel[13] 18.6304 
*END

*D_NET *754 0.93377
*CONN
*P gpio_slow_sel[14] O
*I *921:gpio_slow_sel[14] O *D CF_CARAVEL_SOC
*CAP
1 gpio_slow_sel[14] 0.00730302
2 *921:gpio_slow_sel[14] 0.00554733
3 *754:27 0.0857943
4 *754:25 0.0784912
5 *754:23 0.0790848
6 *754:21 0.0812295
7 *754:11 0.0113554
8 *754:9 0.0147581
9 *754:11 *773:11 0.00156887
10 *754:11 *802:11 0.0434482
11 *754:21 *757:11 0
12 *754:23 *761:15 0.0174242
13 gpio_dm1[14] gpio_slow_sel[14] 0
14 *157:39 *754:27 0.00865379
15 *162:27 *754:11 0.0412628
16 *195:31 *754:27 0.0185659
17 *202:27 *754:23 0.0354318
18 *290:15 *754:21 0
19 *362:11 *754:21 0.000430996
20 *369:17 *754:21 0.000372013
21 *394:19 *754:27 0
22 *396:11 *754:11 0.000237196
23 *440:29 *754:21 0.000784286
24 *472:25 *754:11 0.000112617
25 *730:19 *754:21 0.000746607
26 *753:9 *754:9 0
27 *753:15 *754:23 0.245024
28 *753:19 *754:27 0.156143
*RES
1 *921:gpio_slow_sel[14] *754:9 11.292 
2 *754:9 *754:11 510.105 
3 *754:11 *754:21 12.7768 
4 *754:21 *754:23 2212.25 
5 *754:23 *754:25 2 
6 *754:25 *754:27 2070.32 
7 *754:27 gpio_slow_sel[14] 18.4202 
*END

*D_NET *755 0.729251
*CONN
*P gpio_slow_sel[15] O
*I *921:gpio_slow_sel[15] O *D CF_CARAVEL_SOC
*CAP
1 gpio_slow_sel[15] 7.97879e-05
2 *921:gpio_slow_sel[15] 0.0025721
3 *755:19 0.123302
4 *755:17 0.123222
5 *755:15 0.126338
6 *755:13 0.126338
7 *755:11 0.00762391
8 *755:9 0.010196
9 *755:9 *836:11 0.000229581
10 *755:15 *757:15 0
11 *292:27 *755:11 0.00420588
12 *322:309 *755:11 0.00890391
13 *357:17 *755:11 0.00172482
14 *361:17 *755:11 0.00214495
15 *370:11 *755:11 0.00237281
16 *394:15 *755:15 0.112726
17 *438:19 *755:11 0.0452001
18 *440:31 *755:15 0
19 *555:17 *755:11 0.0320718
*RES
1 *921:gpio_slow_sel[15] *755:9 5.51853 
2 *755:9 *755:11 505.388 
3 *755:11 *755:13 2 
4 *755:13 *755:15 2173.6 
5 *755:15 *755:17 2 
6 *755:17 *755:19 2225.87 
7 *755:19 gpio_slow_sel[15] 1.35 
*END

*D_NET *756 0.646437
*CONN
*P gpio_slow_sel[16] O
*I *921:gpio_slow_sel[16] O *D CF_CARAVEL_SOC
*CAP
1 gpio_slow_sel[16] 0.00816102
2 *921:gpio_slow_sel[16] 0
3 *756:12 0.00816102
4 *756:10 0.100105
5 *756:8 0.100105
6 *756:6 0.110143
7 *756:4 0.110143
8 *756:6 *764:9 0.000262458
9 *756:6 *766:9 0.000262458
10 *756:6 *836:11 0.135836
11 *206:51 *756:6 0.00188082
12 *364:17 *756:6 0.000262458
13 *370:9 *756:6 0.000206859
14 *376:9 *756:6 0.000262458
15 *382:9 *756:6 0.000262458
16 *386:9 *756:6 0.000262458
17 *388:9 *756:6 0.000206859
18 *389:9 *756:6 0.000206859
19 *453:17 *756:6 0.0151342
20 *454:39 *756:6 0.00906285
21 *538:361 *756:10 0
22 *542:47 *756:6 0.028362
23 *543:39 *756:6 0
24 *721:13 *756:10 0.0166139
25 *737:39 *756:6 0.000533208
26 *752:11 *756:6 0
*RES
1 *921:gpio_slow_sel[16] *756:4 0.5 
2 *756:4 *756:6 436.174 
3 *756:6 *756:8 0.5 
4 *756:8 *756:10 298.043 
5 *756:10 *756:12 0.5 
6 *756:12 gpio_slow_sel[16] 146.932 
*END

*D_NET *757 0.786919
*CONN
*P gpio_slow_sel[17] O
*I *921:gpio_slow_sel[17] O *D CF_CARAVEL_SOC
*CAP
1 gpio_slow_sel[17] 0.000805859
2 *921:gpio_slow_sel[17] 0.00272237
3 *757:19 0.0777261
4 *757:17 0.0769202
5 *757:15 0.0576907
6 *757:13 0.0576907
7 *757:11 0.00867963
8 *757:9 0.011402
9 *757:9 *758:7 0
10 *757:11 *765:11 0.0388261
11 *757:15 *759:15 0.0152019
12 gpio_analog_en[17] *757:19 0.199958
13 gpio_ib_mode_sel[35] *757:9 0.000494594
14 *202:27 *757:15 0.00452294
15 *293:27 *757:11 0
16 *334:36 *757:15 0.0173552
17 *362:11 *757:11 0
18 *384:11 *757:11 0
19 *414:11 *757:11 0.00640299
20 *415:11 *757:11 0.0446526
21 *440:31 *757:15 0.149999
22 *537:250 gpio_slow_sel[17] 0
23 *737:71 *757:9 1.39253e-05
24 *753:15 *757:15 0.0158541
25 *754:21 *757:11 0
26 *755:15 *757:15 0
*RES
1 *921:gpio_slow_sel[17] *757:9 6.28107 
2 *757:9 *757:11 499.013 
3 *757:11 *757:13 2 
4 *757:13 *757:15 1594.35 
5 *757:15 *757:17 2 
6 *757:17 *757:19 2222.94 
7 *757:19 gpio_slow_sel[17] 17.365 
*END

*D_NET *758 0.537421
*CONN
*P gpio_slow_sel[18] O
*I *921:gpio_slow_sel[18] O *D CF_CARAVEL_SOC
*CAP
1 gpio_slow_sel[18] 0.103306
2 *921:gpio_slow_sel[18] 0.000209217
3 *758:15 0.103306
4 *758:13 0.0699431
5 *758:11 0.0699431
6 *758:9 0.0306004
7 *758:7 0.0308096
8 *758:9 *784:9 0.0109806
9 *758:9 *831:27 0.00447764
10 *758:9 *836:11 0.0409722
11 *160:29 *758:9 0.0256846
12 *274:345 gpio_slow_sel[18] 0
13 *278:15 *758:13 0
14 *279:15 *758:13 0
15 *449:13 *758:9 0.00726968
16 *453:17 *758:9 0.00915049
17 *538:409 gpio_slow_sel[18] 0
18 *542:39 *758:9 0.000790839
19 *675:13 *758:13 0.029977
20 *676:11 *758:13 0
21 *752:11 *758:9 0
22 *757:9 *758:7 0
*RES
1 *921:gpio_slow_sel[18] *758:7 0.8686 
2 *758:7 *758:9 144.354 
3 *758:9 *758:11 0.5 
4 *758:11 *758:13 209.478 
5 *758:13 *758:15 0.5 
6 *758:15 gpio_slow_sel[18] 1864.61 
*END

*D_NET *759 0.633425
*CONN
*P gpio_slow_sel[19] O
*I *921:gpio_slow_sel[19] O *D CF_CARAVEL_SOC
*CAP
1 gpio_slow_sel[19] 0.00169952
2 *921:gpio_slow_sel[19] 0.0041021
3 *759:19 0.0882887
4 *759:17 0.0865891
5 *759:15 0.0151101
6 *759:13 0.0151101
7 *759:11 0.00909612
8 *759:9 0.0131982
9 *759:9 *761:9 0
10 *759:11 *774:11 0.00360796
11 *759:11 *779:11 0.00793433
12 *759:11 *788:11 0.0401308
13 *759:15 *761:15 0.0815482
14 gpio_analog_en[19] *759:19 0
15 gpio_analog_pol[19] *759:19 0
16 gpio_dm0[19] *759:19 0.0850551
17 gpio_out[35] *759:9 0.000212727
18 *202:27 *759:15 0.0120048
19 *334:36 *759:15 0.0730695
20 *361:17 *759:15 0.004
21 *361:33 *759:15 0.0158899
22 *367:11 *759:11 0.000799621
23 *394:11 *759:11 0.027917
24 *394:15 *759:15 0.000135132
25 *395:23 *759:15 0.000606248
26 *438:23 *759:15 0.0155323
27 *440:31 *759:15 0.0165853
28 *757:15 *759:15 0.0152019
*RES
1 *921:gpio_slow_sel[19] *759:9 8.67 
2 *759:9 *759:11 488.685 
3 *759:11 *759:13 0.5 
4 *759:13 *759:15 150.191 
5 *759:15 *759:17 0.5 
6 *759:17 *759:19 2216.05 
7 *759:19 gpio_slow_sel[19] 12.776 
*END

*D_NET *760 0.79539
*CONN
*P gpio_slow_sel[1] O
*I *921:gpio_slow_sel[1] O *D CF_CARAVEL_SOC
*CAP
1 gpio_slow_sel[1] 0.00255825
2 *921:gpio_slow_sel[1] 0.00297782
3 *760:35 0.0169293
4 *760:33 0.014371
5 *760:31 0.0112867
6 *760:29 0.0118449
7 *760:23 0.0262175
8 *760:21 0.0266568
9 *760:11 0.0115167
10 *760:9 0.013497
11 *760:9 *771:9 0.000350754
12 *760:11 gpio_vtrip_sel[35] 0.000857556
13 *760:11 *832:17 0.00199702
14 *760:21 *785:25 1.59024e-05
15 *760:21 *837:15 0.000265962
16 *760:21 *845:25 0.000214134
17 *760:21 *852:25 0.000533939
18 *760:31 *849:11 0.0173531
19 *760:35 *804:27 0.00137184
20 *164:43 *760:23 0.0106834
21 *168:11 *760:35 0
22 *249:25 *760:21 0.00110288
23 *293:27 *760:11 0.0663666
24 *294:25 *760:23 0.00356779
25 *295:25 *760:21 6.20394e-05
26 *295:27 *760:11 0.0103647
27 *322:149 *760:29 2.88984e-05
28 *336:47 *760:31 0.00649415
29 *339:23 *760:23 0.0221605
30 *353:31 *760:31 0.0814033
31 *384:11 *760:11 0.0669299
32 *389:21 *760:21 0.00124137
33 *389:23 *760:23 0.165028
34 *390:21 *760:21 0.000588527
35 *390:23 *760:23 0.0970665
36 *408:101 *760:35 0.0305484
37 *435:23 *760:31 0.000336843
38 *539:17 *760:29 0
39 *542:11 *760:31 0.000324
40 *552:25 *760:11 0
41 *570:22 *760:31 0.0702759
42 *740:169 *760:29 0
*RES
1 *921:gpio_slow_sel[1] *760:9 6.7472 
2 *760:9 *760:11 744.705 
3 *760:11 *760:21 10.3509 
4 *760:21 *760:23 1518.8 
5 *760:23 *760:29 11.755 
6 *760:29 *760:31 749.445 
7 *760:31 *760:33 2 
8 *760:33 *760:35 381.203 
9 *760:35 gpio_slow_sel[1] 5.38617 
*END

*D_NET *761 0.589703
*CONN
*P gpio_slow_sel[20] O
*I *921:gpio_slow_sel[20] O *D CF_CARAVEL_SOC
*CAP
1 gpio_slow_sel[20] 9.84929e-05
2 *921:gpio_slow_sel[20] 0.00514068
3 *761:19 0.123323
4 *761:17 0.123224
5 *761:15 0.01209
6 *761:13 0.01209
7 *761:11 0.00789057
8 *761:9 0.0130313
9 *761:9 *762:9 0
10 *761:11 *813:11 0.000377756
11 *761:11 *814:11 0.00771942
12 *761:11 *816:11 0.0290769
13 *761:11 *873:49 0.0267457
14 gpio_analog_sel[35] *761:9 0
15 gpio_ib_mode_sel[32] *761:11 0.000670968
16 gpio_out[35] *761:9 0
17 *202:27 *761:15 0.0826907
18 *361:17 *761:15 0.00363378
19 *361:33 *761:15 0.0100634
20 *394:15 *761:15 3.97095e-06
21 *422:11 *761:11 0.0076921
22 *546:25 *761:11 0.009197
23 *723:11 *761:19 0
24 *725:15 *761:19 0
25 *730:19 *761:15 0
26 *753:15 *761:15 0.0159708
27 *754:23 *761:15 0.0174242
28 *759:9 *761:9 0
29 *759:15 *761:15 0.0815482
*RES
1 *921:gpio_slow_sel[20] *761:9 10.4763 
2 *761:9 *761:11 484.095 
3 *761:11 *761:13 0.5 
4 *761:13 *761:15 121.815 
5 *761:15 *761:17 0.5 
6 *761:17 *761:19 2223.71 
7 *761:19 gpio_slow_sel[20] 1.35 
*END

*D_NET *762 0.460926
*CONN
*P gpio_slow_sel[21] O
*I *921:gpio_slow_sel[21] O *D CF_CARAVEL_SOC
*CAP
1 gpio_slow_sel[21] 0.000926582
2 *921:gpio_slow_sel[21] 0.00390998
3 *762:15 0.0114614
4 *762:13 0.0105348
5 *762:11 0.142711
6 *762:9 0.146621
7 *762:9 *763:9 0
8 *762:11 *770:11 0
9 *365:11 *762:11 0
10 *365:15 *762:15 0.0568381
11 *366:15 *762:15 0.000697704
12 *367:11 *762:11 0
13 *404:23 *762:15 0.000130266
14 *409:15 *762:15 0.00017033
15 *410:15 *762:15 0.0523001
16 *411:11 *762:11 0
17 *440:19 *762:11 0
18 *689:15 *762:11 0.000436027
19 *734:15 *762:11 0.00701789
20 *736:39 *762:11 0.0271717
21 *761:9 *762:9 0
*RES
1 *921:gpio_slow_sel[21] *762:9 8.1456 
2 *762:9 *762:11 2687.8 
3 *762:11 *762:13 0.5 
4 *762:13 *762:15 86.9136 
5 *762:15 gpio_slow_sel[21] 16.745 
*END

*D_NET *763 0.534409
*CONN
*P gpio_slow_sel[22] O
*I *921:gpio_slow_sel[22] O *D CF_CARAVEL_SOC
*CAP
1 gpio_slow_sel[22] 8.98628e-05
2 *921:gpio_slow_sel[22] 0.00446687
3 *763:15 0.00716361
4 *763:13 0.00707374
5 *763:11 0.0940345
6 *763:9 0.0985014
7 *763:11 *775:11 0
8 gpio_ib_mode_sel[23] *763:15 0.000325195
9 *359:15 *763:15 0.0343895
10 *363:17 *763:15 4.3249e-05
11 *363:19 *763:15 0.000677437
12 *366:11 *763:11 0.221716
13 *367:15 *763:15 0.0336935
14 *372:11 *763:11 0
15 *392:11 *763:11 0
16 *446:19 *763:11 0
17 *450:9 *763:15 0.00636111
18 *451:9 *763:15 0.0116526
19 *454:39 *763:9 0.000204623
20 *455:21 *763:11 0.00783775
21 *693:79 *763:11 0.000204014
22 *737:57 *763:11 0.00597415
23 *762:9 *763:9 0
*RES
1 *921:gpio_slow_sel[22] *763:9 9.31093 
2 *763:9 *763:11 2697.5 
3 *763:11 *763:13 0.5 
4 *763:13 *763:15 55.5661 
5 *763:15 gpio_slow_sel[22] 1.5725 
*END

*D_NET *764 0.360943
*CONN
*P gpio_slow_sel[23] O
*I *921:gpio_slow_sel[23] O *D CF_CARAVEL_SOC
*CAP
1 gpio_slow_sel[23] 0.00208018
2 *921:gpio_slow_sel[23] 0.000953423
3 *764:23 0.124518
4 *764:21 0.126002
5 *764:11 0.0114307
6 *764:9 0.00881947
7 *764:9 *765:9 0
8 *764:11 *786:11 0.000843473
9 *764:11 *796:11 0
10 *764:21 *782:15 0.00343869
11 *764:21 *796:11 0
12 *116:69 *764:11 0.00220693
13 *116:69 *764:21 0.000232328
14 *193:61 *764:21 0.000363833
15 *322:407 *764:23 0.00180742
16 *406:17 *764:21 9.45798e-05
17 *407:11 *764:11 0.0367495
18 *407:11 *764:21 0.000929026
19 *454:25 *764:11 0.0210249
20 *454:39 *764:9 0
21 *539:271 *764:23 0
22 *542:31 *764:11 0.00750762
23 *689:11 *764:21 0.0106634
24 *705:33 *764:21 0.000911508
25 *750:11 *764:11 0.000103095
26 *756:6 *764:9 0.000262458
*RES
1 *921:gpio_slow_sel[23] *764:9 2.2556 
2 *764:9 *764:11 410.28 
3 *764:11 *764:21 47.0567 
4 *764:21 *764:23 2216.61 
5 *764:23 gpio_slow_sel[23] 36.0975 
*END

*D_NET *765 0.494261
*CONN
*P gpio_slow_sel[24] O
*I *921:gpio_slow_sel[24] O *D CF_CARAVEL_SOC
*CAP
1 gpio_slow_sel[24] 0.00486792
2 *921:gpio_slow_sel[24] 0.00277133
3 *765:19 0.0854668
4 *765:17 0.080646
5 *765:11 0.0153679
6 *765:9 0.0180921
7 *765:17 *832:37 0.000235526
8 *765:19 *768:19 0.00763639
9 gpio_analog_pol[35] *765:9 0.000424099
10 *205:53 *765:17 0.000239804
11 *281:31 gpio_slow_sel[24] 0
12 *362:11 *765:11 0
13 *362:11 *765:19 0.0406804
14 *368:11 *765:19 0.0792322
15 *373:11 *765:19 0.055723
16 *384:11 *765:11 0
17 *414:11 *765:11 0.00596981
18 *414:11 *765:19 0.0580817
19 *457:9 gpio_slow_sel[24] 0
20 *737:39 *765:11 0
21 *757:11 *765:11 0.0388261
22 *764:9 *765:9 0
*RES
1 *921:gpio_slow_sel[24] *765:9 6.33933 
2 *765:9 *765:11 433.605 
3 *765:11 *765:17 1.35847 
4 *765:17 *765:19 362.832 
5 *765:19 gpio_slow_sel[24] 10.4047 
*END

*D_NET *766 0.341481
*CONN
*P gpio_slow_sel[25] O
*I *921:gpio_slow_sel[25] O *D CF_CARAVEL_SOC
*CAP
1 gpio_slow_sel[25] 0.00575784
2 *921:gpio_slow_sel[25] 0.00231499
3 *766:11 0.0584654
4 *766:9 0.0550226
5 *766:9 *767:17 0
6 *282:15 gpio_slow_sel[25] 0
7 *361:17 *766:11 0
8 *371:11 *766:11 0.0277873
9 *375:19 *766:11 0.000264131
10 *413:19 *766:11 0.0600911
11 *418:11 *766:11 0.117664
12 *423:11 *766:11 0.00353012
13 *458:9 gpio_slow_sel[25] 0
14 *468:11 *766:11 0.00338602
15 *543:31 *766:11 0.00274711
16 *687:19 *766:11 0.00254021
17 *737:65 *766:11 0.00164831
18 *756:6 *766:9 0.000262458
*RES
1 *921:gpio_slow_sel[25] *766:9 4.90673 
2 *766:9 *766:11 327.172 
3 *766:11 gpio_slow_sel[25] 12.705 
*END

*D_NET *767 0.333021
*CONN
*P gpio_slow_sel[26] O
*I *921:gpio_slow_sel[26] O *D CF_CARAVEL_SOC
*CAP
1 gpio_slow_sel[26] 0.00157829
2 *921:gpio_slow_sel[26] 0.00708398
3 *767:19 0.159291
4 *767:17 0.164797
5 *767:17 gpio_slow_sel[35] 0
6 *767:17 *768:9 0
7 *767:17 *789:17 0
8 *284:51 *767:17 0.000227494
9 *410:11 *767:17 0
10 *469:9 *767:17 4.32417e-05
11 *766:9 *767:17 0
*RES
1 *921:gpio_slow_sel[26] *767:17 19.1517 
2 *767:17 *767:19 298.835 
3 *767:19 gpio_slow_sel[26] 3.4583 
*END

*D_NET *768 0.301554
*CONN
*P gpio_slow_sel[27] O
*I *921:gpio_slow_sel[27] O *D CF_CARAVEL_SOC
*CAP
1 gpio_slow_sel[27] 0.00480305
2 *921:gpio_slow_sel[27] 0.00305912
3 *768:19 0.0291681
4 *768:17 0.0244303
5 *768:11 0.0312406
6 *768:9 0.0342345
7 *768:9 gpio_slow_sel[35] 0.00043192
8 *768:9 *769:9 0
9 *768:11 *803:11 0.0390446
10 gpio_ib_mode_sel[30] *768:19 6.58626e-05
11 *368:11 *768:11 0.0260189
12 *373:11 *768:11 0.00106687
13 *373:11 *768:19 0.031954
14 *420:11 *768:11 0.0352567
15 *456:27 *768:11 0.0265557
16 *684:21 *768:17 0
17 *736:23 *768:11 0.00597973
18 *753:11 *768:11 0.000608117
19 *765:19 *768:19 0.00763639
20 *767:17 *768:9 0
*RES
1 *921:gpio_slow_sel[27] *768:9 6.922 
2 *768:9 *768:11 1075.19 
3 *768:11 *768:17 1.1254 
4 *768:17 *768:19 89.6167 
5 *768:19 gpio_slow_sel[27] 10.0703 
*END

*D_NET *769 0.293143
*CONN
*P gpio_slow_sel[28] O
*I *921:gpio_slow_sel[28] O *D CF_CARAVEL_SOC
*CAP
1 gpio_slow_sel[28] 0.0035046
2 *921:gpio_slow_sel[28] 0.0048738
3 *769:11 0.0468685
4 *769:9 0.0482377
5 *769:9 *770:9 0
6 *769:11 *817:11 0.0862468
7 gpio_dm2[31] *769:11 0.000405468
8 gpio_holdover[33] *769:11 0.000242563
9 *205:67 *769:11 0
10 *369:19 *769:11 0.000199829
11 *369:23 *769:11 0.00209965
12 *417:19 *769:11 0.0630525
13 *422:11 *769:11 0
14 *437:11 *769:11 0.000360338
15 *437:19 *769:11 0.00697363
16 *457:11 *769:11 0.0300778
17 *768:9 *769:9 0
*RES
1 *921:gpio_slow_sel[28] *769:9 9.8062 
2 *769:9 *769:11 242.934 
3 *769:11 gpio_slow_sel[28] 7.3039 
*END

*D_NET *770 0.212732
*CONN
*P gpio_slow_sel[29] O
*I *921:gpio_slow_sel[29] O *D CF_CARAVEL_SOC
*CAP
1 gpio_slow_sel[29] 0.00428623
2 *921:gpio_slow_sel[29] 0.00371703
3 *770:19 0.0322875
4 *770:17 0.0282681
5 *770:11 0.0289336
6 *770:9 0.0323837
7 *770:9 *772:9 0
8 gpio_holdover[31] *770:17 2.38374e-05
9 *201:15 *770:17 0
10 *245:15 *770:17 0
11 *365:11 *770:11 0.0163803
12 *387:11 *770:11 0.0113484
13 *395:19 *770:11 0.0176311
14 *440:19 *770:11 0.0374719
15 *762:11 *770:11 0
16 *769:9 *770:9 0
*RES
1 *921:gpio_slow_sel[29] *770:9 7.796 
2 *770:9 *770:11 915.045 
3 *770:11 *770:17 1.53327 
4 *770:17 *770:19 60.3313 
5 *770:19 gpio_slow_sel[29] 8.67697 
*END

*D_NET *771 0.707697
*CONN
*P gpio_slow_sel[2] O
*I *921:gpio_slow_sel[2] O *D CF_CARAVEL_SOC
*CAP
1 gpio_slow_sel[2] 0.00351427
2 *921:gpio_slow_sel[2] 0.00188576
3 *771:31 0.0183927
4 *771:29 0.0148785
5 *771:27 0.057952
6 *771:25 0.0588305
7 *771:11 0.011109
8 *771:9 0.0121162
9 *771:9 *836:11 0.000229581
10 *771:25 *829:29 0.000151745
11 *771:25 *846:39 0
12 *771:25 *864:15 0
13 *771:25 *865:15 0
14 *771:27 *842:11 0.0384488
15 gpio_dm1[2] gpio_slow_sel[2] 0
16 *121:15 *771:27 0.00919065
17 *133:11 *771:31 0.00140729
18 *165:15 *771:27 0
19 *169:11 *771:31 0
20 *170:23 *771:27 0.0124733
21 *222:17 *771:31 0.000692258
22 *224:19 *771:31 0.00899315
23 *257:15 *771:27 0.00447592
24 *292:25 *771:25 0.00020566
25 *293:25 *771:25 0.000619075
26 *296:15 *771:27 0.0223656
27 *303:11 *771:31 0.00363471
28 *322:79 *771:27 0
29 *339:15 *771:27 2.64416e-05
30 *382:11 *771:11 0.00140262
31 *388:11 *771:11 0.0653899
32 *388:11 *771:25 1.20478e-05
33 *425:11 *771:11 0.0029374
34 *434:23 *771:27 0
35 *435:27 *771:31 0.0482828
36 *450:33 *771:27 0.0270137
37 *456:31 *771:27 0.00776105
38 *468:29 *771:27 0.00421647
39 *469:15 *771:25 0.00061678
40 *470:15 *771:27 0.013641
41 *474:15 *771:27 0
42 *543:11 *771:27 0.181129
43 *543:23 *771:11 0.00720284
44 *550:21 *771:25 0
45 *737:73 *771:11 0.000516994
46 *749:11 *771:11 0.064454
47 *749:25 *771:11 1.52041e-05
48 *749:25 *771:25 0.00116125
49 *760:9 *771:9 0.000350754
*RES
1 *921:gpio_slow_sel[2] *771:9 4.46973 
2 *771:9 *771:11 727.875 
3 *771:11 *771:25 21.3328 
4 *771:25 *771:27 2259.85 
5 *771:27 *771:29 2 
6 *771:29 *771:31 537.008 
7 *771:31 gpio_slow_sel[2] 7.09617 
*END

*D_NET *772 0.213828
*CONN
*P gpio_slow_sel[30] O
*I *921:gpio_slow_sel[30] O *D CF_CARAVEL_SOC
*CAP
1 gpio_slow_sel[30] 0.00238258
2 *921:gpio_slow_sel[30] 0.0061745
3 *772:11 0.0357293
4 *772:9 0.0395213
5 *772:9 *773:9 0
6 *392:19 *772:11 0.000318208
7 *402:11 *772:11 0
8 *464:11 *772:11 0.0955221
9 *690:23 *772:11 0.0341799
10 *770:9 *772:9 0
*RES
1 *921:gpio_slow_sel[30] *772:9 12.166 
2 *772:9 *772:11 1104.26 
3 *772:11 gpio_slow_sel[30] 4.91877 
*END

*D_NET *773 0.187041
*CONN
*P gpio_slow_sel[31] O
*I *921:gpio_slow_sel[31] O *D CF_CARAVEL_SOC
*CAP
1 gpio_slow_sel[31] 0.00281893
2 *921:gpio_slow_sel[31] 0.00574715
3 *773:11 0.0295804
4 *773:9 0.0325086
5 *773:9 *774:9 0
6 *162:27 *773:11 0.0337746
7 *396:11 *773:11 0
8 *465:11 *773:11 0.0810425
9 *754:11 *773:11 0.00156887
10 *772:9 *773:9 0
*RES
1 *921:gpio_slow_sel[31] *773:9 11.4085 
2 *773:9 *773:11 936.975 
3 *773:11 gpio_slow_sel[31] 5.70663 
*END

*D_NET *774 0.106847
*CONN
*P gpio_slow_sel[32] O
*I *921:gpio_slow_sel[32] O *D CF_CARAVEL_SOC
*CAP
1 gpio_slow_sel[32] 0.00413231
2 *921:gpio_slow_sel[32] 0.00431002
3 *774:11 0.0132147
4 *774:9 0.0133924
5 *774:9 *775:9 0
6 *774:11 *775:11 0.00156474
7 *774:11 *779:11 0.00221377
8 *367:11 *774:11 0
9 *372:11 *774:11 0.0220529
10 *394:11 *774:11 0.0279192
11 *446:19 *774:11 0.0144389
12 *759:11 *774:11 0.00360796
13 *773:9 *774:9 0
*RES
1 *921:gpio_slow_sel[32] *774:9 8.78653 
2 *774:9 *774:11 454.515 
3 *774:11 gpio_slow_sel[32] 8.1361 
*END

*D_NET *775 0.0680338
*CONN
*P gpio_slow_sel[33] O
*I *921:gpio_slow_sel[33] O *D CF_CARAVEL_SOC
*CAP
1 gpio_slow_sel[33] 0.0045463
2 *921:gpio_slow_sel[33] 0.00438992
3 *775:11 0.012984
4 *775:9 0.0128276
5 *775:9 *776:9 0
6 gpio_analog_en[33] gpio_slow_sel[33] 0
7 gpio_dm1[33] gpio_slow_sel[33] 6.87674e-05
8 *372:11 *775:11 0.0075732
9 *392:11 *775:11 0.00916831
10 *446:19 *775:11 0.0139978
11 *455:19 gpio_slow_sel[33] 0.000350766
12 *553:25 gpio_slow_sel[33] 0.00056237
13 *763:11 *775:11 0
14 *774:9 *775:9 0
15 *774:11 *775:11 0.00156474
*RES
1 *921:gpio_slow_sel[33] *775:9 8.90307 
2 *775:9 *775:11 281.625 
3 *775:11 gpio_slow_sel[33] 15.46 
*END

*D_NET *776 0.0423095
*CONN
*P gpio_slow_sel[34] O
*I *921:gpio_slow_sel[34] O *D CF_CARAVEL_SOC
*CAP
1 gpio_slow_sel[34] 0.00110602
2 *921:gpio_slow_sel[34] 0.00762472
3 *776:11 0.0032026
4 *776:9 0.0097213
5 *776:9 gpio_slow_sel[35] 0
6 *439:11 *776:11 0.010328
7 *447:17 *776:11 0.0103269
8 *468:9 gpio_slow_sel[34] 0
9 *775:9 *776:9 0
*RES
1 *921:gpio_slow_sel[34] *776:9 14.6132 
2 *776:9 *776:11 119.445 
3 *776:11 gpio_slow_sel[34] 2.45637 
*END

*D_NET *777 0.0316533
*CONN
*P gpio_slow_sel[35] O
*I *921:gpio_slow_sel[35] O *D CF_CARAVEL_SOC
*CAP
1 gpio_slow_sel[35] 0.00827216
2 *921:gpio_slow_sel[35] 0.00827216
3 gpio_slow_sel[35] *778:17 0
4 gpio_slow_sel[35] *789:17 0.000321069
5 gpio_dm0[34] gpio_slow_sel[35] 0
6 *292:27 gpio_slow_sel[35] 0.00398731
7 *389:11 gpio_slow_sel[35] 0.000744246
8 *423:11 gpio_slow_sel[35] 0.00398244
9 *469:9 gpio_slow_sel[35] 0.00564198
10 *767:17 gpio_slow_sel[35] 0
11 *768:9 gpio_slow_sel[35] 0.00043192
12 *776:9 gpio_slow_sel[35] 0
*RES
1 *921:gpio_slow_sel[35] gpio_slow_sel[35] 24.572 
*END

*D_NET *778 0.0698051
*CONN
*P gpio_slow_sel[36] O
*I *921:gpio_slow_sel[36] O *D CF_CARAVEL_SOC
*CAP
1 gpio_slow_sel[36] 0.00248758
2 *921:gpio_slow_sel[36] 0.0101516
3 *778:17 0.0126392
4 *778:17 *790:11 0.0028708
5 gpio_slow_sel[35] *778:17 0
6 *364:17 *778:17 3.45325e-05
7 *364:25 *778:17 1.47512e-05
8 *382:11 *778:17 0.0201293
9 *413:11 *778:17 0.00133765
10 *418:11 *778:17 0.0201398
*RES
1 *921:gpio_slow_sel[36] *778:17 48.6077 
2 *778:17 gpio_slow_sel[36] 4.43397 
*END

*D_NET *779 0.0811348
*CONN
*P gpio_slow_sel[37] O
*I *921:gpio_slow_sel[37] O *D CF_CARAVEL_SOC
*CAP
1 gpio_slow_sel[37] 0.00303433
2 *921:gpio_slow_sel[37] 0.00437339
3 *779:11 0.011841
4 *779:9 0.0131801
5 *779:11 *788:11 0.00350943
6 *294:27 *779:11 0.0131421
7 *364:17 *779:9 0
8 *446:19 *779:11 0.00987807
9 *471:9 gpio_slow_sel[37] 0.00469468
10 *544:17 *779:11 0.00733371
11 *759:11 *779:11 0.00793433
12 *774:11 *779:11 0.00221377
*RES
1 *921:gpio_slow_sel[37] *779:9 8.72827 
2 *779:9 *779:11 379.035 
3 *779:11 gpio_slow_sel[37] 8.3375 
*END

*D_NET *780 0.313807
*CONN
*P gpio_slow_sel[38] O
*I *921:gpio_slow_sel[38] O *D CF_CARAVEL_SOC
*CAP
1 gpio_slow_sel[38] 0.00181363
2 *921:gpio_slow_sel[38] 0.000138806
3 *780:13 0.0105937
4 *780:11 0.00878006
5 *780:9 0.0292494
6 *780:7 0.0293882
7 *780:9 *781:11 0.0818127
8 *780:9 *783:11 4.41802e-05
9 *780:9 *784:9 0.0117171
10 *780:9 *838:25 0.000483319
11 *780:9 *840:25 0.000405264
12 *780:9 *841:21 0.00173748
13 *780:9 *841:23 0.0157024
14 *780:9 *842:23 0.000263504
15 *780:13 *852:19 0.0454038
16 *780:13 *852:25 0.000396546
17 *338:71 *780:13 0.00271819
18 *429:19 *780:13 0.0510564
19 *449:41 *780:13 0.0099373
20 *461:23 *780:13 0.0117835
21 *474:15 *780:13 0.000381121
*RES
1 *921:gpio_slow_sel[38] *780:7 0.722933 
2 *780:7 *780:9 934.68 
3 *780:9 *780:11 0.5 
4 *780:11 *780:13 77.4744 
5 *780:13 gpio_slow_sel[38] 25.1225 
*END

*D_NET *781 0.466237
*CONN
*P gpio_slow_sel[39] O
*I *921:gpio_slow_sel[39] O *D CF_CARAVEL_SOC
*CAP
1 gpio_slow_sel[39] 0.000624412
2 *921:gpio_slow_sel[39] 0.000179298
3 *781:23 0.018445
4 *781:21 0.0193599
5 *781:11 0.014939
6 *781:9 0.0135791
7 *781:11 *783:11 0.0821937
8 *781:11 *784:9 0.0165748
9 *781:21 *783:11 0
10 *781:21 *785:25 0
11 *781:21 *786:21 5.53549e-06
12 *781:21 *804:21 0.000200216
13 *781:21 *838:25 0.00183032
14 *781:21 *841:21 0
15 *781:21 *854:25 0
16 *781:21 *860:15 0
17 *781:23 *783:15 0.0963823
18 *781:23 *804:23 0.0209382
19 *781:23 *825:23 0.000121832
20 *781:23 *859:19 0.0447669
21 *250:23 *781:23 0.0228957
22 *433:10 *781:23 0.0286465
23 *542:15 *781:21 0.00255016
24 *693:95 *781:21 0.000191232
25 *780:9 *781:11 0.0818127
*RES
1 *921:gpio_slow_sel[39] *781:9 0.831867 
2 *781:9 *781:11 916.958 
3 *781:11 *781:21 44.3025 
4 *781:21 *781:23 146.52 
5 *781:23 gpio_slow_sel[39] 9.1175 
*END

*D_NET *782 0.788655
*CONN
*P gpio_slow_sel[3] O
*I *921:gpio_slow_sel[3] O *D CF_CARAVEL_SOC
*CAP
1 gpio_slow_sel[3] 0.00108142
2 *921:gpio_slow_sel[3] 0.00743275
3 *782:55 0.00948877
4 *782:53 0.00895952
5 *782:47 0.0043799
6 *782:45 0.00431127
7 *782:39 0.00272391
8 *782:37 0.00409264
9 *782:31 0.0030891
10 *782:29 0.0034014
11 *782:19 0.00413116
12 *782:17 0.00196659
13 *782:15 0.0538719
14 *782:13 0.0538719
15 *782:11 0.00992287
16 *782:9 0.0173556
17 *782:11 *810:11 0.00532486
18 *782:15 *787:15 0.0010777
19 *782:15 *788:15 0.261564
20 *782:15 *832:49 0
21 *782:19 gpio_vtrip_sel[6] 0
22 gpio_analog_pol[6] *782:29 0.00060601
23 gpio_dm0[5] *782:47 0.000103832
24 gpio_dm1[3] gpio_slow_sel[3] 0
25 gpio_holdover[6] *782:19 0
26 gpio_inp_dis[5] *782:47 8.63324e-05
27 gpio_inp_dis[6] *782:29 0.00022055
28 *114:23 *782:15 0.100295
29 *132:11 *782:31 0.0026156
30 *165:9 *782:37 0.000464655
31 *176:11 *782:31 0.00115783
32 *193:61 *782:15 0
33 *210:11 *782:55 0.00909864
34 *217:11 *782:55 0.0124885
35 *219:11 *782:19 0
36 *219:11 *782:29 0
37 *228:25 *782:15 0.0108466
38 *262:11 *782:55 0.00189062
39 *281:11 *782:19 0.00438016
40 *281:11 *782:29 0.000649714
41 *281:11 *782:47 0
42 *283:11 *782:39 0
43 *283:25 *782:15 0.000235924
44 *286:15 *782:15 0.0111076
45 *286:39 *782:15 0.0469297
46 *305:11 *782:47 0.00978946
47 *312:19 *782:31 0.00601649
48 *337:33 *782:29 0.0024114
49 *337:43 *782:11 0.0378084
50 *375:31 *782:15 0.000575951
51 *375:35 *782:19 0
52 *430:35 *782:55 0.00352464
53 *435:35 *782:55 0.0074204
54 *436:27 *782:39 0.00517039
55 *439:11 *782:11 0.0471968
56 *689:11 *782:15 0.00407774
57 *691:11 *782:15 0
58 *764:21 *782:15 0.00343869
*RES
1 *921:gpio_slow_sel[3] *782:9 14.7297 
2 *782:9 *782:11 545.805 
3 *782:11 *782:13 0.5 
4 *782:13 *782:15 397.067 
5 *782:15 *782:17 0.5 
6 *782:17 *782:19 52.125 
7 *782:19 *782:29 19.3395 
8 *782:29 *782:31 66.915 
9 *782:31 *782:37 4.534 
10 *782:37 *782:39 59.775 
11 *782:39 *782:45 1.85373 
12 *782:45 *782:47 108.735 
13 *782:47 *782:53 1.912 
14 *782:53 *782:55 288.255 
15 *782:55 gpio_slow_sel[3] 2.6793 
*END

*D_NET *783 0.463653
*CONN
*P gpio_slow_sel[40] O
*I *921:gpio_slow_sel[40] O *D CF_CARAVEL_SOC
*CAP
1 gpio_slow_sel[40] 0.00065166
2 *921:gpio_slow_sel[40] 0.000123382
3 *783:15 0.0208998
4 *783:13 0.0202481
5 *783:11 0.0300407
6 *783:9 0.0301641
7 *783:11 *784:9 0.00043974
8 *783:11 *786:21 0
9 *783:11 *836:11 0.00152139
10 *783:11 *841:21 0.00243071
11 *783:11 *843:15 0.0192055
12 *783:11 *844:17 0.000398899
13 *783:15 *784:13 0.00105656
14 *783:15 *804:23 0.000361136
15 *783:15 *825:23 0.100984
16 *783:15 *844:13 0.01444
17 *250:23 *783:15 0.000331014
18 *433:6 *783:11 0.00890332
19 *433:10 *783:15 0.000852468
20 *473:15 *783:15 0.00473607
21 *475:17 *783:15 0.00619932
22 *477:11 *783:15 0.000423584
23 *561:18 *783:15 0.0206218
24 *780:9 *783:11 4.41802e-05
25 *781:11 *783:11 0.0821937
26 *781:21 *783:11 0
27 *781:23 *783:15 0.0963823
*RES
1 *921:gpio_slow_sel[40] *783:9 0.7736 
2 *783:9 *783:11 959.415 
3 *783:11 *783:13 0.5 
4 *783:13 *783:15 180.898 
5 *783:15 gpio_slow_sel[40] 9.5075 
*END

*D_NET *784 0.529069
*CONN
*P gpio_slow_sel[41] O
*I *921:gpio_slow_sel[41] O *D CF_CARAVEL_SOC
*CAP
1 gpio_slow_sel[41] 0.000545399
2 *921:gpio_slow_sel[41] 0.00012714
3 *784:21 0.00328763
4 *784:19 0.00296554
5 *784:13 0.0383035
6 *784:11 0.0380802
7 *784:9 0.0471124
8 *784:7 0.0472395
9 *784:9 *921:mask_rev[11] 0.00980272
10 *784:9 *786:11 0
11 *784:9 *836:11 0.0363247
12 *784:9 *841:23 0.00273663
13 *784:9 *842:23 0.00353088
14 *784:13 *825:23 0.0396649
15 *784:13 *843:11 0.0351721
16 *784:13 *850:21 2.08512e-05
17 *784:21 *804:23 0.00119716
18 *784:21 *829:43 0.010214
19 *248:19 *784:13 0.000921114
20 *325:103 *784:13 0.000844019
21 *400:11 *784:9 0
22 *433:6 *784:9 0.0283701
23 *433:10 *784:21 0.000160538
24 *453:49 *784:13 0.0133769
25 *454:39 *784:7 8.20724e-06
26 *454:53 *784:13 0.0127682
27 *473:15 *784:13 0.0138172
28 *475:17 *784:13 0.00299972
29 *476:17 *784:19 3.33028e-05
30 *477:11 *784:13 0.0138952
31 *546:13 *784:13 0.0279194
32 *552:13 *784:13 0.0305691
33 *737:171 *784:13 0.00227536
34 *739:128 *784:13 0.0240167
35 *750:11 *784:9 0
36 *752:11 *784:9 0
37 *758:9 *784:9 0.0109806
38 *780:9 *784:9 0.0117171
39 *781:11 *784:9 0.0165748
40 *783:11 *784:9 0.00043974
41 *783:15 *784:13 0.00105656
*RES
1 *921:gpio_slow_sel[41] *784:7 0.752067 
2 *784:7 *784:9 162.787 
3 *784:9 *784:11 0.5 
4 *784:11 *784:13 199.864 
5 *784:13 *784:19 5.7925 
6 *784:19 *784:21 93.945 
7 *784:21 gpio_slow_sel[41] 9.575 
*END

*D_NET *785 0.534651
*CONN
*P gpio_slow_sel[42] O
*I *921:gpio_slow_sel[42] O *D CF_CARAVEL_SOC
*CAP
1 gpio_slow_sel[42] 0.000515844
2 *921:gpio_slow_sel[42] 0.00100738
3 *785:27 0.0327239
4 *785:25 0.0339028
5 *785:11 0.0269242
6 *785:9 0.026237
7 *785:9 *786:9 0
8 *785:11 *796:11 0
9 *785:11 *799:11 0.00109517
10 *785:11 *801:11 0.0181272
11 *785:11 *804:11 0.00139921
12 *785:11 *806:11 0.000295593
13 *785:11 *807:11 0.0292605
14 *785:11 *834:11 0.00402771
15 *785:11 *845:27 0.0174845
16 *785:11 *847:36 2.4784e-05
17 *785:11 *847:38 0.0183628
18 *785:11 *853:21 7.91584e-06
19 *785:11 *853:23 0.00133888
20 *785:25 *786:21 0.000347344
21 *785:25 *804:21 0.000167567
22 *785:25 *825:23 0.000864442
23 *785:25 *837:15 0
24 *785:25 *845:25 0.000151675
25 *785:25 *845:27 7.91584e-06
26 *785:25 *847:36 0.00149219
27 *785:25 *853:17 0.000722481
28 *785:25 *853:21 0.00150042
29 *785:25 *860:15 8.12411e-05
30 *785:27 *786:23 0.161215
31 *785:27 *804:23 0
32 *785:27 *829:35 0.0115007
33 *785:27 *829:43 0.102449
34 *785:27 *853:11 2.64416e-05
35 *248:33 *785:25 0.000214844
36 *250:23 *785:27 0
37 *250:33 *785:25 2.06963e-05
38 *397:13 *785:11 0.0013719
39 *428:21 *785:25 0
40 *430:11 *785:11 0.00364116
41 *448:13 *785:11 0
42 *454:39 *785:9 0.000166069
43 *542:23 *785:11 0.0104266
44 *546:23 *785:25 0
45 *552:23 *785:25 5.05716e-06
46 *560:27 *785:27 0.0255263
47 *760:21 *785:25 1.59024e-05
48 *781:21 *785:25 0
*RES
1 *921:gpio_slow_sel[42] *785:9 2.66853 
2 *785:9 *785:11 934.935 
3 *785:11 *785:25 43.1924 
4 *785:25 *785:27 1485.33 
5 *785:27 gpio_slow_sel[42] 8.945 
*END

*D_NET *786 0.677618
*CONN
*P gpio_slow_sel[43] O
*I *921:gpio_slow_sel[43] O *D CF_CARAVEL_SOC
*CAP
1 gpio_slow_sel[43] 0.00040035
2 *921:gpio_slow_sel[43] 0.000607291
3 *786:23 0.0302338
4 *786:21 0.0303485
5 *786:11 0.0387964
6 *786:9 0.0388886
7 *786:11 *921:mask_rev[11] 0
8 *786:11 *794:11 0
9 *786:11 *804:11 0
10 *786:11 *828:11 0.00385109
11 *786:11 *830:11 0.00338944
12 *786:11 *856:19 0.00497399
13 *786:11 *858:23 0.00369396
14 *786:11 *860:15 0.000187907
15 *786:11 *860:19 0.00191576
16 *786:21 *804:21 0.000692202
17 *786:21 *825:23 0.000117913
18 *786:21 *850:21 4.83732e-06
19 *786:21 *860:15 0
20 *786:23 *804:23 0
21 *786:23 *829:35 0.0126487
22 *786:23 *829:43 0.00123769
23 *786:23 *853:11 0.0138117
24 *786:23 *859:11 0.140075
25 gpio_dm2[42] *786:23 0.00414902
26 gpio_ib_mode_sel[42] *786:23 0.00262422
27 *300:29 *786:23 0.000340096
28 *353:9 *786:9 0
29 *400:11 *786:11 0.0408388
30 *403:11 *786:11 0.00439103
31 *405:11 *786:11 0.00913914
32 *406:11 *786:11 0.00081062
33 *407:11 *786:11 0.00196964
34 *450:13 *786:11 0.000210651
35 *450:27 *786:11 0.0032581
36 *454:41 *786:11 0.0793009
37 *542:31 *786:11 0.00316898
38 *560:27 *786:23 0.0234886
39 *750:11 *786:11 0.0156416
40 *764:11 *786:11 0.000843473
41 *781:21 *786:21 5.53549e-06
42 *783:11 *786:21 0
43 *784:9 *786:11 0
44 *785:9 *786:9 0
45 *785:25 *786:21 0.000347344
46 *785:27 *786:23 0.161215
*RES
1 *921:gpio_slow_sel[43] *786:9 1.7654 
2 *786:9 *786:11 164.553 
3 *786:11 *786:21 7.94037 
4 *786:21 *786:23 1689.92 
5 *786:23 gpio_slow_sel[43] 7.43 
*END

*D_NET *787 0.885735
*CONN
*P gpio_slow_sel[4] O
*I *921:gpio_slow_sel[4] O *D CF_CARAVEL_SOC
*CAP
1 gpio_slow_sel[4] 0.00771469
2 *921:gpio_slow_sel[4] 0.00201198
3 *787:51 0.0160787
4 *787:49 0.0126864
5 *787:37 0.00650423
6 *787:27 0.00352906
7 *787:25 0.00169861
8 *787:19 0.00155323
9 *787:17 0.00120184
10 *787:15 0.0345411
11 *787:13 0.0345411
12 *787:11 0.008387
13 *787:9 0.010399
14 *787:9 *788:9 0
15 *787:11 *790:11 0.000497516
16 *787:15 *788:15 0.258876
17 *787:19 *832:51 0.0050105
18 *787:49 *788:53 0
19 *94:17 gpio_slow_sel[4] 0
20 *115:33 *787:11 0.000553638
21 *116:27 *787:49 0.000656936
22 *140:25 *787:49 5.83121e-06
23 *156:9 *787:49 0
24 *157:17 *787:49 4.44588e-05
25 *168:9 *787:37 0.000301837
26 *175:11 *787:37 0.000337616
27 *178:19 *787:19 0.00544537
28 *180:9 gpio_slow_sel[4] 0.00473561
29 *181:9 gpio_slow_sel[4] 0
30 *195:11 *787:27 0.00541975
31 *204:17 *787:49 0.000650805
32 *225:19 *787:37 0.00340452
33 *228:25 *787:15 0.0123132
34 *247:15 *787:15 0.00088543
35 *263:11 *787:27 0.00306294
36 *274:93 *787:37 0.000436478
37 *286:39 *787:15 0.0524313
38 *288:27 *787:51 0.012073
39 *288:53 *787:49 0.000454797
40 *327:19 gpio_slow_sel[4] 0.00067397
41 *328:11 gpio_slow_sel[4] 0.00116417
42 *328:51 *787:51 0.000250977
43 *329:10 *787:51 0.00525337
44 *329:52 *787:51 0.000953916
45 *330:13 *787:51 0.00542098
46 *334:6 gpio_slow_sel[4] 0.000293646
47 *337:33 *787:25 4.18687e-05
48 *349:11 *787:37 0.00172031
49 *364:19 *787:11 0.0147086
50 *375:31 *787:15 0.25854
51 *413:11 *787:11 0.0469363
52 *418:11 *787:11 0.0101485
53 *445:11 *787:19 0.000240628
54 *468:11 *787:11 0.00388308
55 *687:19 *787:11 0.000230205
56 *732:10 *787:11 0.025752
57 *782:15 *787:15 0.0010777
*RES
1 *921:gpio_slow_sel[4] *787:9 4.53053 
2 *787:9 *787:11 540.705 
3 *787:11 *787:13 0.5 
4 *787:13 *787:15 383.841 
5 *787:15 *787:17 0.5 
6 *787:17 *787:19 63.345 
7 *787:19 *787:25 1.5624 
8 *787:25 *787:27 62.835 
9 *787:27 *787:37 42.4129 
10 *787:37 *787:49 22.6415 
11 *787:49 *787:51 237 
12 *787:51 gpio_slow_sel[4] 36.1177 
*END

*D_NET *788 0.846987
*CONN
*P gpio_slow_sel[5] O
*I *921:gpio_slow_sel[5] O *D CF_CARAVEL_SOC
*CAP
1 gpio_slow_sel[5] 0.00505953
2 *921:gpio_slow_sel[5] 0.00407132
3 *788:55 0.00636616
4 *788:53 0.0019924
5 *788:49 0.00448225
6 *788:27 0.0061551
7 *788:25 0.00437189
8 *788:19 0.00397621
9 *788:17 0.00196295
10 *788:15 0.0350862
11 *788:13 0.0350862
12 *788:11 0.0101889
13 *788:9 0.0142602
14 *788:9 *789:17 0
15 *788:49 *831:61 0.000372642
16 gpio_dm1[5] gpio_slow_sel[5] 0.00223822
17 gpio_out[6] *788:25 0.000247732
18 *90:11 *788:55 0.00125733
19 *103:11 *788:19 0.000514944
20 *105:25 *788:53 2.57399e-05
21 *109:25 *788:49 0.000141767
22 *115:11 *788:19 0.00350328
23 *116:27 *788:49 0.000986528
24 *116:41 *788:49 0.00245632
25 *134:9 gpio_slow_sel[5] 0.000522584
26 *135:9 gpio_slow_sel[5] 0
27 *141:21 *788:19 0.000562698
28 *150:17 *788:49 0.00200504
29 *159:13 *788:49 0.000680698
30 *159:13 *788:53 0
31 *169:9 *788:49 0.00200782
32 *176:9 gpio_slow_sel[5] 0
33 *204:17 *788:49 0.00143265
34 *204:21 *788:49 0.000388103
35 *228:25 *788:15 0.0118211
36 *247:15 *788:15 0.00027481
37 *280:19 *788:27 0.00145325
38 *286:39 *788:15 0.0506135
39 *288:53 *788:49 0.000285759
40 *288:53 *788:53 0.000583784
41 *316:11 *788:27 0.00612876
42 *329:52 *788:49 7.40928e-05
43 *333:11 *788:49 0.00103434
44 *334:34 *788:49 0.000388957
45 *367:11 *788:11 0.006234
46 *444:11 *788:19 0
47 *483:11 *788:27 0
48 *544:17 *788:11 0.0352742
49 *716:15 *788:55 0.00816916
50 *727:15 *788:55 0.00816686
51 *759:11 *788:11 0.0401308
52 *779:11 *788:11 0.00350943
53 *782:15 *788:15 0.261564
54 *787:9 *788:9 0
55 *787:15 *788:15 0.258876
56 *787:49 *788:53 0
*RES
1 *921:gpio_slow_sel[5] *788:9 8.61173 
2 *788:9 *788:11 536.115 
3 *788:11 *788:13 0.5 
4 *788:13 *788:15 385.006 
5 *788:15 *788:17 0.5 
6 *788:17 *788:19 50.595 
7 *788:19 *788:25 5.11667 
8 *788:25 *788:27 67.935 
9 *788:27 *788:49 49.492 
10 *788:49 *788:53 2.0238 
11 *788:53 *788:55 90.885 
12 *788:55 gpio_slow_sel[5] 11.0444 
*END

*D_NET *789 0.589127
*CONN
*P gpio_slow_sel[6] O
*I *921:gpio_slow_sel[6] O *D CF_CARAVEL_SOC
*CAP
1 gpio_slow_sel[6] 0.00265468
2 *921:gpio_slow_sel[6] 0.0162812
3 *789:27 0.00433268
4 *789:25 0.001678
5 *789:23 0.100614
6 *789:21 0.100614
7 *789:19 0.00790224
8 *789:17 0.0241835
9 *789:23 *833:31 0.00285316
10 gpio_dm1[6] gpio_slow_sel[6] 0
11 gpio_slow_sel[35] *789:17 0.000321069
12 *140:71 *789:23 0.00126346
13 *205:51 *789:27 0.00278779
14 *205:57 *789:19 0.0134522
15 *218:11 *789:27 0.00529344
16 *273:11 *789:27 0
17 *274:119 *789:27 0
18 *315:15 *789:23 0.000460946
19 *327:61 *789:27 0
20 *337:39 *789:23 0.256632
21 *404:11 *789:19 0.0122585
22 *691:15 *789:19 0.0350291
23 *695:25 *789:23 0
24 *698:13 *789:23 0.000516001
25 *740:21 *789:23 0
26 *767:17 *789:17 0
27 *788:9 *789:17 0
*RES
1 *921:gpio_slow_sel[6] *789:17 32.7335 
2 *789:17 *789:19 405.045 
3 *789:19 *789:21 0.5 
4 *789:21 *789:23 393.221 
5 *789:23 *789:25 0.5 
6 *789:25 *789:27 61.305 
7 *789:27 gpio_slow_sel[6] 5.34943 
*END

*D_NET *790 0.50638
*CONN
*P gpio_slow_sel[7] O
*I *921:gpio_slow_sel[7] O *D CF_CARAVEL_SOC
*CAP
1 gpio_slow_sel[7] 0.000131565
2 *921:gpio_slow_sel[7] 0.00204933
3 *790:15 0.142985
4 *790:13 0.142854
5 *790:11 0.0292417
6 *790:9 0.0312911
7 *790:9 *791:21 0
8 *790:9 *797:17 6.83077e-06
9 *790:9 *836:11 0.000229581
10 *115:33 *790:11 0.000551088
11 *115:35 *790:11 0.00892197
12 *140:165 *790:15 0.00134135
13 *162:25 *790:11 0.000232951
14 *355:11 *790:11 0.0316162
15 *371:11 *790:11 0.0285974
16 *382:11 *790:11 0.00218715
17 *388:11 *790:11 0.0352856
18 *413:11 *790:11 0.0454691
19 *437:29 *790:11 1.92979e-05
20 *482:9 *790:15 0
21 *778:17 *790:11 0.0028708
22 *787:11 *790:11 0.000497516
*RES
1 *921:gpio_slow_sel[7] *790:9 4.58627 
2 *790:9 *790:11 1102.72 
3 *790:11 *790:13 0.5 
4 *790:13 *790:15 389.093 
5 *790:15 gpio_slow_sel[7] 0.3781 
*END

*D_NET *791 0.510408
*CONN
*P gpio_slow_sel[8] O
*I *921:gpio_slow_sel[8] O *D CF_CARAVEL_SOC
*CAP
1 gpio_slow_sel[8] 5.22295e-05
2 *921:gpio_slow_sel[8] 0.00494409
3 *791:27 0.142648
4 *791:25 0.142596
5 *791:23 0.0332948
6 *791:21 0.0382389
7 *791:21 *792:9 0
8 *791:21 *795:17 0.000143501
9 *791:21 *798:19 0.000918895
10 *791:21 *819:11 0.00496502
11 *791:21 *834:11 0
12 *791:21 *836:11 0.000229581
13 *791:23 *808:11 0.0383858
14 gpio_dm1[8] *791:27 0
15 *354:11 *791:23 0.0930415
16 *359:11 *791:23 0
17 *393:11 *791:23 0.00269015
18 *449:29 *791:23 0.00826
19 *790:9 *791:21 0
*RES
1 *921:gpio_slow_sel[8] *791:21 17.4144 
2 *791:21 *791:23 1195.55 
3 *791:23 *791:25 0.5 
4 *791:25 *791:27 388.452 
5 *791:27 gpio_slow_sel[8] 0.1501 
*END

*D_NET *792 0.623501
*CONN
*P gpio_slow_sel[9] O
*I *921:gpio_slow_sel[9] O *D CF_CARAVEL_SOC
*CAP
1 gpio_slow_sel[9] 0.000228531
2 *921:gpio_slow_sel[9] 0.0012361
3 *792:15 0.142181
4 *792:13 0.141953
5 *792:11 0.0323774
6 *792:9 0.0336135
7 *792:9 *836:11 0.000229581
8 *792:11 *794:11 0.0068665
9 *792:11 *799:11 0.0180292
10 *792:11 *806:11 0.0111367
11 *792:11 *834:11 0.107064
12 *792:11 *835:11 0.123318
13 *322:363 *792:15 0
14 *400:17 *792:9 8.0595e-05
15 *451:13 *792:11 0.00518629
16 *484:9 *792:15 0
17 *750:9 *792:9 0
18 *791:21 *792:9 0
*RES
1 *921:gpio_slow_sel[9] *792:9 2.92567 
2 *792:9 *792:11 241.384 
3 *792:11 *792:13 0.5 
4 *792:13 *792:15 387.433 
5 *792:15 gpio_slow_sel[9] 0.656767 
*END

*D_NET *793 0.722797
*CONN
*P gpio_vtrip_sel[0] O
*I *921:gpio_vtrip_sel[0] O *D CF_CARAVEL_SOC
*CAP
1 gpio_vtrip_sel[0] 0.00267282
2 *921:gpio_vtrip_sel[0] 0.0022681
3 *793:31 0.00753108
4 *793:29 0.00485825
5 *793:27 0.0386336
6 *793:25 0.0398407
7 *793:11 0.0141146
8 *793:9 0.0151755
9 *793:9 *804:9 0
10 *793:11 *857:23 0.00500843
11 *793:25 *839:217 0.000361735
12 *793:25 *844:17 1.88656e-05
13 *793:25 *846:37 0.0013594
14 *793:27 *815:25 0.00100847
15 *793:27 *815:49 0.000361862
16 *793:27 *866:17 0.0244414
17 *793:31 *804:27 0.0202009
18 gpio_ib_mode_sel[0] gpio_vtrip_sel[0] 0
19 gpio_out[0] gpio_vtrip_sel[0] 0
20 *921:gpio_in[0] *793:27 0.00278848
21 *921:gpio_in[11] *793:27 0.00288844
22 *921:gpio_in[19] *793:27 0.00136041
23 *165:11 *793:31 0.00469694
24 *248:35 *793:11 0.0051197
25 *263:11 *793:31 0.00829529
26 *292:27 *793:11 0.0478197
27 *293:25 *793:25 0.000465698
28 *325:133 *793:27 0.000388697
29 *344:15 *793:27 0.0205575
30 *364:27 *793:11 0
31 *389:11 *793:11 0.0106924
32 *408:13 *793:11 0.0268923
33 *408:21 *793:25 0.000625254
34 *423:11 *793:11 0.0050517
35 *430:23 *793:27 0.241638
36 *434:9 *793:9 0
37 *438:19 *793:11 0.00103547
38 *443:31 *793:27 0.114639
39 *451:25 *793:27 0.0456816
40 *453:41 *793:11 0.00226475
41 *467:15 *793:25 0.000209524
42 *531:24 *793:27 0
43 *542:29 *793:9 0
44 *557:29 *793:25 0.00183022
*RES
1 *921:gpio_vtrip_sel[0] *793:9 5.31713 
2 *793:9 *793:11 85.4823 
3 *793:11 *793:25 8.06483 
4 *793:25 *793:27 2253.99 
5 *793:27 *793:29 2 
6 *793:29 *793:31 233.557 
7 *793:31 gpio_vtrip_sel[0] 5.6319 
*END

*D_NET *794 0.629193
*CONN
*P gpio_vtrip_sel[10] O
*I *921:gpio_vtrip_sel[10] O *D CF_CARAVEL_SOC
*CAP
1 gpio_vtrip_sel[10] 0.000154485
2 *921:gpio_vtrip_sel[10] 0.0011153
3 *794:15 0.141594
4 *794:13 0.14144
5 *794:11 0.0731566
6 *794:9 0.0742719
7 *794:9 *795:17 0
8 *794:9 *836:9 0
9 *794:9 *836:11 0.000229581
10 *794:11 *795:19 0.00588536
11 *794:11 *796:11 0.0274339
12 *794:11 *835:11 0.143908
13 *116:69 *794:11 0.00333139
14 *398:23 *794:15 0
15 *399:11 *794:11 0.00914744
16 *454:41 *794:11 0.000658995
17 *706:11 *794:15 0
18 *750:11 *794:11 0
19 *752:11 *794:11 0
20 *786:11 *794:11 0
21 *792:11 *794:11 0.0068665
*RES
1 *921:gpio_vtrip_sel[10] *794:9 2.6926 
2 *794:9 *794:11 314.252 
3 *794:11 *794:13 0.5 
4 *794:13 *794:15 387.2 
5 *794:15 gpio_vtrip_sel[10] 0.443967 
*END

*D_NET *795 0.862134
*CONN
*P gpio_vtrip_sel[11] O
*I *921:gpio_vtrip_sel[11] O *D CF_CARAVEL_SOC
*CAP
1 gpio_vtrip_sel[11] 3.10732e-05
2 *921:gpio_vtrip_sel[11] 0.00580507
3 *795:23 0.0880507
4 *795:21 0.0880197
5 *795:19 0.0435122
6 *795:17 0.0493173
7 *795:17 *796:9 0
8 *795:17 *799:11 0.00343309
9 *795:17 *806:11 0.00116219
10 *795:17 *834:11 0.0197934
11 *795:17 *835:11 0.0197781
12 *795:17 *836:11 0.000229581
13 *795:19 *796:11 0.16321
14 *795:19 *800:11 0.085597
15 *795:19 *835:11 0.0267132
16 gpio_ib_mode_sel[11] *795:23 0.00170898
17 gpio_oeb[26] *795:23 0.00029778
18 *399:23 *795:23 0.259446
19 *451:13 *795:19 0
20 *791:21 *795:17 0.000143501
21 *794:9 *795:17 0
22 *794:11 *795:19 0.00588536
*RES
1 *921:gpio_vtrip_sel[11] *795:17 39.6064 
2 *795:17 *795:19 1816.72 
3 *795:19 *795:21 0.5 
4 *795:21 *795:23 387.229 
5 *795:23 gpio_vtrip_sel[11] 0.0893 
*END

*D_NET *796 0.646359
*CONN
*P gpio_vtrip_sel[12] O
*I *921:gpio_vtrip_sel[12] O *D CF_CARAVEL_SOC
*CAP
1 gpio_vtrip_sel[12] 0.000237347
2 *921:gpio_vtrip_sel[12] 0.00109658
3 *796:15 0.141162
4 *796:13 0.140925
5 *796:11 0.08061
6 *796:9 0.0817065
7 *796:9 *797:17 0
8 *796:9 *836:11 0.000229581
9 *796:11 *799:11 0.000199842
10 *796:11 *800:11 0.00951084
11 gpio_holdover[12] *796:15 0
12 gpio_out[12] *796:15 0
13 *163:33 *796:11 3.85204e-05
14 *400:23 *796:15 0
15 *406:17 *796:11 0
16 *451:13 *796:11 0
17 *454:25 *796:11 0
18 *542:31 *796:11 0
19 *708:11 *796:15 0
20 *764:11 *796:11 0
21 *764:21 *796:11 0
22 *785:11 *796:11 0
23 *794:11 *796:11 0.0274339
24 *795:17 *796:9 0
25 *795:19 *796:11 0.16321
*RES
1 *921:gpio_vtrip_sel[12] *796:9 2.66347 
2 *796:9 *796:11 2186.48 
3 *796:11 *796:13 0.5 
4 *796:13 *796:15 387.171 
5 *796:15 gpio_vtrip_sel[12] 0.6821 
*END

*D_NET *797 0.939734
*CONN
*P gpio_vtrip_sel[13] O
*I *921:gpio_vtrip_sel[13] O *D CF_CARAVEL_SOC
*CAP
1 gpio_vtrip_sel[13] 0.000113935
2 *921:gpio_vtrip_sel[13] 0.0114296
3 *797:23 0.0884568
4 *797:21 0.0883429
5 *797:19 0.0405967
6 *797:17 0.0520263
7 *797:17 *798:17 0.00866706
8 *797:17 *798:19 0.000989428
9 *797:17 *819:11 0.00899585
10 *797:17 *825:11 0.000792455
11 *797:17 *829:11 0.00271722
12 *797:17 *834:11 0
13 *797:17 *836:11 0.000229581
14 *797:19 *798:19 0.0116293
15 *797:19 *831:25 0.00375404
16 gpio_ib_mode_sel[13] *797:23 0.000547958
17 gpio_out[13] *797:23 0
18 *161:19 *797:19 0.00253167
19 *356:11 *797:19 0.0105591
20 *360:11 *797:19 0.184854
21 *386:11 *797:17 0.000543286
22 *401:15 *797:23 0.259537
23 *448:13 *797:17 0.00133617
24 *449:29 *797:17 0.00195784
25 *449:29 *797:19 0.000886779
26 *751:11 *797:19 0.158232
27 *790:9 *797:17 6.83077e-06
28 *796:9 *797:17 0
*RES
1 *921:gpio_vtrip_sel[13] *797:17 38.0079 
2 *797:17 *797:19 2321.62 
3 *797:19 *797:21 0.5 
4 *797:21 *797:23 388.219 
5 *797:23 gpio_vtrip_sel[13] 0.327433 
*END

*D_NET *798 1.18482
*CONN
*P gpio_vtrip_sel[14] O
*I *921:gpio_vtrip_sel[14] O *D CF_CARAVEL_SOC
*CAP
1 gpio_vtrip_sel[14] 2.26989e-05
2 *921:gpio_vtrip_sel[14] 0.00354493
3 *798:23 0.0348626
4 *798:21 0.0348399
5 *798:19 0.040075
6 *798:17 0.04362
7 *798:17 *799:9 0
8 *798:17 *818:9 9.57021e-05
9 *798:17 *819:9 0
10 *798:17 *836:11 0.000229581
11 *798:19 *829:11 0.0043133
12 *798:19 *831:25 0.00375172
13 gpio_analog_pol[35] *798:19 0.000137349
14 gpio_ib_mode_sel[14] *798:23 0.00253302
15 *161:19 *798:19 0.00115438
16 *281:31 *798:23 0.252524
17 *360:11 *798:19 0.21523
18 *386:11 *798:17 0.00867679
19 *391:11 *798:19 0.00253586
20 *402:15 *798:23 0.261544
21 *448:13 *798:19 0.248078
22 *449:29 *798:19 0
23 *666:11 *798:23 0.00484242
24 *791:21 *798:19 0.000918895
25 *797:17 *798:17 0.00866706
26 *797:17 *798:19 0.000989428
27 *797:19 *798:19 0.0116293
*RES
1 *921:gpio_vtrip_sel[14] *798:17 20.5279 
2 *798:17 *798:19 2758.7 
3 *798:19 *798:21 0.5 
4 *798:21 *798:23 388.103 
5 *798:23 gpio_vtrip_sel[14] 0.0652333 
*END

*D_NET *799 0.713178
*CONN
*P gpio_vtrip_sel[15] O
*I *921:gpio_vtrip_sel[15] O *D CF_CARAVEL_SOC
*CAP
1 gpio_vtrip_sel[15] 8.17048e-05
2 *921:gpio_vtrip_sel[15] 0.00119522
3 *799:19 0.101927
4 *799:17 0.101845
5 *799:15 0.129184
6 *799:13 0.129184
7 *799:11 0.0174883
8 *799:9 0.0186836
9 *799:9 *800:9 0
10 *799:9 *836:11 0.000229581
11 *799:11 *800:11 0.0988133
12 *799:11 *806:11 0.0907558
13 gpio_ib_mode_sel[15] gpio_vtrip_sel[15] 0
14 *140:129 *799:19 0.00103416
15 *280:23 *799:15 0
16 *403:19 *799:19 0
17 *451:13 *799:11 0
18 *538:249 *799:15 0
19 *785:11 *799:11 0.00109517
20 *792:11 *799:11 0.0180292
21 *795:17 *799:11 0.00343309
22 *796:11 *799:11 0.000199842
23 *798:17 *799:9 0
*RES
1 *921:gpio_vtrip_sel[15] *799:9 2.83827 
2 *799:9 *799:11 1107.31 
3 *799:11 *799:13 0.5 
4 *799:13 *799:15 357.446 
5 *799:15 *799:17 0.5 
6 *799:17 *799:19 1848.34 
7 *799:19 gpio_vtrip_sel[15] 1.35 
*END

*D_NET *800 0.658923
*CONN
*P gpio_vtrip_sel[16] O
*I *921:gpio_vtrip_sel[16] O *D CF_CARAVEL_SOC
*CAP
1 gpio_vtrip_sel[16] 0.100406
2 *921:gpio_vtrip_sel[16] 0.00116162
3 *800:17 0.100406
4 *800:15 0.105788
5 *800:13 0.105788
6 *800:11 0.0176251
7 *800:9 0.0187868
8 *800:9 *801:9 0
9 *800:9 *836:11 0.000229581
10 *800:11 *835:11 0.0144122
11 gpio_ib_mode_sel[16] gpio_vtrip_sel[16] 0
12 *451:13 *800:11 0
13 *538:257 *800:15 0.000398632
14 *795:19 *800:11 0.085597
15 *796:11 *800:11 0.00951084
16 *799:9 *800:9 0
17 *799:11 *800:11 0.0988133
*RES
1 *921:gpio_vtrip_sel[16] *800:9 2.78 
2 *800:9 *800:11 1138.43 
3 *800:11 *800:13 0.5 
4 *800:13 *800:15 292.886 
5 *800:15 *800:17 0.5 
6 *800:17 gpio_vtrip_sel[16] 1813.1 
*END

*D_NET *801 0.731714
*CONN
*P gpio_vtrip_sel[17] O
*I *921:gpio_vtrip_sel[17] O *D CF_CARAVEL_SOC
*CAP
1 gpio_vtrip_sel[17] 0.124232
2 *921:gpio_vtrip_sel[17] 0.00136328
3 *801:17 0.124232
4 *801:15 0.0296521
5 *801:13 0.0296521
6 *801:11 0.0122384
7 *801:9 0.0136017
8 *801:9 *802:9 0
9 *801:9 *836:11 0.000229581
10 *801:11 *805:11 0.0619705
11 *801:11 *807:11 0.00585793
12 *801:11 *834:11 0.0128065
13 gpio_ib_mode_sel[17] gpio_vtrip_sel[17] 0
14 *158:24 *801:15 0.152711
15 *230:25 *801:15 0.0094635
16 *244:15 *801:15 0.010629
17 *277:23 *801:15 0.0588378
18 *286:39 *801:15 0.0148707
19 *448:13 *801:11 0
20 *451:13 *801:11 0.0181195
21 *686:11 *801:15 0.0331186
22 *785:11 *801:11 0.0181272
23 *800:9 *801:9 0
*RES
1 *921:gpio_vtrip_sel[17] *801:9 3.1296 
2 *801:9 *801:11 705.435 
3 *801:11 *801:13 0.5 
4 *801:13 *801:15 260.665 
5 *801:15 *801:17 0.5 
6 *801:17 gpio_vtrip_sel[17] 2240.99 
*END

*D_NET *802 0.715901
*CONN
*P gpio_vtrip_sel[18] O
*I *921:gpio_vtrip_sel[18] O *D CF_CARAVEL_SOC
*CAP
1 gpio_vtrip_sel[18] 0.123959
2 *921:gpio_vtrip_sel[18] 0.00544083
3 *802:17 0.123959
4 *802:15 0.0207773
5 *802:13 0.0207773
6 *802:11 0.0138197
7 *802:9 0.0192606
8 *802:9 *803:9 0
9 *802:15 gpio_vtrip_sel[32] 0.00022773
10 *802:15 *803:15 0.098013
11 *802:15 *805:15 0.00028977
12 *802:15 *814:17 4.78056e-05
13 gpio_ib_mode_sel[18] gpio_vtrip_sel[18] 0
14 gpio_ib_mode_sel[32] *802:15 0.000127753
15 *162:27 *802:11 0.00573914
16 *249:27 *802:11 0.00296275
17 *275:15 *802:15 0.0400377
18 *290:15 *802:15 0
19 *322:301 *802:11 0.00154429
20 *396:11 *802:11 0.0063625
21 *403:15 *802:15 0.00232185
22 *406:19 *802:15 0.138499
23 *472:15 *802:11 0.0482866
24 *686:11 *802:15 0
25 *754:11 *802:11 0.0434482
26 *801:9 *802:9 0
*RES
1 *921:gpio_vtrip_sel[18] *802:9 11.2337 
2 *802:9 *802:11 706.965 
3 *802:11 *802:13 0.5 
4 *802:13 *802:15 212.77 
5 *802:15 *802:17 0.5 
6 *802:17 gpio_vtrip_sel[18] 2236.4 
*END

*D_NET *803 0.617205
*CONN
*P gpio_vtrip_sel[19] O
*I *921:gpio_vtrip_sel[19] O *D CF_CARAVEL_SOC
*CAP
1 gpio_vtrip_sel[19] 0.124006
2 *921:gpio_vtrip_sel[19] 0.0031723
3 *803:17 0.124006
4 *803:15 0.0129798
5 *803:13 0.0129798
6 *803:11 0.0110184
7 *803:9 0.0141907
8 *803:9 *805:9 0
9 gpio_ib_mode_sel[19] gpio_vtrip_sel[19] 0
10 *250:35 *803:11 0.0074853
11 *403:15 *803:15 0.0946292
12 *420:11 *803:11 0.00993843
13 *456:27 *803:11 0.013829
14 *469:11 *803:11 0.00579555
15 *686:11 *803:15 0.000660328
16 *753:11 *803:11 0.0454573
17 *768:11 *803:11 0.0390446
18 *802:9 *803:9 0
19 *802:15 *803:15 0.098013
*RES
1 *921:gpio_vtrip_sel[19] *803:9 6.98027 
2 *803:9 *803:11 701.865 
3 *803:11 *803:13 0.5 
4 *803:13 *803:15 144.015 
5 *803:15 *803:17 0.5 
6 *803:17 gpio_vtrip_sel[19] 2236.91 
*END

*D_NET *804 0.658416
*CONN
*P gpio_vtrip_sel[1] O
*I *921:gpio_vtrip_sel[1] O *D CF_CARAVEL_SOC
*CAP
1 gpio_vtrip_sel[1] 0.00233923
2 *921:gpio_vtrip_sel[1] 0.000912864
3 *804:27 0.0108362
4 *804:25 0.00849698
5 *804:23 0.0799466
6 *804:21 0.0804443
7 *804:11 0.028321
8 *804:9 0.0287362
9 *804:11 *851:19 0.00334703
10 *804:21 *850:21 4.73561e-05
11 *804:21 *862:21 0.000266205
12 *804:23 *829:43 0
13 *804:23 *859:11 0
14 gpio_ib_mode_sel[1] gpio_vtrip_sel[1] 0
15 gpio_ib_mode_sel[42] *804:23 0
16 gpio_out[1] gpio_vtrip_sel[1] 0.000673901
17 *165:11 *804:27 0
18 *248:33 *804:21 8.28896e-05
19 *250:23 *804:23 0.239878
20 *263:11 *804:27 0.00391493
21 *284:15 *804:23 6.92657e-05
22 *306:11 *804:27 0.00780365
23 *397:13 *804:11 0.0150739
24 *399:11 *804:11 0.00666106
25 *408:101 *804:27 0.0341081
26 *428:11 *804:11 0.00650866
27 *430:11 *804:11 0.000792275
28 *431:11 *804:11 0.00959337
29 *432:11 *804:11 0.0066185
30 *435:11 *804:11 0
31 *454:41 *804:11 0.0042664
32 *542:23 *804:11 0.00264518
33 *542:29 *804:9 0.000272875
34 *561:18 *804:23 0.026194
35 *563:14 *804:23 0.000662187
36 *566:13 *804:23 0.00237389
37 *760:35 *804:27 0.00137184
38 *781:21 *804:21 0.000200216
39 *781:23 *804:23 0.0209382
40 *783:15 *804:23 0.000361136
41 *784:21 *804:23 0.00119716
42 *785:11 *804:11 0.00139921
43 *785:25 *804:21 0.000167567
44 *785:27 *804:23 0
45 *786:11 *804:11 0
46 *786:21 *804:21 0.000692202
47 *786:23 *804:23 0
48 *793:9 *804:9 0
49 *793:31 *804:27 0.0202009
*RES
1 *921:gpio_vtrip_sel[1] *804:9 2.52033 
2 *804:9 *804:11 90.1335 
3 *804:11 *804:21 6.93477 
4 *804:21 *804:23 2257.09 
5 *804:23 *804:25 2 
6 *804:25 *804:27 428.888 
7 *804:27 gpio_vtrip_sel[1] 5.5179 
*END

*D_NET *805 0.489206
*CONN
*P gpio_vtrip_sel[20] O
*I *921:gpio_vtrip_sel[20] O *D CF_CARAVEL_SOC
*CAP
1 gpio_vtrip_sel[20] 9.84929e-05
2 *921:gpio_vtrip_sel[20] 0.00115668
3 *805:19 0.123989
4 *805:17 0.123891
5 *805:15 0.0237635
6 *805:13 0.0237635
7 *805:11 0.0248698
8 *805:9 0.0260265
9 *805:9 *806:9 0
10 *805:11 *834:11 0.00657444
11 gpio_ib_mode_sel[20] gpio_vtrip_sel[20] 0
12 gpio_ib_mode_sel[20] *805:19 0
13 *290:15 *805:15 0
14 *406:19 *805:15 0.0725338
15 *448:13 *805:11 0
16 *451:13 *805:11 0.000278565
17 *453:35 *805:11 0
18 *801:11 *805:11 0.0619705
19 *802:15 *805:15 0.00028977
20 *803:9 *805:9 0
*RES
1 *921:gpio_vtrip_sel[20] *805:9 2.84333 
2 *805:9 *805:11 698.295 
3 *805:11 *805:13 0.5 
4 *805:13 *805:15 107.19 
5 *805:15 *805:17 0.5 
6 *805:17 *805:19 2234.42 
7 *805:19 gpio_vtrip_sel[20] 1.35 
*END

*D_NET *806 0.516898
*CONN
*P gpio_vtrip_sel[21] O
*I *921:gpio_vtrip_sel[21] O *D CF_CARAVEL_SOC
*CAP
1 gpio_vtrip_sel[21] 9.87705e-05
2 *921:gpio_vtrip_sel[21] 0.00100997
3 *806:19 0.106298
4 *806:17 0.106199
5 *806:15 0.0182559
6 *806:13 0.0182559
7 *806:11 0.014683
8 *806:9 0.015693
9 *806:11 *807:11 0.0897479
10 gpio_ib_mode_sel[21] gpio_vtrip_sel[21] 0
11 gpio_ib_mode_sel[21] *806:19 0
12 *324:15 *806:15 0.0430826
13 *405:15 *806:15 0
14 *451:13 *806:11 0.000223654
15 *667:7 *806:19 0
16 *785:11 *806:11 0.000295593
17 *792:11 *806:11 0.0111367
18 *795:17 *806:11 0.00116219
19 *799:11 *806:11 0.0907558
20 *805:9 *806:9 0
*RES
1 *921:gpio_vtrip_sel[21] *806:9 2.552 
2 *806:9 *806:11 1012.46 
3 *806:11 *806:13 0.5 
4 *806:13 *806:15 74.3863 
5 *806:15 *806:17 0.5 
6 *806:17 *806:19 1915.16 
7 *806:19 gpio_vtrip_sel[21] 1.35 
*END

*D_NET *807 0.452473
*CONN
*P gpio_vtrip_sel[22] O
*I *921:gpio_vtrip_sel[22] O *D CF_CARAVEL_SOC
*CAP
1 gpio_vtrip_sel[22] 0.10648
2 *921:gpio_vtrip_sel[22] 0.001045
3 *807:17 0.116633
4 *807:11 0.026651
5 *807:9 0.0175429
6 *807:9 *808:9 0
7 *807:11 *834:11 0.0193639
8 gpio_ib_mode_sel[22] gpio_vtrip_sel[22] 0
9 *324:15 *807:17 0
10 *451:13 *807:11 0.0270875
11 *455:11 *807:17 0
12 *539:269 *807:17 0.000200428
13 *542:51 *807:17 0
14 *543:45 *807:17 0
15 *679:13 *807:17 0.00768285
16 *720:9 *807:17 0.00491991
17 *785:11 *807:11 0.0292605
18 *801:11 *807:11 0.00585793
19 *806:11 *807:11 0.0897479
*RES
1 *921:gpio_vtrip_sel[22] *807:9 2.61027 
2 *807:9 *807:11 1001.23 
3 *807:11 *807:17 42.8735 
4 *807:17 gpio_vtrip_sel[22] 1921.73 
*END

*D_NET *808 0.371298
*CONN
*P gpio_vtrip_sel[23] O
*I *921:gpio_vtrip_sel[23] O *D CF_CARAVEL_SOC
*CAP
1 gpio_vtrip_sel[23] 0.00208896
2 *921:gpio_vtrip_sel[23] 0.00156155
3 *808:27 0.125875
4 *808:25 0.126172
5 *808:11 0.0263194
6 *808:9 0.0254948
7 *808:9 *809:9 0
8 *808:11 *819:11 0.00233072
9 *808:11 *831:11 0.00274801
10 *808:25 *833:21 7.53067e-05
11 *161:15 *808:25 0.00289976
12 *322:315 *808:25 0
13 *322:317 *808:25 0
14 *355:11 *808:11 0
15 *359:11 *808:11 0
16 *388:11 *808:11 0
17 *393:11 *808:11 0.00278944
18 *436:23 *808:25 0.00353423
19 *449:29 *808:11 0.00865491
20 *539:191 *808:25 0
21 *539:225 *808:27 0
22 *693:27 *808:25 0
23 *716:9 *808:27 0
24 *734:11 *808:25 0.00236784
25 *737:73 *808:11 0
26 *791:23 *808:11 0.0383858
27 *807:9 *808:9 0
*RES
1 *921:gpio_vtrip_sel[23] *808:9 3.65907 
2 *808:9 *808:11 651.375 
3 *808:11 *808:25 43.1516 
4 *808:25 *808:27 2230.76 
5 *808:27 gpio_vtrip_sel[23] 36.0975 
*END

*D_NET *809 0.565636
*CONN
*P gpio_vtrip_sel[24] O
*I *921:gpio_vtrip_sel[24] O *D CF_CARAVEL_SOC
*CAP
1 gpio_vtrip_sel[24] 0.00563975
2 *921:gpio_vtrip_sel[24] 0.00243122
3 *809:11 0.0654827
4 *809:9 0.0622742
5 *809:9 *810:9 0
6 gpio_ib_mode_sel[24] gpio_vtrip_sel[24] 5.30225e-05
7 gpio_oeb[24] gpio_vtrip_sel[24] 0
8 *193:63 gpio_vtrip_sel[24] 0.000920877
9 *357:19 *809:11 0
10 *358:19 *809:11 0.211188
11 *370:11 *809:11 0.151031
12 *416:11 *809:11 0.0287994
13 *458:11 *809:11 0
14 *555:17 *809:11 0.0042892
15 *556:43 *809:11 0.0334684
16 *721:13 gpio_vtrip_sel[24] 5.92809e-05
17 *808:9 *809:9 0
*RES
1 *921:gpio_vtrip_sel[24] *809:9 5.3488 
2 *809:9 *809:11 2755.64 
3 *809:11 gpio_vtrip_sel[24] 23.1542 
*END

*D_NET *810 0.370626
*CONN
*P gpio_vtrip_sel[25] O
*I *921:gpio_vtrip_sel[25] O *D CF_CARAVEL_SOC
*CAP
1 gpio_vtrip_sel[25] 0.000788011
2 *921:gpio_vtrip_sel[25] 0.00750307
3 *810:11 0.0604947
4 *810:9 0.0672098
5 *810:9 *811:9 0
6 gpio_ib_mode_sel[25] gpio_vtrip_sel[25] 0.000149075
7 gpio_oeb[29] *810:11 0.000106754
8 gpio_out[25] gpio_vtrip_sel[25] 0
9 *337:43 *810:11 0.0378095
10 *439:11 *810:11 0.0308299
11 *446:11 *810:11 0
12 *461:11 *810:11 0.145727
13 *547:25 *810:11 0.0146832
14 *782:11 *810:11 0.00532486
15 *809:9 *810:9 0
*RES
1 *921:gpio_vtrip_sel[25] *810:9 14.8463 
2 *810:9 *810:11 2122.73 
3 *810:11 gpio_vtrip_sel[25] 2.24357 
*END

*D_NET *811 0.348892
*CONN
*P gpio_vtrip_sel[26] O
*I *921:gpio_vtrip_sel[26] O *D CF_CARAVEL_SOC
*CAP
1 gpio_vtrip_sel[26] 0.00125384
2 *921:gpio_vtrip_sel[26] 0.00702355
3 *811:11 0.0644968
4 *811:9 0.0702665
5 *811:9 *812:9 0
6 gpio_analog_sel[27] *811:11 5.0674e-05
7 gpio_dm2[28] *811:11 0.000137575
8 gpio_holdover[27] *811:11 0.000137575
9 gpio_ib_mode_sel[26] gpio_vtrip_sel[26] 5.18966e-05
10 gpio_oeb[26] gpio_vtrip_sel[26] 0
11 *410:11 *811:11 0
12 *447:17 *811:11 0
13 *462:11 *811:11 0.131251
14 *548:23 *811:11 0.01461
15 *554:25 *811:11 0.0596119
16 *723:21 gpio_vtrip_sel[26] 0
17 *810:9 *811:9 0
*RES
1 *921:gpio_vtrip_sel[26] *811:9 13.9723 
2 *811:9 *811:11 1956.97 
3 *811:11 gpio_vtrip_sel[26] 2.88957 
*END

*D_NET *812 0.314535
*CONN
*P gpio_vtrip_sel[27] O
*I *921:gpio_vtrip_sel[27] O *D CF_CARAVEL_SOC
*CAP
1 gpio_vtrip_sel[27] 0.00168885
2 *921:gpio_vtrip_sel[27] 0.00651006
3 *812:11 0.0584206
4 *812:9 0.0632418
5 *812:9 *813:9 0
6 gpio_ib_mode_sel[27] gpio_vtrip_sel[27] 0.000322594
7 gpio_inp_dis[29] *812:11 0.00326581
8 *289:35 *812:11 0.101692
9 *404:11 *812:11 0
10 *460:11 *812:11 0.0102791
11 *550:23 *812:11 0.0134629
12 *691:15 *812:11 0.0556506
13 *811:9 *812:9 0
*RES
1 *921:gpio_vtrip_sel[27] *812:9 13.04 
2 *812:9 *812:11 1788.68 
3 *812:11 gpio_vtrip_sel[27] 4.0245 
*END

*D_NET *813 0.341641
*CONN
*P gpio_vtrip_sel[28] O
*I *921:gpio_vtrip_sel[28] O *D CF_CARAVEL_SOC
*CAP
1 gpio_vtrip_sel[28] 0.00263289
2 *921:gpio_vtrip_sel[28] 0.00499744
3 *813:19 0.00856954
4 *813:17 0.00598221
5 *813:11 0.0313193
6 *813:9 0.0362711
7 *813:9 *814:9 0
8 *813:11 gpio_vtrip_sel[30] 0.00128164
9 *813:11 *814:11 0.058497
10 *813:11 *816:25 0.00249916
11 *813:11 *816:27 0.0121322
12 *813:11 *823:15 0.000496193
13 *813:11 *873:49 0
14 *813:19 gpio_vtrip_sel[30] 0.000299642
15 *813:19 *814:19 0.0157234
16 gpio_holdover[33] *813:11 0.000588724
17 gpio_ib_mode_sel[28] gpio_vtrip_sel[28] 0.00189257
18 gpio_ib_mode_sel[30] *813:17 7.65498e-05
19 *205:67 *813:11 0.0059717
20 *284:67 *813:19 0.015056
21 *369:19 *813:19 0.0180752
22 *398:19 *813:11 0.116374
23 *422:11 *813:11 0.00252712
24 *546:25 *813:11 0
25 *684:21 *813:17 0
26 *725:19 gpio_vtrip_sel[28] 0
27 *761:11 *813:11 0.000377756
28 *812:9 *813:9 0
*RES
1 *921:gpio_vtrip_sel[28] *813:9 10.3015 
2 *813:9 *813:11 1294.48 
3 *813:11 *813:17 1.1254 
4 *813:17 *813:19 55.2495 
5 *813:19 gpio_vtrip_sel[28] 6.70603 
*END

*D_NET *814 0.324757
*CONN
*P gpio_vtrip_sel[29] O
*I *921:gpio_vtrip_sel[29] O *D CF_CARAVEL_SOC
*CAP
1 gpio_vtrip_sel[29] 0.00316081
2 *921:gpio_vtrip_sel[29] 0.00495101
3 *814:19 0.0413333
4 *814:17 0.0382135
5 *814:11 0.00978676
6 *814:9 0.0146967
7 *814:9 *816:9 0
8 *814:11 *816:11 0.0446502
9 *814:11 *816:25 0.00222424
10 *814:11 *823:15 0.000348663
11 *814:11 *873:49 0.000197546
12 *814:17 gpio_vtrip_sel[32] 0.000116099
13 *814:19 gpio_vtrip_sel[30] 0.00385193
14 *814:19 *816:25 0.00145476
15 *814:19 *816:27 0.0516879
16 gpio_holdover[33] *814:11 0.000658306
17 gpio_ib_mode_sel[29] gpio_vtrip_sel[29] 0
18 gpio_ib_mode_sel[36] *814:9 0.000251181
19 *205:67 *814:11 0.00504001
20 *284:65 gpio_vtrip_sel[29] 8.34207e-05
21 *422:11 *814:11 0.00281761
22 *546:25 *814:19 0.0172455
23 *726:21 gpio_vtrip_sel[29] 0
24 *761:11 *814:11 0.00771942
25 *802:15 *814:17 4.78056e-05
26 *813:9 *814:9 0
27 *813:11 *814:11 0.058497
28 *813:19 *814:19 0.0157234
*RES
1 *921:gpio_vtrip_sel[29] *814:9 10.3597 
2 *814:9 *814:11 652.395 
3 *814:11 *814:17 1.18367 
4 *814:17 *814:19 135.612 
5 *814:19 gpio_vtrip_sel[29] 6.44763 
*END

*D_NET *815 0.870401
*CONN
*P gpio_vtrip_sel[2] O
*I *921:gpio_vtrip_sel[2] O *D CF_CARAVEL_SOC
*CAP
1 gpio_vtrip_sel[2] 0.00136687
2 *921:gpio_vtrip_sel[2] 0.00252293
3 *815:53 0.0111274
4 *815:51 0.00976056
5 *815:49 0.0495786
6 *815:47 0.0559185
7 *815:25 0.0132972
8 *815:11 0.0157167
9 *815:9 0.0112823
10 *815:9 *826:9 0
11 *815:25 *826:29 0.000782216
12 *815:25 *839:209 0.00110494
13 *815:25 *839:217 4.6127e-05
14 *815:25 *846:37 0.00164699
15 *815:25 *866:17 0.00572757
16 *815:25 *873:37 0.007992
17 *815:47 *826:29 0.00260412
18 *815:47 *839:209 0.0114688
19 *815:47 *866:17 5.29688e-05
20 *815:49 *839:17 0.0468706
21 *815:49 *839:53 0.0180882
22 *815:49 *839:69 0.0201252
23 *815:49 *839:101 0.0243621
24 *815:49 *839:133 0.0242783
25 *815:49 *839:157 0.0241658
26 *815:49 *839:181 0.0243873
27 *815:49 *839:197 0.0155512
28 *815:49 *846:13 0.0340734
29 *815:49 *858:11 0.00248584
30 *815:49 *866:17 0.0205429
31 gpio_dm0[43] *815:49 0.00259206
32 gpio_ib_mode_sel[2] gpio_vtrip_sel[2] 0.000618589
33 *120:11 *815:53 0
34 *211:13 *815:49 0.00441296
35 *212:23 *815:49 0.00858536
36 *256:15 *815:49 0.00016991
37 *258:19 *815:49 0.0473679
38 *264:11 *815:53 0.00596145
39 *292:27 *815:11 0
40 *295:27 *815:11 0
41 *305:11 *815:53 0.023772
42 *311:11 *815:53 0.00578506
43 *322:235 *815:47 6.7949e-05
44 *322:273 *815:25 0.00266753
45 *325:117 *815:47 1.1411e-05
46 *325:133 *815:47 0.00022289
47 *338:81 *815:25 0.0189694
48 *344:15 *815:49 0.018939
49 *353:11 *815:11 0.0345303
50 *353:35 *815:53 0.0204418
51 *364:43 *815:53 0.035663
52 *385:11 *815:11 0.00308374
53 *386:21 *815:11 0.0131979
54 *386:45 *815:25 0.000175218
55 *386:69 *815:47 0.015356
56 *386:89 *815:47 0.000272388
57 *397:177 *815:53 0.000554868
58 *419:13 *815:11 0.0267149
59 *421:11 *815:11 0.00421383
60 *430:23 *815:25 0.000569094
61 *430:23 *815:49 0.0106536
62 *431:15 *815:49 0.00210506
63 *436:17 *815:11 0.0127238
64 *436:19 *815:11 0.0013419
65 *443:29 *815:49 3.6898e-05
66 *443:31 *815:49 0.0119323
67 *444:15 *815:49 0
68 *451:21 *815:11 0.00909751
69 *451:25 *815:25 0.00110928
70 *467:11 *815:11 0.000318831
71 *469:15 *815:47 0.00371915
72 *469:15 *815:49 0.0086562
73 *529:9 *815:49 0
74 *539:117 *815:47 1.95991e-05
75 *539:151 *815:25 0.00174823
76 *541:77 *815:47 0.0132365
77 *541:107 *815:25 0.000811159
78 *550:11 *815:47 0.00244485
79 *550:11 *815:49 0.0332424
80 *552:25 *815:11 0.000302437
81 *693:163 *815:47 0.000124221
82 *735:23 *815:11 0.000280267
83 *737:81 *815:11 0.000217691
84 *737:103 *815:25 0.00197846
85 *737:127 *815:25 0.00108571
86 *793:27 *815:25 0.00100847
87 *793:27 *815:49 0.000361862
*RES
1 *921:gpio_vtrip_sel[2] *815:9 5.9606 
2 *815:9 *815:11 85.4823 
3 *815:11 *815:25 40.602 
4 *815:25 *815:47 44.1547 
5 *815:47 *815:49 313.484 
6 *815:49 *815:51 0.5 
7 *815:51 *815:53 574.365 
8 *815:53 gpio_vtrip_sel[2] 3.5875 
*END

*D_NET *816 0.299713
*CONN
*P gpio_vtrip_sel[30] O
*I *921:gpio_vtrip_sel[30] O *D CF_CARAVEL_SOC
*CAP
1 gpio_vtrip_sel[30] 0.00436482
2 *921:gpio_vtrip_sel[30] 0.00506418
3 *816:27 0.0137892
4 *816:25 0.0158299
5 *816:11 0.0138581
6 *816:9 0.0125168
7 *816:9 *817:9 0
8 *816:11 *873:49 0.00902467
9 gpio_ib_mode_sel[30] gpio_vtrip_sel[30] 0.000578285
10 gpio_ib_mode_sel[32] *816:25 0.000340703
11 gpio_ib_mode_sel[36] *816:9 0
12 *200:15 gpio_vtrip_sel[30] 0
13 *369:19 gpio_vtrip_sel[30] 0.00678101
14 *369:19 *816:25 0.00200897
15 *369:19 *816:27 0.0305264
16 *398:19 gpio_vtrip_sel[30] 0.00138729
17 *398:19 *816:25 0.0024226
18 *412:11 gpio_vtrip_sel[30] 0.00155907
19 *412:11 *816:25 0.00253391
20 *417:19 *816:25 0.0073562
21 *422:11 *816:11 0.0100898
22 *422:11 *816:25 0.00979993
23 *546:25 *816:25 0.000681113
24 *737:39 *816:25 4.2145e-05
25 *761:11 *816:11 0.0290769
26 *813:11 gpio_vtrip_sel[30] 0.00128164
27 *813:11 *816:25 0.00249916
28 *813:11 *816:27 0.0121322
29 *813:19 gpio_vtrip_sel[30] 0.000299642
30 *814:9 *816:9 0
31 *814:11 *816:11 0.0446502
32 *814:11 *816:25 0.00222424
33 *814:19 gpio_vtrip_sel[30] 0.00385193
34 *814:19 *816:25 0.00145476
35 *814:19 *816:27 0.0516879
*RES
1 *921:gpio_vtrip_sel[30] *816:9 10.418 
2 *816:9 *816:11 497.355 
3 *816:11 *816:25 31.1961 
4 *816:25 *816:27 91.808 
5 *816:27 gpio_vtrip_sel[30] 18.8964 
*END

*D_NET *817 0.259812
*CONN
*P gpio_vtrip_sel[31] O
*I *921:gpio_vtrip_sel[31] O *D CF_CARAVEL_SOC
*CAP
1 gpio_vtrip_sel[31] 0.00303665
2 *921:gpio_vtrip_sel[31] 0.0046997
3 *817:11 0.0332917
4 *817:9 0.0349547
5 *817:9 *818:9 0
6 *817:11 *818:11 0.0600657
7 gpio_ib_mode_sel[31] gpio_vtrip_sel[31] 0.00208315
8 gpio_out[36] *817:9 0
9 *336:67 *817:11 0.00654541
10 *369:11 *817:11 0.00405249
11 *383:11 *817:11 0.000282121
12 *437:11 *817:11 0.0116808
13 *457:11 *817:11 0.00350788
14 *543:29 *817:9 7.13354e-05
15 *545:15 *817:11 0.00929392
16 *729:21 gpio_vtrip_sel[31] 0
17 *769:11 *817:11 0.0862468
18 *816:9 *817:9 0
*RES
1 *921:gpio_vtrip_sel[31] *817:9 9.68967 
2 *817:9 *817:11 189.187 
3 *817:11 gpio_vtrip_sel[31] 7.4103 
*END

*D_NET *818 0.176847
*CONN
*P gpio_vtrip_sel[32] O
*I *921:gpio_vtrip_sel[32] O *D CF_CARAVEL_SOC
*CAP
1 gpio_vtrip_sel[32] 0.00324889
2 *921:gpio_vtrip_sel[32] 0.00368371
3 *818:11 0.0186779
4 *818:9 0.0191127
5 gpio_holdover[36] *818:9 0.00337514
6 gpio_ib_mode_sel[32] gpio_vtrip_sel[32] 0
7 gpio_out[36] *818:9 0.00032792
8 *290:15 gpio_vtrip_sel[32] 0.000895769
9 *383:11 *818:11 0.0447801
10 *390:11 *818:11 0.00999527
11 *417:11 *818:11 0.00830487
12 *539:183 *818:11 0.00207947
13 *693:31 *818:11 0.00185967
14 *798:17 *818:9 9.57021e-05
15 *802:15 gpio_vtrip_sel[32] 0.00022773
16 *814:17 gpio_vtrip_sel[32] 0.000116099
17 *817:9 *818:9 0
18 *817:11 *818:11 0.0600657
*RES
1 *921:gpio_vtrip_sel[32] *818:9 9.57313 
2 *818:9 *818:11 107.705 
3 *818:11 gpio_vtrip_sel[32] 7.3343 
*END

*D_NET *819 0.142458
*CONN
*P gpio_vtrip_sel[33] O
*I *921:gpio_vtrip_sel[33] O *D CF_CARAVEL_SOC
*CAP
1 gpio_vtrip_sel[33] 0.00457526
2 *921:gpio_vtrip_sel[33] 0.00154954
3 *819:11 0.0166129
4 *819:9 0.0135872
5 *819:9 *820:9 0
6 *819:11 *831:11 0.000976219
7 *819:11 *834:11 0
8 gpio_analog_pol[35] *819:11 0.00263233
9 gpio_ib_mode_sel[33] gpio_vtrip_sel[33] 0.00588567
10 gpio_oeb[33] gpio_vtrip_sel[33] 0.00345097
11 *161:19 *819:11 0.0227737
12 *356:11 *819:11 0.000464879
13 *382:9 gpio_vtrip_sel[33] 0
14 *383:9 gpio_vtrip_sel[33] 0.000182509
15 *386:11 *819:11 0.0275803
16 *393:11 *819:11 0.0146404
17 *448:13 *819:11 0.000546361
18 *449:29 *819:11 0.00344663
19 *548:23 gpio_vtrip_sel[33] 0.000225955
20 *693:41 gpio_vtrip_sel[33] 0.000227078
21 *736:37 gpio_vtrip_sel[33] 0.00055029
22 *751:11 *819:11 0.00625772
23 *791:21 *819:11 0.00496502
24 *797:17 *819:11 0.00899585
25 *798:17 *819:9 0
26 *808:11 *819:11 0.00233072
*RES
1 *921:gpio_vtrip_sel[33] *819:9 3.59953 
2 *819:9 *819:11 78.7639 
3 *819:11 gpio_vtrip_sel[33] 17.2897 
*END

*D_NET *820 0.0817507
*CONN
*P gpio_vtrip_sel[34] O
*I *921:gpio_vtrip_sel[34] O *D CF_CARAVEL_SOC
*CAP
1 gpio_vtrip_sel[34] 0.00196728
2 *921:gpio_vtrip_sel[34] 0.00537464
3 *820:11 0.00724934
4 *820:9 0.0106567
5 *820:9 gpio_vtrip_sel[35] 0
6 gpio_ib_mode_sel[34] gpio_vtrip_sel[34] 0.00258261
7 gpio_inp_dis[36] *820:9 0.00167746
8 *541:111 *820:11 0.0261208
9 *690:23 *820:11 0.0261219
10 *819:9 *820:9 0
*RES
1 *921:gpio_vtrip_sel[34] *820:9 12.0495 
2 *820:9 *820:11 302.025 
3 *820:11 gpio_vtrip_sel[34] 5.09103 
*END

*D_NET *821 0.0473692
*CONN
*P gpio_vtrip_sel[35] O
*I *921:gpio_vtrip_sel[35] O *D CF_CARAVEL_SOC
*CAP
1 gpio_vtrip_sel[35] 0.0136463
2 *921:gpio_vtrip_sel[35] 0.0136463
3 gpio_vtrip_sel[35] gpio_vtrip_sel[36] 0
4 gpio_vtrip_sel[35] *832:17 0.000152125
5 gpio_dm1[35] gpio_vtrip_sel[35] 0.000152854
6 gpio_ib_mode_sel[35] gpio_vtrip_sel[35] 0.000434228
7 gpio_inp_dis[36] gpio_vtrip_sel[35] 0
8 gpio_oeb[35] gpio_vtrip_sel[35] 0.000686267
9 *293:27 gpio_vtrip_sel[35] 0.00232979
10 *384:11 gpio_vtrip_sel[35] 0.00103502
11 *414:11 gpio_vtrip_sel[35] 0.000417139
12 *420:11 gpio_vtrip_sel[35] 0.0116244
13 *456:27 gpio_vtrip_sel[35] 0.00238717
14 *760:11 gpio_vtrip_sel[35] 0.000857556
15 *820:9 gpio_vtrip_sel[35] 0
*RES
1 *921:gpio_vtrip_sel[35] gpio_vtrip_sel[35] 40.5054 
*END

*D_NET *822 0.0218733
*CONN
*P gpio_vtrip_sel[36] O
*I *921:gpio_vtrip_sel[36] O *D CF_CARAVEL_SOC
*CAP
1 gpio_vtrip_sel[36] 0.00919628
2 *921:gpio_vtrip_sel[36] 0.00919628
3 gpio_vtrip_sel[36] *823:15 0
4 gpio_analog_en[36] gpio_vtrip_sel[36] 0.000570813
5 gpio_dm0[36] gpio_vtrip_sel[36] 0
6 gpio_dm1[36] gpio_vtrip_sel[36] 0.00031148
7 gpio_ib_mode_sel[36] gpio_vtrip_sel[36] 0
8 gpio_vtrip_sel[35] gpio_vtrip_sel[36] 0
9 *402:11 gpio_vtrip_sel[36] 0.0025985
10 *465:11 gpio_vtrip_sel[36] 0
*RES
1 *921:gpio_vtrip_sel[36] gpio_vtrip_sel[36] 47.048 
*END

*D_NET *823 0.0590728
*CONN
*P gpio_vtrip_sel[37] O
*I *921:gpio_vtrip_sel[37] O *D CF_CARAVEL_SOC
*CAP
1 gpio_vtrip_sel[37] 0.000112995
2 *921:gpio_vtrip_sel[37] 0.0151887
3 *823:15 0.0153017
4 *823:15 *824:9 0.000421945
5 gpio_dm1[36] *823:15 0.000172524
6 gpio_ib_mode_sel[37] *823:15 0
7 gpio_out[37] *823:15 0
8 gpio_vtrip_sel[36] *823:15 0
9 *398:19 *823:15 0.0029324
10 *422:11 *823:15 0.0185203
11 *437:11 *823:15 0.00249702
12 *693:91 *823:15 0.00308037
13 *813:11 *823:15 0.000496193
14 *814:11 *823:15 0.000348663
*RES
1 *921:gpio_vtrip_sel[37] *823:15 49.906 
2 *823:15 gpio_vtrip_sel[37] 0.288167 
*END

*D_NET *824 0.319927
*CONN
*P gpio_vtrip_sel[38] O
*I *921:gpio_vtrip_sel[38] O *D CF_CARAVEL_SOC
*CAP
1 gpio_vtrip_sel[38] 0.000346092
2 *921:gpio_vtrip_sel[38] 0.00191344
3 *824:23 0.00997614
4 *824:21 0.0110383
5 *824:11 0.0116106
6 *824:9 0.0121158
7 *824:9 *825:9 0
8 *824:9 *836:11 0.000229581
9 *824:11 *861:27 0.0237261
10 *824:21 *855:17 0
11 *824:21 *859:23 0.000404148
12 *824:21 *861:25 0.000614926
13 *824:21 *861:27 0.00154732
14 *824:23 *865:11 0.000144557
15 *824:23 *867:11 0.0110245
16 *284:39 *824:23 0.000184419
17 *364:37 *824:21 1.6421e-05
18 *382:11 *824:11 0.000190181
19 *385:15 *824:23 0.058026
20 *387:21 *824:23 0.000555153
21 *388:11 *824:11 0.0617388
22 *413:11 *824:11 0.0261791
23 *428:23 *824:23 0.0570304
24 *541:107 *824:21 8.23457e-05
25 *543:23 *824:11 0.0137051
26 *549:13 *824:23 0.0100106
27 *558:25 *824:11 0.00511504
28 *558:25 *824:21 0.00198024
29 *823:15 *824:9 0.000421945
*RES
1 *921:gpio_vtrip_sel[38] *824:9 4.58627 
2 *824:9 *824:11 687.203 
3 *824:11 *824:21 46.0725 
4 *824:21 *824:23 88.0207 
5 *824:23 gpio_vtrip_sel[38] 5.2325 
*END

*D_NET *825 0.393235
*CONN
*P gpio_vtrip_sel[39] O
*I *921:gpio_vtrip_sel[39] O *D CF_CARAVEL_SOC
*CAP
1 gpio_vtrip_sel[39] 0.000709877
2 *921:gpio_vtrip_sel[39] 0.00163839
3 *825:23 0.0208264
4 *825:21 0.0209719
5 *825:11 0.0122472
6 *825:9 0.0130302
7 *825:9 *827:9 0
8 *825:9 *836:11 0.000229581
9 *825:11 *829:11 0.062057
10 *825:11 *854:27 0.0228124
11 *825:21 *829:29 4.41506e-05
12 *825:21 *829:33 0
13 *825:21 *854:25 0.000438473
14 *825:21 *865:15 0
15 *825:23 *859:19 7.57464e-05
16 gpio_ib_mode_sel[39] gpio_vtrip_sel[39] 0
17 *248:33 *825:23 0.000243201
18 *250:33 *825:23 0.00050279
19 *335:25 *825:23 0.01045
20 *386:11 *825:11 0.00211357
21 *390:21 *825:21 0.000298242
22 *429:11 *825:11 3.97125e-05
23 *429:17 *825:11 0.00165138
24 *429:17 *825:21 0.000160116
25 *435:11 *825:11 0.00537817
26 *446:27 *825:23 0.00906705
27 *447:21 *825:23 0.0103992
28 *449:29 *825:11 0.023718
29 *453:49 *825:23 0.000130508
30 *473:15 *825:23 0.0052676
31 *541:59 *825:23 0.00174237
32 *546:23 *825:23 0.000325565
33 *553:23 *825:21 1.92979e-05
34 *554:13 *825:21 4.41506e-05
35 *558:23 *825:21 4.09093e-05
36 *739:128 *825:23 0.0240167
37 *781:23 *825:23 0.000121832
38 *783:15 *825:23 0.100984
39 *784:13 *825:23 0.0396649
40 *785:25 *825:23 0.000864442
41 *786:21 *825:23 0.000117913
42 *797:17 *825:11 0.000792455
43 *824:9 *825:9 0
*RES
1 *921:gpio_vtrip_sel[39] *825:9 3.71227 
2 *825:9 *825:11 711.682 
3 *825:11 *825:21 21.5925 
4 *825:21 *825:23 155.727 
5 *825:23 gpio_vtrip_sel[39] 10.1375 
*END

*D_NET *826 0.714801
*CONN
*P gpio_vtrip_sel[3] O
*I *921:gpio_vtrip_sel[3] O *D CF_CARAVEL_SOC
*CAP
1 gpio_vtrip_sel[3] 0.00181329
2 *921:gpio_vtrip_sel[3] 0.00147563
3 *826:131 0.0245342
4 *826:129 0.0227209
5 *826:127 0.00790917
6 *826:125 0.00795388
7 *826:119 0.00391577
8 *826:117 0.00530691
9 *826:95 0.00346921
10 *826:93 0.0042219
11 *826:79 0.00320577
12 *826:77 0.00234802
13 *826:63 0.00209836
14 *826:61 0.00124842
15 *826:47 0.0235786
16 *826:45 0.0239915
17 *826:31 0.0190753
18 *826:29 0.0522855
19 *826:11 0.0532205
20 *826:9 0.0205922
21 *826:11 *846:39 0.00374465
22 *826:11 *852:27 0.00228374
23 *826:11 *864:15 0.00275291
24 *826:29 *921:mask_rev[8] 0.00237627
25 *826:29 *840:19 0.00717778
26 gpio_ib_mode_sel[3] gpio_vtrip_sel[3] 0.000610083
27 gpio_out[39] *826:29 0.00102075
28 *921:gpio_in[10] *826:29 0.000144918
29 *921:gpio_in[12] *826:29 0.00274131
30 *921:gpio_in[16] *826:29 0.00266637
31 *921:gpio_in[18] *826:29 0
32 *921:gpio_in[37] *826:45 0
33 *118:33 *826:127 0.00426225
34 *118:37 *826:125 0.00011011
35 *118:39 *826:127 4.82863e-05
36 *118:69 *826:117 0.000233924
37 *118:115 *826:47 0.00753868
38 *118:133 *826:47 0
39 *118:209 *826:29 0.00366784
40 *125:15 *826:127 0.00152319
41 *261:11 *826:131 0.0531104
42 *283:11 *826:131 0
43 *293:15 *826:45 0.000171966
44 *322:39 *826:127 0.0180473
45 *322:61 *826:125 0.000111776
46 *322:93 *826:117 6.26655e-05
47 *322:113 *826:117 2.85943e-05
48 *322:181 *826:45 1.0911e-05
49 *322:189 *826:31 0.00154106
50 *322:211 *826:29 0.000110187
51 *322:235 *826:29 0.00180845
52 *322:255 *826:29 0.00144519
53 *325:133 *826:29 0.00128574
54 *325:145 *826:29 0.00225403
55 *325:157 *826:29 0.00332547
56 *335:55 *826:29 0.000455692
57 *336:41 *826:77 1.20045e-05
58 *338:35 *826:47 0.00644453
59 *338:81 *826:29 0.00176727
60 *347:11 *826:131 0.022766
61 *386:11 *826:11 0.0350893
62 *386:45 *826:29 0.0044292
63 *386:69 *826:29 0.00585574
64 *386:89 *826:29 0.000636328
65 *386:175 *826:79 0.00176684
66 *386:189 *826:93 0.000184164
67 *386:189 *826:117 8.53113e-06
68 *386:211 *826:131 0.0060298
69 *397:33 *826:29 0.0045986
70 *397:53 *826:29 0.00603723
71 *397:77 *826:29 0.00132233
72 *397:79 *826:45 0.00149961
73 *397:93 *826:61 0.000784803
74 *397:97 *826:63 0.000164895
75 *397:109 *826:77 0.0085688
76 *397:117 *826:79 4.0843e-05
77 *397:135 *826:117 0.0001049
78 *408:53 *826:79 2.05056e-05
79 *408:63 *826:95 0.00615732
80 *408:95 *826:119 0.000637506
81 *419:21 *826:29 0.00456357
82 *419:23 *826:29 0.000544176
83 *419:101 *826:63 0.00489585
84 *419:119 *826:79 0.00645862
85 *419:133 *826:93 0.0072698
86 *425:11 *826:11 0.00238328
87 *435:11 *826:11 0.0013443
88 *444:37 *826:117 0
89 *444:55 *826:47 0
90 *444:69 *826:45 6.16289e-05
91 *444:71 *826:29 0.00275643
92 *448:31 *826:11 0.00606309
93 *471:11 *826:11 0.000431818
94 *471:25 *826:29 0.000292224
95 *472:55 *826:29 0.0104365
96 *472:55 *826:45 0.000287293
97 *530:29 *826:63 9.80032e-06
98 *530:55 *826:95 2.16833e-05
99 *530:75 *826:117 0.00615936
100 *532:14 *826:47 0.000517748
101 *532:14 *826:61 0
102 *532:32 *826:127 0.00131804
103 *533:36 *826:63 0.00222516
104 *533:68 *826:93 1.71485e-05
105 *533:92 *826:117 0.000222012
106 *533:94 *826:119 0
107 *533:104 *826:127 9.4366e-05
108 *535:33 *826:79 0.000709264
109 *535:65 *826:93 0.00109288
110 *535:65 *826:95 0.000187229
111 *535:93 *826:117 0.00355656
112 *536:35 *826:117 0
113 *536:51 *826:119 0.00176518
114 *536:63 *826:119 0.000883431
115 *536:63 *826:127 0.00176121
116 *537:24 *826:117 0.000543682
117 *539:69 *826:45 7.2767e-05
118 *539:73 *826:31 0.00253639
119 *539:75 *826:31 0.00877027
120 *539:117 *826:29 0.00134525
121 *539:151 *826:29 0.00340187
122 *540:24 *826:61 0.000181545
123 *540:24 *826:77 0.000814146
124 *540:34 *826:119 0.00629685
125 *541:37 *826:31 0.0108957
126 *541:77 *826:29 0.00193187
127 *541:89 *826:29 0.00143146
128 *543:23 *826:11 0
129 *551:49 *826:61 0.00159119
130 *551:61 *826:63 0.00355688
131 *551:109 *826:117 3.98779e-05
132 *556:37 *826:29 0.00254898
133 *556:41 *826:29 0.00456009
134 *562:25 *826:47 0.000269827
135 *562:65 *826:77 0.00860598
136 *562:73 *826:79 0.00398168
137 *562:107 *826:117 0.00647262
138 *567:14 *826:127 0
139 *568:11 *826:127 0
140 *569:18 *826:47 0.00581536
141 *569:18 *826:127 0.0303172
142 *572:16 *826:127 0
143 *693:125 *826:29 0.00134905
144 *693:191 *826:29 0
145 *696:93 *826:119 0.000557195
146 *696:125 *826:63 4.82919e-05
147 *696:125 *826:77 1.88904e-05
148 *696:163 *826:47 0.000583754
149 *698:21 gpio_vtrip_sel[3] 3.9804e-05
150 *737:103 *826:29 0.000806602
151 *737:147 *826:29 0.00167331
152 *737:151 *826:29 0.00123458
153 *737:171 *826:29 0.000158823
154 *739:80 *826:29 0.00150471
155 *739:92 *826:29 0.00134604
156 *740:113 *826:119 4.82863e-05
157 *741:160 *826:93 0.00028405
158 *741:160 *826:95 0.00088577
159 *815:9 *826:9 0
160 *815:25 *826:29 0.000782216
161 *815:47 *826:29 0.00260412
*RES
1 *921:gpio_vtrip_sel[3] *826:9 3.8326 
2 *826:9 *826:11 86.9465 
3 *826:11 *826:29 36.5922 
4 *826:29 *826:31 375.81 
5 *826:31 *826:45 29.93 
6 *826:45 *826:47 511.05 
7 *826:47 *826:61 11.3454 
8 *826:61 *826:63 48.405 
9 *826:63 *826:77 18.2051 
10 *826:77 *826:79 59.445 
11 *826:79 *826:93 16.3625 
12 *826:93 *826:95 55.995 
13 *826:95 *826:117 39.5637 
14 *826:117 *826:119 111.54 
15 *826:119 *826:125 5.38 
16 *826:125 *826:127 316.815 
17 *826:127 *826:129 2 
18 *826:129 *826:131 736.417 
19 *826:131 gpio_vtrip_sel[3] 4.26137 
*END

*D_NET *827 0.499091
*CONN
*P gpio_vtrip_sel[40] O
*I *921:gpio_vtrip_sel[40] O *D CF_CARAVEL_SOC
*CAP
1 gpio_vtrip_sel[40] 0.00124255
2 *921:gpio_vtrip_sel[40] 0.00255959
3 *827:19 0.0289053
4 *827:17 0.0277851
5 *827:11 0.0108781
6 *827:9 0.0133153
7 *827:9 *828:9 0
8 *827:9 *836:11 0.000229581
9 *827:11 *857:21 6.44978e-06
10 *827:11 *857:23 0.0239711
11 *827:19 *828:15 0.124394
12 *827:19 *837:11 0.000391299
13 gpio_ib_mode_sel[40] gpio_vtrip_sel[40] 0
14 *164:43 *827:19 0.0171865
15 *255:15 *827:19 0.00286489
16 *292:27 *827:11 0.0148748
17 *297:20 gpio_vtrip_sel[40] 0.000689192
18 *336:65 *827:19 0.000204219
19 *339:23 *827:19 0.00687761
20 *364:39 *827:19 0.0249641
21 *389:11 *827:11 0.00983184
22 *438:19 *827:11 0.0233493
23 *453:41 *827:11 7.70952e-06
24 *453:47 *827:11 0.000472551
25 *462:21 *827:17 9.50291e-05
26 *464:21 *827:17 9.98104e-05
27 *464:21 *827:19 0.000188047
28 *472:11 *827:17 3.54583e-05
29 *472:11 *827:19 0.0532515
30 *482:15 *827:19 0.0238574
31 *555:17 *827:11 0.0647893
32 *558:13 *827:19 0.0217731
33 *825:9 *827:9 0
*RES
1 *921:gpio_vtrip_sel[40] *827:9 5.51853 
2 *827:9 *827:11 722.265 
3 *827:11 *827:17 0.924333 
4 *827:17 *827:19 192.114 
5 *827:19 gpio_vtrip_sel[40] 21.2375 
*END

*D_NET *828 0.56064
*CONN
*P gpio_vtrip_sel[41] O
*I *921:gpio_vtrip_sel[41] O *D CF_CARAVEL_SOC
*CAP
1 gpio_vtrip_sel[41] 0.00148865
2 *921:gpio_vtrip_sel[41] 0.000727767
3 *828:15 0.0259836
4 *828:13 0.024495
5 *828:11 0.012851
6 *828:9 0.0135788
7 *828:9 *836:11 0.000229581
8 *828:11 *830:11 0.0651096
9 *828:11 *856:17 0.000283417
10 *828:11 *856:19 0.0233484
11 *828:11 *858:23 0.000529867
12 *828:15 *837:11 0.14729
13 gpio_ib_mode_sel[41] gpio_vtrip_sel[41] 0
14 *255:15 *828:15 2.75207e-05
15 *297:14 *828:15 0.0228425
16 *400:11 *828:11 0.00233493
17 *403:11 *828:11 0.000529448
18 *405:11 *828:11 0.0307248
19 *434:11 *828:11 0
20 *450:27 *828:11 0.00094184
21 *483:23 *828:15 0.0284854
22 *555:13 *828:15 0.0260151
23 *558:13 *828:15 0.00457766
24 *786:11 *828:11 0.00385109
25 *827:9 *828:9 0
26 *827:19 *828:15 0.124394
*RES
1 *921:gpio_vtrip_sel[41] *828:9 1.96427 
2 *828:9 *828:11 727.365 
3 *828:11 *828:13 0.5 
4 *828:13 *828:15 223.491 
5 *828:15 gpio_vtrip_sel[41] 20.9525 
*END

*D_NET *829 0.508443
*CONN
*P gpio_vtrip_sel[42] O
*I *921:gpio_vtrip_sel[42] O *D CF_CARAVEL_SOC
*CAP
1 gpio_vtrip_sel[42] 0.000505946
2 *921:gpio_vtrip_sel[42] 0.00153542
3 *829:43 0.0332149
4 *829:41 0.0327286
5 *829:35 0.0146341
6 *829:33 0.0155419
7 *829:29 0.00190827
8 *829:11 0.0114787
9 *829:9 0.0120333
10 *829:9 *830:9 0
11 *829:29 *865:15 0
12 *829:33 *852:27 8.2362e-05
13 *829:33 *854:25 0.000453788
14 *829:33 *854:27 8.10123e-05
15 *829:33 *864:15 0.000316547
16 *829:33 *865:15 0
17 *829:35 *859:11 0.00170211
18 *829:35 *859:19 0.00103627
19 *829:35 *863:21 0.000110485
20 *829:35 *873:13 0.00319329
21 *829:35 *873:29 0.00544612
22 gpio_dm2[42] *829:43 0.000195558
23 gpio_ib_mode_sel[42] gpio_vtrip_sel[42] 0
24 gpio_ib_mode_sel[42] *829:43 0.00236398
25 *249:25 *829:33 0.00010141
26 *252:15 *829:35 0.000185617
27 *300:29 gpio_vtrip_sel[42] 4.85306e-05
28 *385:15 *829:35 0.0105867
29 *386:11 *829:11 0.00211357
30 *390:21 *829:29 6.02846e-05
31 *429:11 *829:11 0.0419985
32 *429:11 *829:29 9.71141e-05
33 *429:17 *829:29 0.00159347
34 *433:10 *829:35 0.0600002
35 *433:10 *829:43 0.0220462
36 *435:11 *829:11 0.00622647
37 *448:13 *829:11 0.00994298
38 *449:29 *829:11 0.000624521
39 *457:21 *829:29 6.16289e-05
40 *458:21 *829:29 2.2142e-05
41 *554:13 *829:29 2.04328e-05
42 *560:27 *829:35 0.00673307
43 *693:95 *829:29 8.35118e-05
44 *771:25 *829:29 0.000151745
45 *784:21 *829:43 0.010214
46 *785:27 *829:35 0.0115007
47 *785:27 *829:43 0.102449
48 *786:23 *829:35 0.0126487
49 *786:23 *829:43 0.00123769
50 *797:17 *829:11 0.00271722
51 *798:19 *829:11 0.0043133
52 *804:23 *829:43 0
53 *825:11 *829:11 0.062057
54 *825:21 *829:29 4.41506e-05
55 *825:21 *829:33 0
*RES
1 *921:gpio_vtrip_sel[42] *829:9 3.56787 
2 *829:9 *829:11 706.838 
3 *829:11 *829:29 31.085 
4 *829:29 *829:33 19.8575 
5 *829:33 *829:35 93.9056 
6 *829:35 *829:41 2.7325 
7 *829:41 *829:43 984.045 
8 *829:43 gpio_vtrip_sel[42] 9.2 
*END

*D_NET *830 0.565325
*CONN
*P gpio_vtrip_sel[43] O
*I *921:gpio_vtrip_sel[43] O *D CF_CARAVEL_SOC
*CAP
1 gpio_vtrip_sel[43] 0.00081786
2 *921:gpio_vtrip_sel[43] 0.000690966
3 *830:15 0.0299092
4 *830:13 0.0290913
5 *830:11 0.0114446
6 *830:9 0.0121355
7 *830:9 *836:11 0.000229581
8 *830:11 *856:17 0.000164361
9 *830:11 *860:15 0.0013118
10 *830:11 *860:19 0.0216371
11 *830:15 *856:11 0.188563
12 *830:15 *864:11 0.0404087
13 gpio_ib_mode_sel[43] gpio_vtrip_sel[43] 0
14 *207:23 *830:15 0.00397735
15 *284:21 gpio_vtrip_sel[43] 0.00054043
16 *353:31 *830:15 0.108605
17 *400:11 *830:11 0.00667941
18 *401:11 *830:11 0.0335229
19 *405:11 *830:11 0.000532719
20 *450:13 *830:11 0.00414726
21 *450:27 *830:11 0.00055704
22 *454:51 *830:11 0.00185934
23 *546:11 gpio_vtrip_sel[43] 0
24 *749:9 *830:9 0
25 *786:11 *830:11 0.00338944
26 *828:11 *830:11 0.0651096
27 *829:9 *830:9 0
*RES
1 *921:gpio_vtrip_sel[43] *830:9 1.906 
2 *830:9 *830:11 743.557 
3 *830:11 *830:13 2 
4 *830:13 *830:15 1735.11 
5 *830:15 gpio_vtrip_sel[43] 15.08 
*END

*D_NET *831 0.721132
*CONN
*P gpio_vtrip_sel[4] O
*I *921:gpio_vtrip_sel[4] O *D CF_CARAVEL_SOC
*CAP
1 gpio_vtrip_sel[4] 0.00720307
2 *921:gpio_vtrip_sel[4] 0.00164944
3 *831:83 0.00980585
4 *831:81 0.00467959
5 *831:75 0.0036574
6 *831:73 0.00423976
7 *831:61 0.00343266
8 *831:43 0.00280935
9 *831:41 0.00452292
10 *831:31 0.0493036
11 *831:29 0.0468165
12 *831:27 0.00715076
13 *831:25 0.00888446
14 *831:11 0.0125916
15 *831:9 0.0125074
16 *831:9 *832:17 0
17 gpio_ib_mode_sel[4] gpio_vtrip_sel[4] 0.00116497
18 gpio_oeb[4] gpio_vtrip_sel[4] 0
19 gpio_out[4] gpio_vtrip_sel[4] 0
20 *101:11 *831:75 0.00771673
21 *102:11 *831:73 0.00015346
22 *106:11 *831:73 0.00119739
23 *110:11 *831:73 0.00119969
24 *116:41 *831:61 2.13396e-05
25 *116:53 *831:41 0.00068325
26 *140:71 *831:41 0
27 *141:21 *831:81 0.00348609
28 *141:29 *831:31 0.0023533
29 *150:19 *831:61 0.00284441
30 *152:19 *831:61 0.00203503
31 *157:37 *831:43 0.00118536
32 *158:22 *831:41 0.000355277
33 *159:13 *831:75 0.00029383
34 *161:19 *831:25 0.000744246
35 *165:9 *831:73 0
36 *168:9 *831:73 0.00344045
37 *169:9 *831:73 0
38 *170:17 gpio_vtrip_sel[4] 0.000559131
39 *179:11 *831:75 0.00131138
40 *190:9 gpio_vtrip_sel[4] 0
41 *191:9 gpio_vtrip_sel[4] 0.000240488
42 *194:33 *831:81 0
43 *196:27 *831:41 0.000369618
44 *197:11 *831:83 0.0118532
45 *204:21 *831:61 0.001215
46 *212:17 gpio_vtrip_sel[4] 0.00143181
47 *213:11 *831:83 0.00362872
48 *214:11 *831:83 0.000800054
49 *227:11 *831:83 0.00132325
50 *228:25 *831:31 0.0127615
51 *230:25 *831:31 0.00423962
52 *242:25 *831:31 0.000181319
53 *247:15 *831:31 0.251283
54 *274:51 *831:83 0.00785448
55 *280:17 *831:73 7.70373e-06
56 *285:11 *831:83 0.000582184
57 *286:39 *831:31 0.000222752
58 *288:53 *831:73 0.000602601
59 *288:57 *831:75 5.10462e-05
60 *328:53 *831:43 0
61 *330:13 *831:43 0.00537157
62 *334:34 *831:61 0.000510475
63 *358:17 *831:25 0.00157626
64 *359:9 *831:25 0
65 *364:17 *831:11 0.00158118
66 *375:17 *831:11 0.000855406
67 *375:27 *831:27 0.000823294
68 *382:11 *831:11 0.00135924
69 *386:11 *831:11 0.0413839
70 *391:15 *831:31 0.081395
71 *392:9 *831:25 0
72 *392:35 *831:41 0.000257697
73 *393:9 *831:25 0.000213986
74 *393:11 *831:11 6.58626e-05
75 *425:11 *831:11 0.0112246
76 *449:13 *831:27 0.00331883
77 *453:17 *831:27 0.0111411
78 *456:19 *831:27 0.0102108
79 *472:27 *831:27 0
80 *530:113 *831:75 0.00333181
81 *542:39 *831:27 0.00696379
82 *705:33 *831:31 0.0148191
83 *758:9 *831:27 0.00447764
84 *788:49 *831:61 0.000372642
85 *797:19 *831:25 0.00375404
86 *798:19 *831:25 0.00375172
87 *808:11 *831:11 0.00274801
88 *819:11 *831:11 0.000976219
*RES
1 *921:gpio_vtrip_sel[4] *831:9 4.091 
2 *831:9 *831:11 77.2135 
3 *831:11 *831:25 46.8852 
4 *831:25 *831:27 267.345 
5 *831:27 *831:29 0.5 
6 *831:29 *831:31 368.895 
7 *831:31 *831:41 7.2418 
8 *831:41 *831:43 59.3925 
9 *831:43 *831:61 47.7625 
10 *831:61 *831:73 21.3503 
11 *831:73 *831:75 85.785 
12 *831:75 *831:81 6.57333 
13 *831:81 *831:83 158.205 
14 *831:83 gpio_vtrip_sel[4] 15.7716 
*END

*D_NET *832 0.839295
*CONN
*P gpio_vtrip_sel[5] O
*I *921:gpio_vtrip_sel[5] O *D CF_CARAVEL_SOC
*CAP
1 gpio_vtrip_sel[5] 0.0024008
2 *921:gpio_vtrip_sel[5] 0.00960167
3 *832:59 0.00608412
4 *832:57 0.00424882
5 *832:51 0.00270299
6 *832:49 0.00340867
7 *832:39 0.0356216
8 *832:37 0.0356531
9 *832:27 0.00937477
10 *832:25 0.00974329
11 *832:19 0.0172794
12 *832:17 0.0252099
13 *832:17 *833:9 0
14 gpio_dm0[36] *832:17 0.000242433
15 gpio_ib_mode_sel[32] *832:37 4.12303e-05
16 gpio_ib_mode_sel[5] gpio_vtrip_sel[5] 0.000526281
17 gpio_inp_dis[36] *832:17 0
18 gpio_vtrip_sel[35] *832:17 0.000152125
19 *114:23 *832:49 0.000334223
20 *138:11 *832:49 3.20897e-05
21 *141:29 *832:39 0.0161597
22 *168:11 *832:59 0
23 *178:19 *832:51 0.00241144
24 *193:61 *832:39 0.000443059
25 *203:15 *832:39 0.259687
26 *203:15 *832:49 0.000698657
27 *205:53 *832:37 0.00140311
28 *205:53 *832:39 0.259819
29 *205:53 *832:49 0.000548806
30 *218:11 *832:59 0.00847517
31 *223:19 *832:49 9.14341e-05
32 *273:11 *832:59 0
33 *283:15 *832:39 0.000295725
34 *284:59 *832:27 0
35 *365:11 *832:19 0
36 *366:9 *832:25 0.000395035
37 *367:9 *832:25 0
38 *384:11 *832:17 0.00209971
39 *391:33 *832:57 3.69971e-05
40 *409:11 *832:27 0
41 *414:11 *832:17 0.00194732
42 *420:11 *832:17 0.00849636
43 *422:11 *832:27 0.0036831
44 *445:11 *832:51 0.00927845
45 *456:27 *832:17 0.00309213
46 *469:11 *832:19 0
47 *539:159 *832:19 0.00548197
48 *539:165 *832:19 0.000747733
49 *539:167 *832:19 0.0158612
50 *546:25 *832:27 0.019954
51 *691:11 *832:37 0.00270792
52 *691:11 *832:39 6.1626e-05
53 *705:33 *832:39 0.0454352
54 *733:10 *832:19 0
55 *737:55 *832:25 8.34853e-05
56 *760:11 *832:17 0.00199702
57 *765:17 *832:37 0.000235526
58 *782:15 *832:49 0
59 *787:19 *832:51 0.0050105
60 *831:9 *832:17 0
*RES
1 *921:gpio_vtrip_sel[5] *832:17 34.3903 
2 *832:17 *832:19 378.525 
3 *832:19 *832:25 4.30093 
4 *832:25 *832:27 222.975 
5 *832:27 *832:37 5.28167 
6 *832:37 *832:39 382.238 
7 *832:39 *832:49 6.04247 
8 *832:49 *832:51 107.715 
9 *832:51 *832:57 1.912 
10 *832:57 *832:59 98.025 
11 *832:59 gpio_vtrip_sel[5] 5.36463 
*END

*D_NET *833 0.641453
*CONN
*P gpio_vtrip_sel[6] O
*I *921:gpio_vtrip_sel[6] O *D CF_CARAVEL_SOC
*CAP
1 gpio_vtrip_sel[6] 0.00210243
2 *921:gpio_vtrip_sel[6] 0.003522
3 *833:31 0.0120966
4 *833:29 0.0100993
5 *833:23 0.0523413
6 *833:21 0.0547091
7 *833:11 0.0159203
8 *833:9 0.0169694
9 gpio_holdover[6] gpio_vtrip_sel[6] 0.00175894
10 gpio_ib_mode_sel[6] gpio_vtrip_sel[6] 0.000582781
11 *118:211 *833:11 0.0130604
12 *159:15 *833:23 0.230084
13 *161:15 *833:21 0.00347233
14 *161:15 *833:23 0.0838421
15 *271:21 *833:31 2.21074e-05
16 *274:125 *833:31 0
17 *315:15 *833:31 0.00782537
18 *413:17 *833:21 0.00014037
19 *440:19 *833:11 0.0636899
20 *471:9 *833:9 0
21 *689:15 *833:11 0.0393446
22 *692:13 *833:23 0.00321097
23 *693:27 *833:23 0.00253506
24 *731:16 *833:21 0.00627576
25 *731:16 *833:23 0.00799759
26 *734:11 *833:21 0.00050866
27 *734:15 *833:11 0.00641313
28 *782:19 gpio_vtrip_sel[6] 0
29 *789:23 *833:31 0.00285316
30 *808:25 *833:21 7.53067e-05
31 *832:17 *833:9 0
*RES
1 *921:gpio_vtrip_sel[6] *833:9 7.91253 
2 *833:9 *833:11 737.055 
3 *833:11 *833:21 12.6266 
4 *833:21 *833:23 348.764 
5 *833:23 *833:29 4.0075 
6 *833:29 *833:31 185.37 
7 *833:31 gpio_vtrip_sel[6] 25.2266 
*END

*D_NET *834 0.596427
*CONN
*P gpio_vtrip_sel[7] O
*I *921:gpio_vtrip_sel[7] O *D CF_CARAVEL_SOC
*CAP
1 gpio_vtrip_sel[7] 0.000136854
2 *921:gpio_vtrip_sel[7] 0.00121954
3 *834:15 0.140553
4 *834:13 0.140417
5 *834:11 0.059557
6 *834:9 0.0607765
7 *834:9 *835:9 0
8 *834:11 *835:11 0.000947486
9 gpio_analog_pol[35] *834:11 0
10 gpio_ib_mode_sel[7] *834:15 0.00878747
11 *140:179 *834:15 0
12 *161:19 *834:11 0
13 *386:11 *834:11 0
14 *391:11 *834:11 0
15 *399:11 *834:11 0
16 *451:13 *834:11 0.0144019
17 *702:13 *834:15 0
18 *746:13 *834:15 0
19 *785:11 *834:11 0.00402771
20 *791:21 *834:11 0
21 *792:11 *834:11 0.107064
22 *795:17 *834:11 0.0197934
23 *797:17 *834:11 0
24 *801:11 *834:11 0.0128065
25 *805:11 *834:11 0.00657444
26 *807:11 *834:11 0.0193639
27 *819:11 *834:11 0
*RES
1 *921:gpio_vtrip_sel[7] *834:9 3.0422 
2 *834:9 *834:11 231.134 
3 *834:11 *834:13 0.5 
4 *834:13 *834:15 387.549 
5 *834:15 gpio_vtrip_sel[7] 0.3933 
*END

*D_NET *835 0.828994
*CONN
*P gpio_vtrip_sel[8] O
*I *921:gpio_vtrip_sel[8] O *D CF_CARAVEL_SOC
*CAP
1 gpio_vtrip_sel[8] 2.75472e-05
2 *921:gpio_vtrip_sel[8] 0.00112374
3 *835:15 0.0886214
4 *835:13 0.0885938
5 *835:11 0.0290377
6 *835:9 0.0301615
7 *835:9 *836:9 0
8 gpio_ib_mode_sel[8] *835:15 0.00085807
9 *399:11 *835:11 9.23688e-05
10 *439:15 *835:15 0.261401
11 *703:11 *835:15 0
12 *792:11 *835:11 0.123318
13 *794:11 *835:11 0.143908
14 *795:17 *835:11 0.0197781
15 *795:19 *835:11 0.0267132
16 *800:11 *835:11 0.0144122
17 *834:9 *835:9 0
18 *834:11 *835:11 0.000947486
*RES
1 *921:gpio_vtrip_sel[8] *835:9 2.80913 
2 *835:9 *835:11 259.213 
3 *835:11 *835:13 0.5 
4 *835:13 *835:15 387.316 
5 *835:15 gpio_vtrip_sel[8] 0.0791667 
*END

*D_NET *836 0.62882
*CONN
*P gpio_vtrip_sel[9] O
*I *921:gpio_vtrip_sel[9] O *D CF_CARAVEL_SOC
*CAP
1 gpio_vtrip_sel[9] 0.000233821
2 *921:gpio_vtrip_sel[9] 0.000333784
3 *836:15 0.141031
4 *836:13 0.140797
5 *836:11 0.0507865
6 *836:9 0.0511203
7 gpio_holdover[9] *836:15 0
8 *322:375 *836:15 0.00120868
9 *375:27 *836:11 0.00201817
10 *449:13 *836:11 0.00664276
11 *453:17 *836:11 0.00857388
12 *456:19 *836:11 0.0022567
13 *472:27 *836:11 0.0023229
14 *538:289 *836:15 0
15 *544:25 *836:11 0.00201817
16 *704:11 *836:15 0
17 *748:11 *836:15 0
18 *749:9 *836:11 0.000229581
19 *750:9 *836:11 0.000229581
20 *752:9 *836:11 0.000229581
21 *752:11 *836:11 0
22 *755:9 *836:11 0.000229581
23 *756:6 *836:11 0.135836
24 *758:9 *836:11 0.0409722
25 *771:9 *836:11 0.000229581
26 *783:11 *836:11 0.00152139
27 *784:9 *836:11 0.0363247
28 *790:9 *836:11 0.000229581
29 *791:21 *836:11 0.000229581
30 *792:9 *836:11 0.000229581
31 *794:9 *836:9 0
32 *794:9 *836:11 0.000229581
33 *795:17 *836:11 0.000229581
34 *796:9 *836:11 0.000229581
35 *797:17 *836:11 0.000229581
36 *798:17 *836:11 0.000229581
37 *799:9 *836:11 0.000229581
38 *800:9 *836:11 0.000229581
39 *801:9 *836:11 0.000229581
40 *824:9 *836:11 0.000229581
41 *825:9 *836:11 0.000229581
42 *827:9 *836:11 0.000229581
43 *828:9 *836:11 0.000229581
44 *830:9 *836:11 0.000229581
45 *835:9 *836:9 0
*RES
1 *921:gpio_vtrip_sel[9] *836:9 1.06113 
2 *836:9 *836:11 286.259 
3 *836:11 *836:13 0.5 
4 *836:13 *836:15 385.568 
5 *836:15 gpio_vtrip_sel[9] 0.671967 
*END

*D_NET *837 0.667541
*CONN
*P mask_rev[0] I
*I *921:mask_rev[0] I *D CF_CARAVEL_SOC
*CAP
1 mask_rev[0] 0.00101159
2 *921:mask_rev[0] 0.00143665
3 *837:15 0.00392645
4 *837:13 0.0024898
5 *837:11 0.045756
6 *837:9 0.0467676
7 *837:9 *848:9 0
8 *837:9 *859:9 0
9 *837:9 *862:9 0
10 *837:9 *866:15 0.000293605
11 *837:11 *838:11 0.242242
12 *837:15 *845:25 5.09119e-05
13 *837:15 *845:27 0.0110736
14 *837:15 *865:15 0.00621876
15 *289:23 *837:11 0.0073922
16 *297:14 *837:11 0.0526653
17 *336:65 *837:11 0.000650914
18 *428:21 *837:15 0.000876716
19 *430:11 *837:15 0.0023394
20 *433:6 *921:mask_rev[0] 0.000206859
21 *445:23 *837:11 0.047091
22 *481:15 *837:11 0.0409663
23 *542:21 *921:mask_rev[0] 0
24 *555:13 *837:11 0.00518139
25 *566:11 *837:9 0.000956324
26 *760:21 *837:15 0.000265962
27 *785:25 *837:15 0
28 *827:19 *837:11 0.000391299
29 *828:15 *837:11 0.14729
*RES
1 mask_rev[0] *837:9 20.12 
2 *837:9 *837:11 369.623 
3 *837:11 *837:13 0.5 
4 *837:13 *837:15 131.685 
5 *837:15 *921:mask_rev[0] 3.04347 
*END

*D_NET *838 0.703352
*CONN
*P mask_rev[10] I
*I *921:mask_rev[10] I *D CF_CARAVEL_SOC
*CAP
1 mask_rev[10] 0.000932965
2 *921:mask_rev[10] 0.00034587
3 *838:27 0.00247269
4 *838:25 0.00321969
5 *838:11 0.05377
6 *838:9 0.0536101
7 *921:mask_rev[10] *921:mask_rev[11] 0
8 *921:mask_rev[10] *921:mask_rev[9] 0
9 *838:9 *839:15 4.4104e-06
10 *838:9 *840:9 0
11 *838:9 *868:9 0.00115726
12 *838:25 *840:25 0.00107155
13 *838:25 *841:21 0.00020239
14 *838:27 *921:mask_rev[11] 0.00308195
15 *838:27 *840:27 0.0138457
16 *838:27 *841:23 1.26548e-05
17 *838:27 *842:23 0.013821
18 *119:15 *838:11 0.0250841
19 *119:23 *838:11 0.0298357
20 *167:19 *838:11 0.0673094
21 *208:21 *838:11 0.0280075
22 *289:23 *838:11 0.0335709
23 *297:14 *838:11 0.000380001
24 *336:15 *838:11 0.0113379
25 *336:65 *838:11 0.015251
26 *464:23 *838:11 0.00868431
27 *465:23 *838:11 0.0187593
28 *481:25 *838:11 0.0279837
29 *542:15 *838:25 0.000128942
30 *547:13 *838:11 0.0449154
31 *780:9 *838:25 0.000483319
32 *781:21 *838:25 0.00183032
33 *837:11 *838:11 0.242242
*RES
1 mask_rev[10] *838:9 19.04 
2 *838:9 *838:11 369.216 
3 *838:11 *838:25 36.3375 
4 *838:25 *838:27 153.488 
5 *838:27 *921:mask_rev[10] 1.06493 
*END

*D_NET *839 0.621132
*CONN
*P mask_rev[11] I
*I *921:mask_rev[11] I *D CF_CARAVEL_SOC
*CAP
1 mask_rev[11] 0.00329477
2 *921:mask_rev[11] 0.00808932
3 *839:217 0.0121104
4 *839:209 0.00767045
5 *839:197 0.0108853
6 *839:181 0.0123227
7 *839:157 0.0105881
8 *839:133 0.0112954
9 *839:101 0.0105859
10 *839:69 0.00837939
11 *839:53 0.0070708
12 *839:17 0.0114028
13 *839:15 0.0112144
14 *921:mask_rev[11] *921:mask_rev[12] 0
15 *921:mask_rev[11] *840:27 0.00257131
16 *839:15 *840:9 1.20977e-05
17 *839:17 *840:11 0.0109536
18 *839:17 *846:13 0.00994702
19 *839:101 *858:11 0.000918148
20 *839:101 *866:17 0.00429657
21 *839:133 *858:11 0.00346716
22 *839:133 *866:17 0.00453971
23 *839:157 *858:11 0.00348551
24 *839:157 *866:17 0.0044705
25 *839:181 *858:11 0.00265888
26 *839:181 *866:17 0.0067465
27 *839:197 *858:11 0.00112235
28 *839:197 *866:17 0.00122974
29 *839:209 *846:13 0.00207472
30 *839:209 *858:11 0.000811177
31 *839:209 *866:17 0.00530021
32 *839:217 *846:37 0.0169345
33 *839:217 *866:17 0.000700074
34 gpio_dm0[43] *839:53 9.20318e-05
35 *921:gpio_in[0] *839:217 0.000529711
36 *921:gpio_in[11] *839:197 0.00776599
37 *921:gpio_in[11] *839:209 0.000429519
38 *921:gpio_in[19] *839:197 0.00708254
39 *921:gpio_in[23] *839:181 0
40 *921:gpio_in[39] *839:133 2.94309e-05
41 *921:gpio_in[7] *839:209 9.04457e-05
42 *921:mask_rev[10] *921:mask_rev[11] 0
43 *120:15 *839:15 0.000135103
44 *211:13 *839:101 0.00231994
45 *211:13 *839:133 0.0040571
46 *212:23 *839:17 0.0468706
47 *212:23 *839:53 0.0064813
48 *212:23 *839:69 0.0161463
49 *212:23 *839:101 0.0114407
50 *292:15 *839:133 0.00143704
51 *292:15 *839:157 0.00251399
52 *295:15 *839:133 0.00132477
53 *295:15 *839:157 0.000782517
54 *297:10 *839:15 0.000435958
55 *299:23 *839:133 0.000863362
56 *325:85 *839:157 9.03164e-05
57 *325:133 *839:209 0.00195833
58 *338:33 *839:53 0
59 *344:15 *839:53 0.0116046
60 *344:15 *839:69 0.00398181
61 *344:15 *839:101 0.000983381
62 *386:69 *839:209 2.67582e-05
63 *430:23 *839:53 0.00258728
64 *430:23 *839:69 0.000900266
65 *430:23 *839:101 0.00208635
66 *430:23 *839:133 0.00195728
67 *430:23 *839:157 0.00188826
68 *430:23 *839:181 0.00279776
69 *430:23 *839:197 0.00220171
70 *430:23 *839:209 0.00284089
71 *430:23 *839:217 0.000267844
72 *431:15 *839:133 0.00173289
73 *431:15 *839:157 0.00109071
74 *450:27 *921:mask_rev[11] 0.000750225
75 *467:15 *839:217 2.73636e-05
76 *469:15 *839:157 0.0066573
77 *469:15 *839:181 0.00675425
78 *469:15 *839:197 0.00783174
79 *469:15 *839:209 0.00244865
80 *469:15 *839:217 0.00461954
81 *542:15 *921:mask_rev[11] 0.00199284
82 *544:11 *839:53 9.04457e-05
83 *550:11 *839:197 0.00256332
84 *550:11 *839:209 0.000729571
85 *550:11 *839:217 0.00323189
86 *693:191 *839:181 0
87 *737:127 *839:209 0.000596016
88 *737:127 *839:217 0.00214151
89 *741:138 *839:53 2.38469e-05
90 *784:9 *921:mask_rev[11] 0.00980272
91 *786:11 *921:mask_rev[11] 0
92 *793:25 *839:217 0.000361735
93 *815:25 *839:209 0.00110494
94 *815:25 *839:217 4.6127e-05
95 *815:47 *839:209 0.0114688
96 *815:49 *839:17 0.0468706
97 *815:49 *839:53 0.0180882
98 *815:49 *839:69 0.0201252
99 *815:49 *839:101 0.0243621
100 *815:49 *839:133 0.0242783
101 *815:49 *839:157 0.0241658
102 *815:49 *839:181 0.0243873
103 *815:49 *839:197 0.0155512
104 *838:9 *839:15 4.4104e-06
105 *838:27 *921:mask_rev[11] 0.00308195
*RES
1 mask_rev[11] *839:15 7.20997 
2 *839:15 *839:17 71.2107 
3 *839:17 *839:53 38.6561 
4 *839:53 *839:69 34.8577 
5 *839:69 *839:101 45.4765 
6 *839:101 *839:133 45.36 
7 *839:133 *839:157 43.0805 
8 *839:157 *839:181 43.3135 
9 *839:181 *839:197 45.3424 
10 *839:197 *839:209 26.6806 
11 *839:209 *839:217 26.6871 
12 *839:217 *921:mask_rev[11] 30.7341 
*END

*D_NET *840 0.567607
*CONN
*P mask_rev[12] I
*I *921:mask_rev[12] I *D CF_CARAVEL_SOC
*CAP
1 mask_rev[12] 0.00149814
2 *921:mask_rev[12] 0.000369895
3 *840:27 0.00388395
4 *840:25 0.00387436
5 *840:19 0.0479914
6 *840:17 0.0479269
7 *840:11 0.00913608
8 *840:9 0.0103384
9 *840:9 *841:9 0.00044961
10 *840:11 *846:13 0.0485422
11 *840:25 *841:23 0.000369107
12 *840:27 *841:23 2.12292e-05
13 *840:27 *842:23 0.000529867
14 *840:27 *860:19 0
15 gpio_dm0[43] *840:11 0.00053468
16 *921:gpio_in[10] *840:19 0.00121337
17 *921:gpio_in[16] *840:19 0.0039343
18 *921:gpio_in[41] *840:19 0.00920942
19 *921:mask_rev[11] *921:mask_rev[12] 0
20 *921:mask_rev[11] *840:27 0.00257131
21 *118:93 *840:19 0.000335082
22 *118:179 *840:19 0.00121518
23 *118:187 *840:19 0.00232058
24 *123:15 *840:19 0.00977095
25 *293:15 *840:19 0.0252355
26 *302:13 *840:9 0.000237495
27 *302:19 *840:9 0.00130126
28 *322:129 *840:19 0.00012901
29 *322:161 *840:19 0.00763088
30 *322:165 *840:19 0.00101927
31 *322:167 *840:19 0.00104946
32 *325:153 *840:19 0.000705457
33 *338:69 *840:19 0.000657841
34 *340:35 *840:9 0.000351064
35 *346:15 *840:19 0.00240557
36 *386:89 *840:19 0.00179713
37 *397:33 *840:19 0.00111162
38 *397:77 *840:19 0.00149816
39 *397:79 *840:19 0.00073817
40 *408:23 *840:19 0.17353
41 *419:23 *840:19 0.00137737
42 *430:23 *840:11 0.0123373
43 *441:15 *840:19 0.0041455
44 *450:13 *840:27 0
45 *463:15 *840:19 0.00380122
46 *471:25 *840:19 0.00283977
47 *472:55 *840:19 0.0171552
48 *529:9 *840:19 0.00643995
49 *531:16 *840:19 0.000236499
50 *536:25 *840:19 0.00763915
51 *539:55 *840:19 0.0047296
52 *539:151 *840:19 0.00140407
53 *540:24 *840:19 0.00625268
54 *541:105 *840:19 0.000347488
55 *542:15 *840:25 1.10631e-05
56 *542:15 *840:27 0.00968116
57 *550:11 *840:11 0.00941362
58 *556:11 *840:19 0.0102984
59 *556:37 *840:19 0.0048393
60 *571:17 *840:19 0.00338063
61 *571:19 *840:19 0.000117568
62 *693:137 *840:19 0.00039641
63 *737:147 *840:19 0.00186369
64 *780:9 *840:25 0.000405264
65 *826:29 *840:19 0.00717778
66 *838:9 *840:9 0
67 *838:25 *840:25 0.00107155
68 *838:27 *840:27 0.0138457
69 *839:15 *840:9 1.20977e-05
70 *839:17 *840:11 0.0109536
*RES
1 mask_rev[12] *840:9 34.1375 
2 *840:9 *840:11 446.88 
3 *840:11 *840:17 6.3025 
4 *840:17 *840:19 294.11 
5 *840:19 *840:25 14.15 
6 *840:25 *840:27 164.325 
7 *840:27 *921:mask_rev[12] 1.1232 
*END

*D_NET *841 0.62049
*CONN
*P mask_rev[13] I
*I *921:mask_rev[13] I *D CF_CARAVEL_SOC
*CAP
1 mask_rev[13] 0.000533777
2 *921:mask_rev[13] 0.000167118
3 *841:23 0.00262973
4 *841:21 0.00342099
5 *841:11 0.0662224
6 *841:9 0.0657978
7 *921:mask_rev[13] *921:mask_rev[14] 0
8 *841:9 *842:9 0.000276559
9 *841:11 *849:11 0.000152762
10 *841:11 *868:11 0.243153
11 *841:23 *842:23 0.0152658
12 *119:23 *841:11 0.0152354
13 *167:19 *841:11 0.0220866
14 *208:29 *841:11 0.0368949
15 *301:13 *841:9 0.000241023
16 *302:19 *841:9 0.00037865
17 *435:23 *841:11 0.0371416
18 *541:107 *841:21 8.23457e-05
19 *544:13 *841:11 0.0391159
20 *553:13 *841:11 0.0480315
21 *780:9 *841:21 0.00173748
22 *780:9 *841:23 0.0157024
23 *781:21 *841:21 0
24 *783:11 *841:21 0.00243071
25 *784:9 *841:23 0.00273663
26 *838:25 *841:21 0.00020239
27 *838:27 *841:23 1.26548e-05
28 *840:9 *841:9 0.00044961
29 *840:25 *841:23 0.000369107
30 *840:27 *841:23 2.12292e-05
*RES
1 mask_rev[13] *841:9 15.575 
2 *841:9 *841:11 369.507 
3 *841:11 *841:21 34.8525 
4 *841:21 *841:23 174.398 
5 *841:23 *921:mask_rev[13] 0.7812 
*END

*D_NET *842 0.528123
*CONN
*P mask_rev[14] I
*I *921:mask_rev[14] I *D CF_CARAVEL_SOC
*CAP
1 mask_rev[14] 0.000842602
2 *921:mask_rev[14] 0.000193151
3 *842:23 0.00287824
4 *842:21 0.00368797
5 *842:11 0.0437571
6 *842:9 0.0435969
7 *842:9 *843:9 0.000392884
8 *842:21 *860:15 0
9 *921:mask_rev[13] *921:mask_rev[14] 0
10 *121:15 *842:11 0.0159399
11 *165:15 *842:11 0.0121958
12 *257:15 *842:11 0.0161987
13 *293:25 *842:21 0
14 *296:15 *842:11 0.0526641
15 *296:23 *842:11 0.00538547
16 *300:17 *842:9 0.00163223
17 *301:13 *842:9 0.00160258
18 *325:71 *842:11 0.0159491
19 *339:15 *842:11 0.0752262
20 *408:21 *842:21 0.00012798
21 *430:21 *842:21 1.48335e-05
22 *432:15 *842:11 0.0155706
23 *450:13 *842:23 0
24 *456:31 *842:11 0.0637892
25 *459:25 *842:11 0.0718918
26 *460:23 *842:11 0.00161384
27 *542:15 *842:21 0.00175399
28 *548:11 *842:11 0.00908128
29 *771:27 *842:11 0.0384488
30 *780:9 *842:23 0.000263504
31 *784:9 *842:23 0.00353088
32 *838:27 *842:23 0.013821
33 *840:27 *842:23 0.000529867
34 *841:9 *842:9 0.000276559
35 *841:23 *842:23 0.0152658
*RES
1 mask_rev[14] *842:9 30.7775 
2 *842:9 *842:11 2191.2 
3 *842:11 *842:21 28.245 
4 *842:21 *842:23 174.398 
5 *842:23 *921:mask_rev[14] 0.839467 
*END

*D_NET *843 0.677267
*CONN
*P mask_rev[15] I
*I *921:mask_rev[15] I *D CF_CARAVEL_SOC
*CAP
1 mask_rev[15] 0.00056006
2 *921:mask_rev[15] 0.000166063
3 *843:15 0.00367785
4 *843:13 0.00351179
5 *843:11 0.0723865
6 *843:9 0.0729466
7 *843:9 *844:11 8.19514e-06
8 *843:9 *845:9 0
9 *843:11 *850:11 0.0474561
10 *843:11 *850:21 0.0156817
11 *843:11 *851:11 0.0521862
12 *843:11 *854:11 0.0393584
13 *843:11 *861:11 0.0361894
14 *843:11 *862:11 0.070623
15 *843:15 *844:17 0.0192032
16 *124:13 *843:11 0.100044
17 *248:19 *843:11 0.0210206
18 *300:17 *843:9 0.000245661
19 *301:17 *843:11 0.000230474
20 *302:21 *843:11 0.020848
21 *388:23 *843:11 0.0306911
22 *433:6 *843:15 0.00273663
23 *477:11 *843:11 0.00599629
24 *565:13 *843:11 0.00585934
25 *737:171 *843:11 0.00086965
26 *783:11 *843:15 0.0192055
27 *784:13 *843:11 0.0351721
28 *842:9 *843:9 0.000392884
*RES
1 mask_rev[15] *843:9 12.47 
2 *843:9 *843:11 369.682 
3 *843:11 *843:13 0.5 
4 *843:13 *843:15 216.345 
5 *843:15 *921:mask_rev[15] 0.715333 
*END

*D_NET *844 0.593568
*CONN
*P mask_rev[16] I
*I *921:mask_rev[16] I *D CF_CARAVEL_SOC
*CAP
1 mask_rev[16] 0.000340391
2 *921:mask_rev[16] 0.00014719
3 *844:17 0.00682228
4 *844:15 0.00667509
5 *844:13 0.0331464
6 *844:11 0.0334868
7 *844:11 *845:9 0.000661338
8 *844:13 *859:19 0.00753924
9 *844:17 *873:39 0.00396046
10 *250:23 *844:13 0.23799
11 *284:15 *844:13 7.16056e-05
12 *300:19 *844:13 0.0217419
13 *335:25 *844:13 0.140003
14 *433:6 *844:17 0.00375107
15 *433:10 *844:13 0.00117212
16 *446:27 *844:13 0.0231523
17 *447:21 *844:13 0.00111359
18 *449:37 *844:17 0
19 *453:49 *844:13 0.000710543
20 *541:59 *844:13 0.00263317
21 *561:18 *844:13 0.00015452
22 *563:14 *844:13 0.0227916
23 *564:13 *844:13 0.00126144
24 *695:67 *844:13 0.0101729
25 *783:11 *844:17 0.000398899
26 *783:15 *844:13 0.01444
27 *793:25 *844:17 1.88656e-05
28 *843:9 *844:11 8.19514e-06
29 *843:15 *844:17 0.0192032
*RES
1 mask_rev[16] *844:11 10.2875 
2 *844:11 *844:13 2189.82 
3 *844:13 *844:15 2 
4 *844:15 *844:17 224.887 
5 *844:17 *921:mask_rev[16] 0.715333 
*END

*D_NET *845 0.625389
*CONN
*P mask_rev[17] I
*I *921:mask_rev[17] I *D CF_CARAVEL_SOC
*CAP
1 mask_rev[17] 0.000913202
2 *921:mask_rev[17] 0.00112671
3 *845:27 0.0056618
4 *845:25 0.00468325
5 *845:19 0.0355657
6 *845:17 0.0354653
7 *845:11 0.0104446
8 *845:9 0.0113101
9 *921:mask_rev[17] *921:mask_rev[18] 0
10 *845:9 *846:11 0.000361012
11 *845:11 *847:8 0.0534925
12 *845:25 *847:36 1.95534e-05
13 *845:27 *847:36 0.000790706
14 *845:27 *865:15 0.0012079
15 gpio_analog_en[43] *845:17 0
16 *124:9 *845:9 0.000791151
17 *168:15 *845:19 0.0449315
18 *208:19 *845:9 1.78771e-05
19 *238:15 *845:19 0.0114647
20 *249:15 *845:11 0.0168649
21 *249:15 *845:19 0.0439458
22 *300:17 *845:9 0
23 *339:23 *845:19 0.167769
24 *340:39 *845:19 0.0237283
25 *343:15 *845:11 0.0105588
26 *343:15 *845:19 0.00856863
27 *389:23 *845:19 0.000101392
28 *429:19 *845:19 0.102432
29 *430:11 *845:27 0.00352913
30 *448:13 *845:27 0
31 *760:21 *845:25 0.000214134
32 *785:11 *845:27 0.0174845
33 *785:25 *845:25 0.000151675
34 *785:25 *845:27 7.91584e-06
35 *837:15 *845:25 5.09119e-05
36 *837:15 *845:27 0.0110736
37 *843:9 *845:9 0
38 *844:11 *845:9 0.000661338
*RES
1 mask_rev[17] *845:9 23.9975 
2 *845:9 *845:11 492.42 
3 *845:11 *845:17 3.2425 
4 *845:17 *845:19 288.866 
5 *845:19 *845:25 4.745 
6 *845:25 *845:27 212.655 
7 *845:27 *921:mask_rev[17] 2.7268 
*END

*D_NET *846 0.578575
*CONN
*P mask_rev[18] I
*I *921:mask_rev[18] I *D CF_CARAVEL_SOC
*CAP
1 mask_rev[18] 0.00110334
2 *921:mask_rev[18] 0.00157188
3 *846:39 0.00908834
4 *846:37 0.0115123
5 *846:13 0.0374258
6 *846:11 0.0345333
7 *846:11 *847:6 0.000296505
8 *846:11 *847:51 2.28334e-06
9 *846:13 *858:11 0.221734
10 *846:37 *866:17 0.000167567
11 *846:39 *864:15 0.012927
12 gpio_dm0[43] *846:13 0.000490083
13 *921:gpio_in[0] *846:37 0.0121349
14 *921:mask_rev[17] *921:mask_rev[18] 0
15 *121:11 *846:11 0.000219683
16 *124:9 *846:11 0.000450724
17 *126:11 *846:11 0.000761212
18 *293:25 *846:37 0.00148677
19 *345:11 *846:11 0.000856558
20 *386:69 *846:13 0.000362686
21 *430:23 *846:13 5.60217e-05
22 *430:23 *846:37 0.00311278
23 *469:15 *846:13 0.00271176
24 *469:15 *846:37 0.00151665
25 *471:11 *846:39 0.00350735
26 *550:11 *846:13 0.101489
27 *550:21 *846:39 0.000291855
28 *737:127 *846:37 8.07749e-05
29 *749:11 *846:39 0
30 *749:25 *846:39 0
31 *771:25 *846:39 0
32 *793:25 *846:37 0.0013594
33 *815:25 *846:37 0.00164699
34 *815:49 *846:13 0.0340734
35 *826:11 *846:39 0.00374465
36 *839:17 *846:13 0.00994702
37 *839:209 *846:13 0.00207472
38 *839:217 *846:37 0.0169345
39 *840:11 *846:13 0.0485422
40 *845:9 *846:11 0.000361012
*RES
1 mask_rev[18] *846:11 33.8525 
2 *846:11 *846:13 2040.78 
3 *846:13 *846:37 35.5898 
4 *846:37 *846:39 211.755 
5 *846:39 *921:mask_rev[18] 3.71733 
*END

*D_NET *847 0.555113
*CONN
*P mask_rev[19] I
*I *921:mask_rev[19] I *D CF_CARAVEL_SOC
*CAP
1 mask_rev[19] 0.000662662
2 *921:mask_rev[19] 0.00100759
3 *847:51 2.00441e-06
4 *847:38 0.00391453
5 *847:36 0.00456912
6 *847:16 0.0514194
7 *847:14 0.0499901
8 *847:8 0.0141911
9 *847:6 0.0146188
10 *921:mask_rev[19] *921:mask_rev[20] 0
11 *847:6 *849:9 0.00113177
12 *847:6 *852:9 0
13 *847:8 *852:11 0.0301326
14 *847:16 *852:19 0.00813676
15 *847:16 *852:25 2.5118e-05
16 *847:36 *852:25 0.000660315
17 *847:36 *853:21 5.74025e-05
18 *847:38 *853:21 0.000874186
19 *847:38 *853:23 0.0168378
20 *921:gpio_in[17] *847:16 0.00182623
21 *165:23 *847:16 0.0128228
22 *167:15 *847:6 9.7282e-05
23 *169:15 *847:16 0.000939176
24 *209:15 *847:16 0.0683026
25 *249:15 *847:8 0.00236258
26 *253:15 *847:16 0.000391131
27 *294:15 *847:16 0.000153576
28 *295:25 *847:36 0.000127935
29 *296:23 *847:16 0
30 *322:149 *847:14 0
31 *338:71 *847:16 0.0835059
32 *343:11 *847:6 3.11927e-05
33 *343:15 *847:8 0.0159122
34 *345:11 *847:6 0.000993256
35 *389:23 *847:8 0.000369897
36 *390:23 *847:8 0.0230994
37 *430:11 *847:38 0.00438334
38 *434:23 *847:16 0.0121666
39 *470:15 *847:16 0.0173616
40 *470:15 *847:36 0.00058602
41 *474:15 *847:16 0.000402423
42 *480:15 *847:16 0.0322711
43 *541:107 *847:36 4.77719e-05
44 *559:19 *847:16 0.00358942
45 *739:112 *847:16 0.000571375
46 *740:169 *847:14 8.57834e-05
47 *785:11 *847:36 2.4784e-05
48 *785:11 *847:38 0.0183628
49 *785:25 *847:36 0.00149219
50 *845:11 *847:8 0.0534925
51 *845:25 *847:36 1.95534e-05
52 *845:27 *847:36 0.000790706
53 *846:11 *847:6 0.000296505
54 *846:11 *847:51 2.28334e-06
*RES
1 mask_rev[19] *847:6 23.2925 
2 *847:6 *847:8 684.585 
3 *847:8 *847:14 6.0475 
4 *847:14 *847:16 253.76 
5 *847:16 *847:36 27.7757 
6 *847:36 *847:38 204.615 
7 *847:38 *921:mask_rev[19] 2.61027 
8 mask_rev[19] *847:51 0.18375 
*END

*D_NET *848 0.624329
*CONN
*P mask_rev[1] I
*I *921:mask_rev[1] I *D CF_CARAVEL_SOC
*CAP
1 mask_rev[1] 0.000180129
2 *921:mask_rev[1] 0.00270251
3 *848:23 0.00545875
4 *848:21 0.00456825
5 *848:11 0.031901
6 *848:9 0.0302691
7 *921:mask_rev[1] *921:mask_rev[2] 0
8 *848:9 *859:9 0.000129569
9 *848:11 *863:11 0.229211
10 *848:23 *863:23 0.0135725
11 gpio_dm1[39] *848:11 0.00512919
12 gpio_out[42] *848:11 0.000230443
13 *207:31 *848:11 0.14847
14 *284:39 *848:11 0.00953748
15 *385:11 *848:23 1.82571e-05
16 *385:15 *848:11 0.00387516
17 *387:21 *848:21 0.0111886
18 *419:13 *848:23 0.00224006
19 *428:23 *848:11 0.00601357
20 *467:11 *848:23 0.0110803
21 *542:21 *921:mask_rev[1] 0.0002461
22 *549:13 *848:11 0.0135641
23 *549:23 *848:23 0
24 *552:25 *848:23 0.00110267
25 *692:27 *848:11 0.0481329
26 *692:35 *848:11 0.0106034
27 *693:193 *848:11 0.00873824
28 *697:115 *848:11 0.00935994
29 *698:27 *848:11 0.00561452
30 *736:43 *848:21 0.0111914
31 *837:9 *848:9 0
*RES
1 mask_rev[1] *848:9 5.3975 
2 *848:9 *848:11 2109.09 
3 *848:11 *848:21 21.1878 
4 *848:21 *848:23 155.655 
5 *848:23 *921:mask_rev[1] 6.048 
*END

*D_NET *849 0.65999
*CONN
*P mask_rev[20] I
*I *921:mask_rev[20] I *D CF_CARAVEL_SOC
*CAP
1 mask_rev[20] 0.000456335
2 *921:mask_rev[20] 0.00062633
3 *849:15 0.00446752
4 *849:13 0.00384119
5 *849:11 0.0409612
6 *849:9 0.0414175
7 *921:mask_rev[20] *921:mask_rev[21] 0
8 *849:9 *850:9 0.000357954
9 *849:9 *852:9 0
10 *849:11 *864:11 0.243434
11 *849:11 *868:11 0.243861
12 *849:15 *850:23 0.0213344
13 *849:15 *868:15 0.000587612
14 *921:mask_rev[19] *921:mask_rev[20] 0
15 *124:13 *849:11 0.000406044
16 *353:31 *849:11 0.015937
17 *434:11 *849:15 0.020177
18 *454:41 *849:15 0.00348685
19 *760:31 *849:11 0.0173531
20 *841:11 *849:11 0.000152762
21 *847:6 *849:9 0.00113177
*RES
1 mask_rev[20] *849:9 14.57 
2 *849:9 *849:11 371.605 
3 *849:11 *849:13 0.5 
4 *849:13 *849:15 240.315 
5 *849:15 *921:mask_rev[20] 1.8528 
*END

*D_NET *850 0.589146
*CONN
*P mask_rev[21] I
*I *921:mask_rev[21] I *D CF_CARAVEL_SOC
*CAP
1 mask_rev[21] 0.000426542
2 *921:mask_rev[21] 0.000587898
3 *850:23 0.00457295
4 *850:21 0.00676924
5 *850:11 0.0503967
6 *850:9 0.048039
7 *921:mask_rev[21] *921:mask_rev[22] 0
8 *850:9 *851:9 0.00035141
9 *850:11 *851:11 0.223139
10 *850:11 *856:11 0
11 *850:21 *854:25 0.000281364
12 *850:21 *862:11 0.0160928
13 *850:21 *862:21 0.000357655
14 *850:21 *864:11 2.75207e-05
15 *850:23 *851:15 0
16 *850:23 *856:17 0.00106551
17 *850:23 *856:19 0.000349886
18 *850:23 *858:23 0.0200958
19 *921:mask_rev[20] *921:mask_rev[21] 0
20 *335:43 *850:21 5.96859e-05
21 *388:23 *850:11 0.126931
22 *434:11 *850:23 0.000268721
23 *454:41 *850:23 0.00443057
24 *784:13 *850:21 2.08512e-05
25 *786:21 *850:21 4.83732e-06
26 *804:21 *850:21 4.73561e-05
27 *843:11 *850:11 0.0474561
28 *843:11 *850:21 0.0156817
29 *849:9 *850:9 0.000357954
30 *849:15 *850:23 0.0213344
*RES
1 mask_rev[21] *850:9 13.7075 
2 *850:9 *850:11 2053.54 
3 *850:11 *850:21 28.6604 
4 *850:21 *850:23 246.945 
5 *850:23 *921:mask_rev[21] 1.79453 
*END

*D_NET *851 0.625341
*CONN
*P mask_rev[22] I
*I *921:mask_rev[22] I *D CF_CARAVEL_SOC
*CAP
1 mask_rev[22] 0.000366512
2 *921:mask_rev[22] 0.00074338
3 *851:19 0.00629893
4 *851:17 0.00558033
5 *851:15 0.00235088
6 *851:13 0.0023261
7 *851:11 0.0313948
8 *851:9 0.0317614
9 *851:9 *852:9 0.000515944
10 *851:11 *854:11 0.238996
11 *851:11 *856:11 0
12 *851:11 *861:11 0.000259196
13 *851:15 *853:17 0
14 *851:15 *853:21 0
15 *851:15 *861:25 2.34343e-05
16 *851:15 *868:15 0.00222394
17 *851:19 *868:15 0.00534227
18 *921:mask_rev[21] *921:mask_rev[22] 0
19 *207:49 *851:15 1.23312e-05
20 *295:25 *851:15 9.7244e-05
21 *353:29 *851:15 9.33599e-06
22 *388:21 *851:15 0.000167735
23 *388:23 *851:11 0.0095215
24 *428:11 *851:15 0
25 *428:11 *851:19 0.00791214
26 *434:11 *851:19 0
27 *435:21 *851:15 5.43519e-05
28 *454:41 *851:15 0.00032606
29 *454:51 *851:15 0
30 *557:29 *851:15 3.36395e-05
31 *804:11 *851:19 0.00334703
32 *843:11 *851:11 0.0521862
33 *850:9 *851:9 0.00035141
34 *850:11 *851:11 0.223139
35 *850:23 *851:15 0
*RES
1 mask_rev[22] *851:9 13.2575 
2 *851:9 *851:11 2203.62 
3 *851:11 *851:13 2 
4 *851:13 *851:15 51.1125 
5 *851:15 *851:17 0.45 
6 *851:17 *851:19 201.93 
7 *851:19 *921:mask_rev[22] 2.14413 
*END

*D_NET *852 0.580695
*CONN
*P mask_rev[23] I
*I *921:mask_rev[23] I *D CF_CARAVEL_SOC
*CAP
1 mask_rev[23] 0.000746387
2 *921:mask_rev[23] 0.00140919
3 *852:27 0.00536355
4 *852:25 0.00528021
5 *852:19 0.00940875
6 *852:17 0.00831617
7 *852:11 0.0317748
8 *852:9 0.0322879
9 *921:mask_rev[23] *921:mask_rev[24] 0
10 *852:9 *853:9 0.000193403
11 *852:27 *854:27 0.00572996
12 *852:27 *864:15 0.000484444
13 *164:43 *852:11 0.0106758
14 *167:15 *852:9 0
15 *249:15 *852:11 0
16 *249:25 *852:25 9.5732e-05
17 *252:11 *852:9 0.00138429
18 *255:15 *852:11 0.000330133
19 *289:21 *852:9 7.96104e-06
20 *295:25 *852:25 6.90597e-06
21 *322:149 *852:11 0.00154032
22 *338:71 *852:19 0.0306858
23 *339:23 *852:11 0.00467973
24 *343:15 *852:11 0.0251983
25 *364:39 *852:11 0.113004
26 *386:11 *852:27 0.00198164
27 *390:23 *852:11 0.142064
28 *429:19 *852:25 0.000125859
29 *448:31 *852:27 0.000314814
30 *449:29 *852:27 0.0116806
31 *471:11 *852:27 0.0210132
32 *472:11 *852:11 0.000739771
33 *474:15 *852:19 0.00469159
34 *545:11 *852:19 0.0097121
35 *554:13 *852:19 0.0107049
36 *559:29 *852:25 0.000663782
37 *693:163 *852:11 0.000228141
38 *760:21 *852:25 0.000533939
39 *780:13 *852:19 0.0454038
40 *780:13 *852:25 0.000396546
41 *826:11 *852:27 0.00228374
42 *829:33 *852:27 8.2362e-05
43 *847:6 *852:9 0
44 *847:8 *852:11 0.0301326
45 *847:16 *852:19 0.00813676
46 *847:16 *852:25 2.5118e-05
47 *847:36 *852:25 0.000660315
48 *849:9 *852:9 0
49 *851:9 *852:9 0.000515944
*RES
1 mask_rev[23] *852:9 23.0975 
2 *852:9 *852:11 1782.38 
3 *852:11 *852:17 5.5375 
4 *852:17 *852:19 68.8801 
5 *852:19 *852:25 4.53687 
6 *852:25 *852:27 245.415 
7 *852:27 *921:mask_rev[23] 3.54253 
*END

*D_NET *853 0.527581
*CONN
*P mask_rev[24] I
*I *921:mask_rev[24] I *D CF_CARAVEL_SOC
*CAP
1 mask_rev[24] 0.000172823
2 *921:mask_rev[24] 0.000943711
3 *853:23 0.0041602
4 *853:21 0.00407686
5 *853:17 0.00205779
6 *853:11 0.0445182
7 *853:9 0.0434936
8 *921:mask_rev[24] *921:mask_rev[25] 0
9 *853:9 *854:9 0.000204166
10 *853:11 *859:11 0.0793966
11 *853:11 *860:11 0.239202
12 *853:11 *865:11 0.000375825
13 *853:17 *861:25 0
14 *921:mask_rev[23] *921:mask_rev[24] 0
15 *207:49 *853:17 1.39062e-05
16 *248:33 *853:17 1.95231e-05
17 *252:11 *853:9 1.7635e-05
18 *252:15 *853:11 0.0394201
19 *295:25 *853:21 0
20 *353:29 *853:17 2.79778e-05
21 *385:15 *853:11 0.0116905
22 *397:13 *853:21 0.000376527
23 *397:13 *853:23 0.00357278
24 *428:21 *853:17 0
25 *431:11 *853:21 0.00282377
26 *431:11 *853:23 0.00488813
27 *432:11 *853:21 4.07443e-05
28 *435:21 *853:17 0
29 *542:23 *853:23 0.010717
30 *546:23 *853:17 0
31 *785:11 *853:21 7.91584e-06
32 *785:11 *853:23 0.00133888
33 *785:25 *853:17 0.000722481
34 *785:25 *853:21 0.00150042
35 *785:27 *853:11 2.64416e-05
36 *786:23 *853:11 0.0138117
37 *847:36 *853:21 5.74025e-05
38 *847:38 *853:21 0.000874186
39 *847:38 *853:23 0.0168378
40 *851:15 *853:17 0
41 *851:15 *853:21 0
42 *852:9 *853:9 0.000193403
*RES
1 mask_rev[24] *853:9 6.9275 
2 *853:9 *853:11 2207.07 
3 *853:11 *853:17 23.9675 
4 *853:17 *853:21 36.78 
5 *853:21 *853:23 212.64 
6 *853:23 *921:mask_rev[24] 2.552 
*END

*D_NET *854 0.654304
*CONN
*P mask_rev[25] I
*I *921:mask_rev[25] I *D CF_CARAVEL_SOC
*CAP
1 mask_rev[25] 0.000518943
2 *921:mask_rev[25] 0.00117364
3 *854:27 0.00523441
4 *854:25 0.0049284
5 *854:11 0.0318231
6 *854:9 0.0314744
7 *921:mask_rev[25] *921:mask_rev[26] 0.000367483
8 *854:9 *855:9 3.55563e-05
9 *854:9 *856:9 0
10 *854:11 *856:11 0
11 *854:11 *861:11 0.239215
12 *854:25 *860:15 0.00014406
13 *854:25 *861:25 0.000775206
14 *854:25 *862:21 0.000177514
15 *854:25 *864:11 0.00129706
16 *921:mask_rev[24] *921:mask_rev[25] 0
17 *248:17 *854:9 7.08297e-05
18 *249:25 *854:25 0.000100114
19 *252:11 *854:9 0.000184624
20 *302:21 *854:11 0.0103536
21 *429:17 *854:25 0.000130856
22 *429:17 *854:27 1.20478e-05
23 *435:11 *854:27 0.00238795
24 *448:31 *854:27 0.00253603
25 *449:29 *854:27 0.0125968
26 *737:171 *854:11 0.000410166
27 *781:21 *854:25 0
28 *825:11 *854:27 0.0228124
29 *825:21 *854:25 0.000438473
30 *829:33 *854:25 0.000453788
31 *829:33 *854:27 8.10123e-05
32 *843:11 *854:11 0.0393584
33 *850:21 *854:25 0.000281364
34 *851:11 *854:11 0.238996
35 *852:27 *854:27 0.00572996
36 *853:9 *854:9 0.000204166
*RES
1 mask_rev[25] *854:9 13.4525 
2 *854:9 *854:11 2201.55 
3 *854:11 *854:25 19.0666 
4 *854:25 *854:27 255.615 
5 *854:27 *921:mask_rev[25] 3.426 
*END

*D_NET *855 0.574937
*CONN
*P mask_rev[26] I
*I *921:mask_rev[26] I *D CF_CARAVEL_SOC
*CAP
1 mask_rev[26] 6.4744e-05
2 *921:mask_rev[26] 0.001851
3 *855:23 0.00510032
4 *855:21 0.00334727
5 *855:17 0.00217176
6 *855:11 0.0801065
7 *855:9 0.0780975
8 *921:mask_rev[26] *921:mask_rev[27] 0
9 *855:9 *856:9 5.26329e-05
10 *855:17 *859:23 0.000210042
11 *855:17 *862:23 0.00285253
12 *855:23 *861:27 0.0213254
13 gpio_analog_en[38] *855:11 0.000574938
14 *921:mask_rev[25] *921:mask_rev[26] 0.000367483
15 *120:15 *855:11 0.0839926
16 *248:33 *855:17 0
17 *248:35 *855:17 0
18 *251:15 *855:11 0.24145
19 *251:25 *855:17 0
20 *384:15 *855:11 0.0269386
21 *433:6 *921:mask_rev[26] 0.000262458
22 *461:21 *855:17 0
23 *543:23 *855:23 0.00461747
24 *558:25 *855:23 0.0213277
25 *693:95 *855:21 0.000190715
26 *824:21 *855:17 0
27 *854:9 *855:9 3.55563e-05
*RES
1 mask_rev[26] *855:9 3.5675 
2 *855:9 *855:11 2221.91 
3 *855:11 *855:17 48.22 
4 *855:17 *855:21 3.83 
5 *855:21 *855:23 237.128 
6 *855:23 *921:mask_rev[26] 4.7028 
*END

*D_NET *856 0.516282
*CONN
*P mask_rev[27] I
*I *921:mask_rev[27] I *D CF_CARAVEL_SOC
*CAP
1 mask_rev[27] 0.000780218
2 *921:mask_rev[27] 0.000744473
3 *856:19 0.00469835
4 *856:17 0.00445009
5 *856:11 0.0707774
6 *856:9 0.0710614
7 *921:mask_rev[27] *921:mask_rev[28] 0
8 *856:9 *857:9 0
9 *856:9 *858:9 0
10 *856:11 *861:11 0
11 *856:11 *862:11 0.0554622
12 *856:19 *858:23 0.0226589
13 *921:mask_rev[26] *921:mask_rev[27] 0
14 *207:23 *856:11 0.00159626
15 *335:17 *856:11 0.0482349
16 *353:31 *856:11 4.41432e-05
17 *388:23 *856:11 0.0167092
18 *433:6 *921:mask_rev[27] 0.000262458
19 *786:11 *856:19 0.00497399
20 *828:11 *856:17 0.000283417
21 *828:11 *856:19 0.0233484
22 *830:11 *856:17 0.000164361
23 *830:15 *856:11 0.188563
24 *850:11 *856:11 0
25 *850:23 *856:17 0.00106551
26 *850:23 *856:19 0.000349886
27 *851:11 *856:11 0
28 *854:9 *856:9 0
29 *854:11 *856:11 0
30 *855:9 *856:9 5.26329e-05
*RES
1 mask_rev[27] *856:9 15.4475 
2 *856:9 *856:11 2205.34 
3 *856:11 *856:17 15.5525 
4 *856:17 *856:19 261.615 
5 *856:19 *921:mask_rev[27] 2.02253 
*END

*D_NET *857 0.617872
*CONN
*P mask_rev[28] I
*I *921:mask_rev[28] I *D CF_CARAVEL_SOC
*CAP
1 mask_rev[28] 9.74337e-05
2 *921:mask_rev[28] 0.00236975
3 *857:23 0.00618802
4 *857:21 0.00507145
5 *857:11 0.0369896
6 *857:9 0.0358339
7 *921:mask_rev[28] *921:mask_rev[29] 0
8 *857:9 *858:9 0.000205063
9 *857:11 *863:11 0.238429
10 *921:mask_rev[27] *921:mask_rev[28] 0
11 *251:15 *857:11 0.0137621
12 *251:25 *857:21 0
13 *284:23 *857:11 0.142
14 *284:35 *857:11 0.00651517
15 *284:39 *857:11 0.000578545
16 *353:19 *857:21 0
17 *385:11 *857:21 0
18 *385:15 *857:11 0.000140954
19 *387:21 *857:11 0.00358842
20 *387:23 *857:11 0.0185591
21 *389:11 *857:23 0.0239567
22 *428:23 *857:11 0.00237842
23 *433:6 *921:mask_rev[28] 0.000262458
24 *453:41 *857:23 5.1985e-06
25 *453:47 *857:21 0.000321239
26 *538:43 *857:11 0.0145768
27 *554:13 *857:21 2.88598e-05
28 *555:17 *857:21 0.000495711
29 *692:27 *857:11 0.000855005
30 *692:35 *857:11 0.0278855
31 *697:115 *857:11 0.000709867
32 *741:128 *857:11 0.00708133
33 *793:11 *857:23 0.00500843
34 *827:11 *857:21 6.44978e-06
35 *827:11 *857:23 0.0239711
36 *856:9 *857:9 0
*RES
1 mask_rev[28] *857:9 4.5695 
2 *857:9 *857:11 2227.77 
3 *857:11 *857:21 29.94 
4 *857:21 *857:23 267.473 
5 *857:23 *921:mask_rev[28] 5.46027 
*END

*D_NET *858 0.568554
*CONN
*P mask_rev[29] I
*I *921:mask_rev[29] I *D CF_CARAVEL_SOC
*CAP
1 mask_rev[29] 0.00140975
2 *921:mask_rev[29] 0.000772267
3 *858:23 0.00475357
4 *858:21 0.00480996
5 *858:11 0.0384805
6 *858:9 0.0390616
7 *921:mask_rev[29] *921:mask_rev[30] 0
8 *858:9 *860:9 0.000136519
9 *921:gpio_in[0] *858:21 5.64401e-05
10 *921:mask_rev[28] *921:mask_rev[29] 0
11 *118:107 *858:11 0.00574081
12 *118:201 *858:11 0.0019902
13 *170:19 *858:9 0
14 *211:13 *858:11 0.00233636
15 *212:23 *858:11 0.0225312
16 *248:11 *858:9 0
17 *249:11 *858:9 0
18 *292:15 *858:11 0.132343
19 *325:19 *858:9 0.00182296
20 *386:69 *858:11 0.000393224
21 *408:23 *858:21 0.00213002
22 *430:21 *858:21 0.000274785
23 *430:23 *858:11 0
24 *433:6 *921:mask_rev[29] 0.000262458
25 *434:11 *858:23 0.00151059
26 *466:15 *858:11 0.00190628
27 *467:15 *858:21 0.00245562
28 *469:15 *858:11 0.00893134
29 *471:25 *858:21 1.87232e-05
30 *539:49 *858:11 0.00454906
31 *550:11 *858:11 0.00600917
32 *786:11 *858:23 0.00369396
33 *815:49 *858:11 0.00248584
34 *828:11 *858:23 0.000529867
35 *839:101 *858:11 0.000918148
36 *839:133 *858:11 0.00346716
37 *839:157 *858:11 0.00348551
38 *839:181 *858:11 0.00265888
39 *839:197 *858:11 0.00112235
40 *839:209 *858:11 0.000811177
41 *846:13 *858:11 0.221734
42 *850:23 *858:23 0.0200958
43 *856:9 *858:9 0
44 *856:19 *858:23 0.0226589
45 *857:9 *858:9 0.000205063
*RES
1 mask_rev[29] *858:9 33.7625 
2 *858:9 *858:11 2184.65 
3 *858:11 *858:21 10.1178 
4 *858:21 *858:23 263.265 
5 *858:23 *921:mask_rev[29] 2.0808 
*END

*D_NET *859 0.503761
*CONN
*P mask_rev[2] I
*I *921:mask_rev[2] I *D CF_CARAVEL_SOC
*CAP
1 mask_rev[2] 0.000291245
2 *921:mask_rev[2] 0.00220267
3 *859:23 0.0048137
4 *859:21 0.00261104
5 *859:19 0.00769688
6 *859:17 0.00782272
7 *859:11 0.0444684
8 *859:9 0.0446338
9 *921:mask_rev[2] *921:mask_rev[3] 0
10 *859:9 *862:9 0.000148655
11 *859:19 *863:21 0.000125815
12 *859:23 *862:23 0.0132536
13 gpio_dm2[42] *859:11 0.00416591
14 *921:mask_rev[1] *921:mask_rev[2] 0
15 *250:33 *859:19 0.00208798
16 *252:15 *859:11 0.0103879
17 *300:29 *859:11 0.00553141
18 *364:27 *859:23 0.00224006
19 *364:37 *859:23 0.00088756
20 *433:10 *859:19 0.0444822
21 *468:11 *859:23 0.0116063
22 *558:25 *859:23 1.20478e-05
23 *560:27 *859:11 0.0189553
24 *781:23 *859:19 0.0447669
25 *786:23 *859:11 0.140075
26 *804:23 *859:11 0
27 *824:21 *859:23 0.000404148
28 *825:23 *859:19 7.57464e-05
29 *829:35 *859:11 0.00170211
30 *829:35 *859:19 0.00103627
31 *837:9 *859:9 0
32 *844:13 *859:19 0.00753924
33 *848:9 *859:9 0.000129569
34 *853:11 *859:11 0.0793966
35 *855:17 *859:23 0.000210042
*RES
1 mask_rev[2] *859:9 7.8425 
2 *859:9 *859:11 1778.58 
3 *859:11 *859:17 4.2625 
4 *859:17 *859:19 71.3564 
5 *859:19 *859:21 0.5 
6 *859:21 *859:23 154.125 
7 *859:23 *921:mask_rev[2] 4.70533 
*END

*D_NET *860 0.647241
*CONN
*P mask_rev[30] I
*I *921:mask_rev[30] I *D CF_CARAVEL_SOC
*CAP
1 mask_rev[30] 0.000147298
2 *921:mask_rev[30] 0.000656627
3 *860:19 0.00686284
4 *860:17 0.006231
5 *860:15 0.00251189
6 *860:13 0.00248711
7 *860:11 0.0312031
8 *860:9 0.0313504
9 *921:mask_rev[30] *921:mask_rev[31] 0
10 *860:9 *861:9 0.000198805
11 *860:11 *865:11 0.237577
12 *860:11 *867:11 0.0001076
13 gpio_dm0[43] *860:11 0.000654511
14 gpio_out[40] *860:11 0.000368732
15 *921:mask_rev[29] *921:mask_rev[30] 0
16 *250:33 *860:15 4.11715e-05
17 *252:15 *860:11 0.0230903
18 *293:25 *860:15 0.000348825
19 *385:15 *860:11 0.0235182
20 *433:6 *921:mask_rev[30] 0.000262458
21 *450:13 *860:19 0.00945307
22 *454:51 *860:15 0.00216565
23 *465:21 *860:15 0.000225289
24 *538:53 *860:11 0.00247995
25 *542:15 *860:15 0
26 *542:15 *860:19 0
27 *559:29 *860:15 0.000100225
28 *692:27 *860:11 0.000582536
29 *781:21 *860:15 0
30 *785:25 *860:15 8.12411e-05
31 *786:11 *860:15 0.000187907
32 *786:11 *860:19 0.00191576
33 *786:21 *860:15 0
34 *830:11 *860:15 0.0013118
35 *830:11 *860:19 0.0216371
36 *840:27 *860:19 0
37 *842:21 *860:15 0
38 *853:11 *860:11 0.239202
39 *854:25 *860:15 0.00014406
40 *858:9 *860:9 0.000136519
*RES
1 mask_rev[30] *860:9 6.5375 
2 *860:9 *860:11 2206.38 
3 *860:11 *860:13 2 
4 *860:13 *860:15 57.9975 
5 *860:15 *860:17 0.45 
6 *860:17 *860:19 240.69 
7 *860:19 *921:mask_rev[30] 1.84773 
*END

*D_NET *861 0.580204
*CONN
*P mask_rev[31] I
*I *921:mask_rev[31] I *D CF_CARAVEL_SOC
*CAP
1 mask_rev[31] 0.000580482
2 *921:mask_rev[31] 0.00195748
3 *861:27 0.00614868
4 *861:25 0.00505284
5 *861:11 0.0382563
6 *861:9 0.0379751
7 *861:25 *862:21 0.00135008
8 *861:25 *864:11 0.000103303
9 *921:mask_rev[30] *921:mask_rev[31] 0
10 *248:19 *861:11 0.136501
11 *251:11 *861:9 0
12 *284:15 *861:11 0
13 *302:21 *861:11 0.0113331
14 *325:23 *861:11 0.000131289
15 *325:103 *861:11 0.00593374
16 *335:17 *861:11 0
17 *353:29 *861:25 5.22342e-06
18 *388:11 *861:25 0.00102843
19 *388:11 *861:27 0.000776953
20 *388:21 *861:25 0.00017374
21 *388:23 *861:11 1.19028e-05
22 *397:13 *921:mask_rev[31] 0
23 *433:6 *921:mask_rev[31] 0.000262458
24 *460:21 *861:27 4.00257e-05
25 *539:21 *861:11 0.00169218
26 *543:21 *861:27 6.16289e-05
27 *543:23 *861:27 0.00512463
28 *558:25 *861:27 0.00138295
29 *737:171 *861:11 0.000444928
30 *824:11 *861:27 0.0237261
31 *824:21 *861:25 0.000614926
32 *824:21 *861:27 0.00154732
33 *843:11 *861:11 0.0361894
34 *851:11 *861:11 0.000259196
35 *851:15 *861:25 2.34343e-05
36 *853:17 *861:25 0
37 *854:11 *861:11 0.239215
38 *854:25 *861:25 0.000775206
39 *855:23 *861:27 0.0213254
40 *856:11 *861:11 0
41 *860:9 *861:9 0.000198805
*RES
1 mask_rev[31] *861:9 13.0625 
2 *861:9 *861:11 2211.55 
3 *861:11 *861:25 21.0298 
4 *861:25 *861:27 282.015 
5 *861:27 *921:mask_rev[31] 4.64453 
*END

*D_NET *862 0.614217
*CONN
*P mask_rev[3] I
*I *921:mask_rev[3] I *D CF_CARAVEL_SOC
*CAP
1 mask_rev[3] 0.000756898
2 *921:mask_rev[3] 0.00223624
3 *862:23 0.00720335
4 *862:21 0.00575488
5 *862:11 0.0463712
6 *862:9 0.0463403
7 *862:9 *863:9 0.000119172
8 *862:9 *864:9 0
9 *862:11 *864:11 0.242869
10 *921:mask_rev[2] *921:mask_rev[3] 0
11 *124:13 *862:11 0.0989607
12 *248:33 *862:21 5.57338e-05
13 *248:35 *862:23 0
14 *364:27 *862:23 0.00224006
15 *468:11 *862:23 0.000265869
16 *552:23 *862:21 0.000460073
17 *804:21 *862:21 0.000266205
18 *837:9 *862:9 0
19 *843:11 *862:11 0.070623
20 *850:21 *862:11 0.0160928
21 *850:21 *862:21 0.000357655
22 *854:25 *862:21 0.000177514
23 *855:17 *862:23 0.00285253
24 *856:11 *862:11 0.0554622
25 *859:9 *862:9 0.000148655
26 *859:23 *862:23 0.0132536
27 *861:25 *862:21 0.00135008
*RES
1 mask_rev[3] *862:9 13.415 
2 *862:9 *862:11 368.633 
3 *862:11 *862:21 5.9842 
4 *862:21 *862:23 154.635 
5 *862:23 *921:mask_rev[3] 4.7636 
*END

*D_NET *863 0.633093
*CONN
*P mask_rev[4] I
*I *921:mask_rev[4] I *D CF_CARAVEL_SOC
*CAP
1 mask_rev[4] 0.000139954
2 *921:mask_rev[4] 0.00275656
3 *863:23 0.00551656
4 *863:21 0.00339886
5 *863:11 0.0315424
6 *863:9 0.0310435
7 *921:mask_rev[4] *921:mask_rev[5] 0
8 *863:9 *864:9 7.91965e-05
9 *863:21 *865:15 1.39062e-05
10 *251:25 *863:21 0.000669576
11 *284:35 *863:11 0.00711569
12 *284:39 *863:11 0.00528073
13 *385:11 *863:23 0.00133453
14 *385:15 *863:11 0.0017226
15 *385:15 *863:21 0.00185783
16 *387:21 *863:11 0.00172241
17 *387:21 *863:21 2.11032e-05
18 *419:13 *863:23 0.00284745
19 *428:21 *863:21 0
20 *428:23 *863:11 0.00209004
21 *451:21 *863:23 0.0125117
22 *467:11 *863:23 0.000806163
23 *692:27 *863:11 0.00014594
24 *692:35 *863:11 0.0305321
25 *697:115 *863:11 0.000650658
26 *741:128 *863:11 0.00772572
27 *829:35 *863:21 0.000110485
28 *848:11 *863:11 0.229211
29 *848:23 *863:23 0.0135725
30 *857:11 *863:11 0.238429
31 *859:19 *863:21 0.000125815
32 *862:9 *863:9 0.000119172
*RES
1 mask_rev[4] *863:9 5.2475 
2 *863:9 *863:11 2193.96 
3 *863:11 *863:21 7.71383 
4 *863:21 *863:23 168.405 
5 *863:23 *921:mask_rev[4] 5.98973 
*END

*D_NET *864 0.674559
*CONN
*P mask_rev[5] I
*I *921:mask_rev[5] I *D CF_CARAVEL_SOC
*CAP
1 mask_rev[5] 0.000793805
2 *921:mask_rev[5] 0.00176369
3 *864:15 0.00491538
4 *864:13 0.00315169
5 *864:11 0.0408397
6 *864:9 0.0416336
7 *921:mask_rev[5] *921:mask_rev[6] 0
8 *864:9 *865:9 0.000175123
9 *864:11 *868:11 4.27041e-05
10 *921:mask_rev[4] *921:mask_rev[5] 0
11 *124:13 *864:11 0.000103303
12 *207:23 *864:11 0.0126285
13 *335:17 *864:11 0.0101655
14 *388:11 *864:15 0
15 *388:21 *864:11 0.0010006
16 *465:21 *864:11 1.40238e-05
17 *471:11 *864:15 0.0126315
18 *749:25 *864:15 0
19 *771:25 *864:15 0
20 *826:11 *864:15 0.00275291
21 *829:33 *864:15 0.000316547
22 *830:15 *864:11 0.0404087
23 *846:39 *864:15 0.012927
24 *849:11 *864:11 0.243434
25 *850:21 *864:11 2.75207e-05
26 *852:27 *864:15 0.000484444
27 *854:25 *864:11 0.00129706
28 *861:25 *864:11 0.000103303
29 *862:9 *864:9 0
30 *862:11 *864:11 0.242869
31 *863:9 *864:9 7.91965e-05
*RES
1 mask_rev[5] *864:9 13.88 
2 *864:9 *864:11 371.313 
3 *864:11 *864:13 0.5 
4 *864:13 *864:15 163.305 
5 *864:15 *921:mask_rev[5] 3.83133 
*END

*D_NET *865 0.613989
*CONN
*P mask_rev[6] I
*I *921:mask_rev[6] I *D CF_CARAVEL_SOC
*CAP
1 mask_rev[6] 0.000234865
2 *921:mask_rev[6] 0.00140083
3 *865:15 0.00844255
4 *865:13 0.00704172
5 *865:11 0.0309796
6 *865:9 0.0312145
7 *865:9 *866:15 1.29051e-06
8 *865:9 *867:9 0
9 *865:11 *867:11 0.228834
10 gpio_dm0[43] *865:11 0.000599919
11 gpio_out[40] *865:11 0.000337977
12 *921:mask_rev[5] *921:mask_rev[6] 0
13 *252:15 *865:11 0.0252929
14 *292:25 *865:15 6.78025e-05
15 *385:15 *865:11 0.0214691
16 *389:21 *865:15 0
17 *428:21 *865:15 0.00209388
18 *429:11 *865:15 0
19 *430:11 *865:15 0.00229185
20 *448:13 *865:15 0
21 *458:21 *865:15 0
22 *538:53 *865:11 0.0022731
23 *549:13 *865:11 0.00570077
24 *771:25 *865:15 0
25 *824:23 *865:11 0.000144557
26 *825:21 *865:15 0
27 *829:29 *865:15 0
28 *829:33 *865:15 0
29 *837:15 *865:15 0.00621876
30 *845:27 *865:15 0.0012079
31 *853:11 *865:11 0.000375825
32 *860:11 *865:11 0.237577
33 *863:21 *865:15 1.39062e-05
34 *864:9 *865:9 0.000175123
*RES
1 mask_rev[6] *865:9 6.4775 
2 *865:9 *865:11 2194.65 
3 *865:11 *865:13 2 
4 *865:13 *865:15 177.458 
5 *865:15 *921:mask_rev[6] 3.07387 
*END

*D_NET *866 0.628797
*CONN
*P mask_rev[7] I
*I *921:mask_rev[7] I *D CF_CARAVEL_SOC
*CAP
1 mask_rev[7] 0.0022591
2 *921:mask_rev[7] 0.0056878
3 *866:17 0.052704
4 *866:15 0.0492753
5 *921:mask_rev[7] *921:mask_rev[8] 0.0142667
6 *866:15 *867:9 1.42914e-05
7 *921:gpio_in[0] *866:17 0.0130928
8 *921:gpio_in[11] *866:17 0.0135999
9 *921:gpio_in[19] *866:17 0.00707795
10 *120:15 *866:15 0.00084091
11 *325:133 *866:17 0.0019509
12 *341:18 *866:17 0.142185
13 *344:15 *866:17 0.0963913
14 *433:6 *921:mask_rev[7] 0.000231155
15 *443:31 *866:17 0.0219557
16 *448:33 *866:17 0.00655717
17 *449:37 *921:mask_rev[7] 0.00134772
18 *450:29 *921:mask_rev[7] 0.00134772
19 *451:25 *866:17 0.00536868
20 *457:23 *866:17 0.0152296
21 *467:15 *866:17 0.0924473
22 *471:27 *866:17 0.00389126
23 *557:19 *866:17 0.000424651
24 *566:11 *866:15 0.00213955
25 *793:27 *866:17 0.0244414
26 *815:25 *866:17 0.00572757
27 *815:47 *866:17 5.29688e-05
28 *815:49 *866:17 0.0205429
29 *837:9 *866:15 0.000293605
30 *839:101 *866:17 0.00429657
31 *839:133 *866:17 0.00453971
32 *839:157 *866:17 0.0044705
33 *839:181 *866:17 0.0067465
34 *839:197 *866:17 0.00122974
35 *839:209 *866:17 0.00530021
36 *839:217 *866:17 0.000700074
37 *846:37 *866:17 0.000167567
38 *865:9 *866:15 1.29051e-06
*RES
1 mask_rev[7] *866:15 36.266 
2 *866:15 *866:17 367.089 
3 *866:17 *921:mask_rev[7] 27.0933 
*END

*D_NET *867 0.611773
*CONN
*P mask_rev[8] I
*I *921:mask_rev[8] I *D CF_CARAVEL_SOC
*CAP
1 mask_rev[8] 0.000268275
2 *921:mask_rev[8] 0.00501017
3 *867:17 0.00752618
4 *867:11 0.0330704
5 *867:9 0.0308227
6 *921:mask_rev[8] *873:39 0.00226851
7 *867:9 *868:9 0
8 gpio_dm0[43] *867:11 0.00042248
9 gpio_dm1[39] *867:11 0.00388297
10 gpio_out[40] *867:11 0.000337977
11 gpio_out[42] *867:11 0.00312368
12 *921:mask_rev[7] *921:mask_rev[8] 0.0142667
13 *252:15 *867:11 0.00909986
14 *385:15 *867:11 0.00114225
15 *386:45 *921:mask_rev[8] 0.00864931
16 *433:6 *921:mask_rev[8] 0.0147072
17 *471:25 *921:mask_rev[8] 0.000630406
18 *549:13 *867:11 0.187686
19 *692:27 *867:11 0.0243241
20 *693:193 *867:11 0.00933906
21 *697:115 *867:11 0.00121499
22 *698:27 *867:11 0.0116238
23 *824:23 *867:11 0.0110245
24 *826:29 *921:mask_rev[8] 0.00237627
25 *860:11 *867:11 0.0001076
26 *865:9 *867:9 0
27 *865:11 *867:11 0.228834
28 *866:15 *867:9 1.42914e-05
*RES
1 mask_rev[8] *867:9 6.1775 
2 *867:9 *867:11 2107.36 
3 *867:11 *867:17 37.4125 
4 *867:17 *921:mask_rev[8] 39.7461 
*END

*D_NET *868 0.695767
*CONN
*P mask_rev[9] I
*I *921:mask_rev[9] I *D CF_CARAVEL_SOC
*CAP
1 mask_rev[9] 0.000652509
2 *921:mask_rev[9] 0.0007544
3 *868:15 0.00453072
4 *868:13 0.00377632
5 *868:11 0.0414125
6 *868:9 0.0420651
7 *921:mask_rev[10] *921:mask_rev[9] 0
8 *119:23 *868:11 6.89829e-05
9 *336:47 *868:11 0.0314516
10 *434:11 *868:15 0.015167
11 *450:27 *921:mask_rev[9] 7.5434e-05
12 *454:41 *868:15 0.00316639
13 *465:21 *868:11 0.000133442
14 *542:11 *868:11 0.0416336
15 *570:22 *868:11 0.0145118
16 *838:9 *868:9 0.00115726
17 *841:11 *868:11 0.243153
18 *849:11 *868:11 0.243861
19 *849:15 *868:15 0.000587612
20 *851:15 *868:15 0.00222394
21 *851:19 *868:15 0.00534227
22 *864:11 *868:11 4.27041e-05
23 *867:9 *868:9 0
*RES
1 mask_rev[9] *868:9 14.69 
2 *868:9 *868:11 370.264 
3 *868:11 *868:13 0.5 
4 *868:13 *868:15 183.705 
5 *868:15 *921:mask_rev[9] 1.96933 
*END

*D_NET *871 0.0252091
*CONN
*P porb_l I
*I *921:porb_l I *D CF_CARAVEL_SOC
*CAP
1 porb_l 0.0100363
2 *921:porb_l 0.0100363
3 *921:porb_l *873:47 0.000655426
4 *295:27 *921:porb_l 0
5 *385:11 *921:porb_l 0.000211518
6 *419:13 *921:porb_l 0.00335815
7 *450:27 *921:porb_l 0.000111222
8 *737:81 *921:porb_l 0.000800143
*RES
1 porb_l *921:porb_l 26.8653 
*END

*D_NET *873 0.462614
*CONN
*P resetb_l I
*I *921:resetb_l I *D CF_CARAVEL_SOC
*I *920:resetb I *D counter_macro
*CAP
1 resetb_l 0.00206257
2 *921:resetb_l 0.000330214
3 *920:resetb 0
4 *873:61 0.0138497
5 *873:59 0.0138497
6 *873:57 0.00398925
7 *873:55 0.00589434
8 *873:49 0.0277856
9 *873:47 0.0305565
10 *873:43 0.00513684
11 *873:39 0.00399375
12 *873:37 0.0049006
13 *873:33 0.00387417
14 *873:29 0.00516059
15 *873:25 0.00557131
16 *873:21 0.00966657
17 *873:17 0.00969139
18 *873:13 0.00533484
19 *921:gpio_in[10] *873:17 0
20 *921:mask_rev[8] *873:39 0.00226851
21 *921:porb_l *873:47 0.000655426
22 *202:27 *873:61 0.0581186
23 *322:235 *873:17 0
24 *325:159 *873:57 0.00595305
25 *334:44 *873:61 0.032229
26 *335:57 *873:57 0.00229469
27 *361:17 *873:61 0.00187076
28 *361:33 *873:61 0.00825947
29 *381:9 *873:55 0
30 *385:15 *873:13 0.00319612
31 *385:15 *873:29 0.00545178
32 *398:17 *873:49 0.00152445
33 *398:19 *873:49 0
34 *410:11 *873:57 0.0161668
35 *422:11 *873:49 0.0118057
36 *433:6 *921:resetb_l 0.000262458
37 *448:31 *873:47 0
38 *449:37 *873:39 0
39 *539:155 *873:37 0.00166464
40 *541:89 *873:21 0
41 *541:89 *873:25 0
42 *546:25 *873:49 0.0916988
43 *554:25 *873:57 0.00130729
44 *693:91 *873:49 0
45 *693:95 *873:37 0.00168707
46 *693:125 *873:21 0
47 *737:103 *873:37 0.007992
48 *737:127 *873:25 0
49 *739:68 *873:25 0
50 *761:11 *873:49 0.0267457
51 *813:11 *873:49 0
52 *814:11 *873:49 0.000197546
53 *815:25 *873:37 0.007992
54 *816:11 *873:49 0.00902467
55 *829:35 *873:13 0.00319329
56 *829:35 *873:29 0.00544612
57 *844:17 *873:39 0.00396046
*RES
1 resetb_l *873:13 15.9095 
2 *873:13 *873:17 47.525 
3 *873:17 *873:21 18.892 
4 *873:21 *873:25 47.525 
5 *873:25 *873:29 15.396 
6 *873:29 *873:33 40.385 
7 *873:33 *873:37 12.1913 
8 *873:37 *873:39 100.065 
9 *873:39 *873:43 0.741933 
10 *873:43 *873:47 10.4725 
11 *873:47 *873:49 1019.59 
12 *873:49 *873:55 4.24267 
13 *873:55 *873:57 187.275 
14 *873:57 *873:59 0.5 
15 *873:59 *873:61 86.127 
16 *873:61 *920:resetb 0.5 
17 *873:43 *921:resetb_l 0.4066 
*END
